
     Program PWSCF v.7.5 starts on 10Jul2026 at 22:25:13 

     This program is part of the open-source Quantum ESPRESSO suite
     for quantum simulation of materials; please cite
         "P. Giannozzi et al., J. Phys.:Condens. Matter 21 395502 (2009);
         "P. Giannozzi et al., J. Phys.:Condens. Matter 29 465901 (2017);
         "P. Giannozzi et al., J. Chem. Phys. 152 154105 (2020);
          URL http://www.quantum-espresso.org", 
     in publications or presentations arising from this work. More details at
     http://www.quantum-espresso.org/quote

     Parallel version (MPI & OpenMP), running on       8 processor cores
     Number of MPI processes:                 8
     Threads/MPI process:                     1

     MPI processes distributed on     1 nodes
     0 MiB available memory on the printing compute node when the environment starts

     Reading input from Ba3Bi2.scf.nosoc.nc.in

     Current dimensions of program PWSCF are:
     Max number of different atomic species (ntypx) = 10
     Max number of k-points (npk) =  40000
     Max angular momentum in pseudopotentials (lmaxx) =  4

     K-points division:     npool     =       8
     Subspace diagonalization in iterative solution of the eigenvalue problem:
     a serial algorithm will be used


     G-vector sticks info
     --------------------
     sticks:   dense  smooth     PW     G-vecs:    dense   smooth      PW
     Sum        3397    3397    949               150117   150117   21975

     Using Slab Decomposition



     bravais-lattice index     =            0
     lattice parameter (alat)  =      12.3817  a.u.
     unit-cell volume          =    1898.2163 (a.u.)^3
     number of atoms/cell      =            5
     number of atomic types    =            2
     number of electrons       =        60.00
     number of Kohn-Sham states=           48
     kinetic-energy cutoff     =      70.0000  Ry
     charge density cutoff     =     280.0000  Ry
     scf convergence threshold =      1.0E-08
     mixing beta               =       0.3000
     number of iterations used =            8  plain     mixing
     Exchange-correlation= PBE
                           (   1   4   3   4   0   0   0)

     celldm(1)=  12.381746  celldm(2)=   0.000000  celldm(3)=   0.000000
     celldm(4)=   0.000000  celldm(5)=   0.000000  celldm(6)=   0.000000

     crystal axes: (cart. coord. in units of alat)
               a(1) = (   1.000000   0.000000   0.000000 )  
               a(2) = (   0.000000   1.000000   0.000000 )  
               a(3) = (   0.000000   0.000000   1.000000 )  

     reciprocal axes: (cart. coord. in units 2 pi/alat)
               b(1) = (  1.000000  0.000000  0.000000 )  
               b(2) = (  0.000000  1.000000  0.000000 )  
               b(3) = (  0.000000  0.000000  1.000000 )  


     PseudoPot. # 1 for Ba read from file:
     ./pseudo_nc/Ba_SR.upf
     MD5 check sum: d1993ebf099ea5c29fdb9ecc5bd2bc91
     Pseudo is Norm-conserving + core correction, Zval = 10.0
     Generated using ONCVPSP code by D. R. Hamann
     Using radial grid of 1958 points,  6 beta functions with: 
                l(1) =   0
                l(2) =   0
                l(3) =   1
                l(4) =   1
                l(5) =   2
                l(6) =   2

     PseudoPot. # 2 for Bi read from file:
     ./pseudo_nc/Bi_SR.upf
     MD5 check sum: 200c63f77f1a5690b65e64056759e8a3
     Pseudo is Norm-conserving + core correction, Zval = 15.0
     Generated using ONCVPSP code by D. R. Hamann
     Using radial grid of 1490 points,  6 beta functions with: 
                l(1) =   0
                l(2) =   0
                l(3) =   1
                l(4) =   1
                l(5) =   2
                l(6) =   2

     atomic species   valence    mass     pseudopotential
     Ba               10.00   137.32700     Ba( 1.00)
     Bi               15.00   208.98000     Bi( 1.00)

     No symmetry found


                                    s                        frac. trans.

      isym =  1     identity                                     

 cryst.   s( 1) = (     1          0          0      )
                  (     0          1          0      )
                  (     0          0          1      )

 cart.    s( 1) = (  1.0000000  0.0000000  0.0000000 )
                  (  0.0000000  1.0000000  0.0000000 )
                  (  0.0000000  0.0000000  1.0000000 )


   Cartesian axes

     site n.     atom                  positions (alat units)
         1        Ba     tau(   1) = (   0.0000000   0.5000000   0.5000000  )
         2        Ba     tau(   2) = (   0.5000000   0.0000000   0.5000000  )
         3        Ba     tau(   3) = (   0.5000000   0.5000000   0.0000000  )
         4        Bi     tau(   4) = (   0.0000000   0.0000000   0.0000000  )
         5        Bi     tau(   5) = (   0.5000000   0.5000000   0.5000000  )

   Crystallographic axes

     site n.     atom                  positions (cryst. coord.)
         1        Ba     tau(   1) = (  0.0000000  0.5000000  0.5000000  )
         2        Ba     tau(   2) = (  0.5000000  0.0000000  0.5000000  )
         3        Ba     tau(   3) = (  0.5000000  0.5000000  0.0000000  )
         4        Bi     tau(   4) = (  0.0000000  0.0000000  0.0000000  )
         5        Bi     tau(   5) = (  0.5000000  0.5000000  0.5000000  )

     number of k points=    64  Methfessel-Paxton smearing, width (Ry)=  0.0100
                       cart. coord. in units 2pi/alat
        k(    1) = (   0.0000000   0.0000000   0.0000000), wk =   0.0312500
        k(    2) = (   0.0000000   0.0000000   0.2500000), wk =   0.0312500
        k(    3) = (   0.0000000   0.0000000  -0.5000000), wk =   0.0312500
        k(    4) = (   0.0000000   0.0000000  -0.2500000), wk =   0.0312500
        k(    5) = (   0.0000000   0.2500000   0.0000000), wk =   0.0312500
        k(    6) = (   0.0000000   0.2500000   0.2500000), wk =   0.0312500
        k(    7) = (   0.0000000   0.2500000  -0.5000000), wk =   0.0312500
        k(    8) = (   0.0000000   0.2500000  -0.2500000), wk =   0.0312500
        k(    9) = (   0.0000000  -0.5000000   0.0000000), wk =   0.0312500
        k(   10) = (   0.0000000  -0.5000000   0.2500000), wk =   0.0312500
        k(   11) = (   0.0000000  -0.5000000  -0.5000000), wk =   0.0312500
        k(   12) = (   0.0000000  -0.5000000  -0.2500000), wk =   0.0312500
        k(   13) = (   0.0000000  -0.2500000   0.0000000), wk =   0.0312500
        k(   14) = (   0.0000000  -0.2500000   0.2500000), wk =   0.0312500
        k(   15) = (   0.0000000  -0.2500000  -0.5000000), wk =   0.0312500
        k(   16) = (   0.0000000  -0.2500000  -0.2500000), wk =   0.0312500
        k(   17) = (   0.2500000   0.0000000   0.0000000), wk =   0.0312500
        k(   18) = (   0.2500000   0.0000000   0.2500000), wk =   0.0312500
        k(   19) = (   0.2500000   0.0000000  -0.5000000), wk =   0.0312500
        k(   20) = (   0.2500000   0.0000000  -0.2500000), wk =   0.0312500
        k(   21) = (   0.2500000   0.2500000   0.0000000), wk =   0.0312500
        k(   22) = (   0.2500000   0.2500000   0.2500000), wk =   0.0312500
        k(   23) = (   0.2500000   0.2500000  -0.5000000), wk =   0.0312500
        k(   24) = (   0.2500000   0.2500000  -0.2500000), wk =   0.0312500
        k(   25) = (   0.2500000  -0.5000000   0.0000000), wk =   0.0312500
        k(   26) = (   0.2500000  -0.5000000   0.2500000), wk =   0.0312500
        k(   27) = (   0.2500000  -0.5000000  -0.5000000), wk =   0.0312500
        k(   28) = (   0.2500000  -0.5000000  -0.2500000), wk =   0.0312500
        k(   29) = (   0.2500000  -0.2500000   0.0000000), wk =   0.0312500
        k(   30) = (   0.2500000  -0.2500000   0.2500000), wk =   0.0312500
        k(   31) = (   0.2500000  -0.2500000  -0.5000000), wk =   0.0312500
        k(   32) = (   0.2500000  -0.2500000  -0.2500000), wk =   0.0312500
        k(   33) = (  -0.5000000   0.0000000   0.0000000), wk =   0.0312500
        k(   34) = (  -0.5000000   0.0000000   0.2500000), wk =   0.0312500
        k(   35) = (  -0.5000000   0.0000000  -0.5000000), wk =   0.0312500
        k(   36) = (  -0.5000000   0.0000000  -0.2500000), wk =   0.0312500
        k(   37) = (  -0.5000000   0.2500000   0.0000000), wk =   0.0312500
        k(   38) = (  -0.5000000   0.2500000   0.2500000), wk =   0.0312500
        k(   39) = (  -0.5000000   0.2500000  -0.5000000), wk =   0.0312500
        k(   40) = (  -0.5000000   0.2500000  -0.2500000), wk =   0.0312500
        k(   41) = (  -0.5000000  -0.5000000   0.0000000), wk =   0.0312500
        k(   42) = (  -0.5000000  -0.5000000   0.2500000), wk =   0.0312500
        k(   43) = (  -0.5000000  -0.5000000  -0.5000000), wk =   0.0312500
        k(   44) = (  -0.5000000  -0.5000000  -0.2500000), wk =   0.0312500
        k(   45) = (  -0.5000000  -0.2500000   0.0000000), wk =   0.0312500
        k(   46) = (  -0.5000000  -0.2500000   0.2500000), wk =   0.0312500
        k(   47) = (  -0.5000000  -0.2500000  -0.5000000), wk =   0.0312500
        k(   48) = (  -0.5000000  -0.2500000  -0.2500000), wk =   0.0312500
        k(   49) = (  -0.2500000   0.0000000   0.0000000), wk =   0.0312500
        k(   50) = (  -0.2500000   0.0000000   0.2500000), wk =   0.0312500
        k(   51) = (  -0.2500000   0.0000000  -0.5000000), wk =   0.0312500
        k(   52) = (  -0.2500000   0.0000000  -0.2500000), wk =   0.0312500
        k(   53) = (  -0.2500000   0.2500000   0.0000000), wk =   0.0312500
        k(   54) = (  -0.2500000   0.2500000   0.2500000), wk =   0.0312500
        k(   55) = (  -0.2500000   0.2500000  -0.5000000), wk =   0.0312500
        k(   56) = (  -0.2500000   0.2500000  -0.2500000), wk =   0.0312500
        k(   57) = (  -0.2500000  -0.5000000   0.0000000), wk =   0.0312500
        k(   58) = (  -0.2500000  -0.5000000   0.2500000), wk =   0.0312500
        k(   59) = (  -0.2500000  -0.5000000  -0.5000000), wk =   0.0312500
        k(   60) = (  -0.2500000  -0.5000000  -0.2500000), wk =   0.0312500
        k(   61) = (  -0.2500000  -0.2500000   0.0000000), wk =   0.0312500
        k(   62) = (  -0.2500000  -0.2500000   0.2500000), wk =   0.0312500
        k(   63) = (  -0.2500000  -0.2500000  -0.5000000), wk =   0.0312500
        k(   64) = (  -0.2500000  -0.2500000  -0.2500000), wk =   0.0312500

                       cryst. coord.
        k(    1) = (   0.0000000   0.0000000   0.0000000), wk =   0.0312500
        k(    2) = (   0.0000000   0.0000000   0.2500000), wk =   0.0312500
        k(    3) = (   0.0000000   0.0000000  -0.5000000), wk =   0.0312500
        k(    4) = (   0.0000000   0.0000000  -0.2500000), wk =   0.0312500
        k(    5) = (   0.0000000   0.2500000   0.0000000), wk =   0.0312500
        k(    6) = (   0.0000000   0.2500000   0.2500000), wk =   0.0312500
        k(    7) = (   0.0000000   0.2500000  -0.5000000), wk =   0.0312500
        k(    8) = (   0.0000000   0.2500000  -0.2500000), wk =   0.0312500
        k(    9) = (   0.0000000  -0.5000000   0.0000000), wk =   0.0312500
        k(   10) = (   0.0000000  -0.5000000   0.2500000), wk =   0.0312500
        k(   11) = (   0.0000000  -0.5000000  -0.5000000), wk =   0.0312500
        k(   12) = (   0.0000000  -0.5000000  -0.2500000), wk =   0.0312500
        k(   13) = (   0.0000000  -0.2500000   0.0000000), wk =   0.0312500
        k(   14) = (   0.0000000  -0.2500000   0.2500000), wk =   0.0312500
        k(   15) = (   0.0000000  -0.2500000  -0.5000000), wk =   0.0312500
        k(   16) = (   0.0000000  -0.2500000  -0.2500000), wk =   0.0312500
        k(   17) = (   0.2500000   0.0000000   0.0000000), wk =   0.0312500
        k(   18) = (   0.2500000   0.0000000   0.2500000), wk =   0.0312500
        k(   19) = (   0.2500000   0.0000000  -0.5000000), wk =   0.0312500
        k(   20) = (   0.2500000   0.0000000  -0.2500000), wk =   0.0312500
        k(   21) = (   0.2500000   0.2500000   0.0000000), wk =   0.0312500
        k(   22) = (   0.2500000   0.2500000   0.2500000), wk =   0.0312500
        k(   23) = (   0.2500000   0.2500000  -0.5000000), wk =   0.0312500
        k(   24) = (   0.2500000   0.2500000  -0.2500000), wk =   0.0312500
        k(   25) = (   0.2500000  -0.5000000   0.0000000), wk =   0.0312500
        k(   26) = (   0.2500000  -0.5000000   0.2500000), wk =   0.0312500
        k(   27) = (   0.2500000  -0.5000000  -0.5000000), wk =   0.0312500
        k(   28) = (   0.2500000  -0.5000000  -0.2500000), wk =   0.0312500
        k(   29) = (   0.2500000  -0.2500000   0.0000000), wk =   0.0312500
        k(   30) = (   0.2500000  -0.2500000   0.2500000), wk =   0.0312500
        k(   31) = (   0.2500000  -0.2500000  -0.5000000), wk =   0.0312500
        k(   32) = (   0.2500000  -0.2500000  -0.2500000), wk =   0.0312500
        k(   33) = (  -0.5000000   0.0000000   0.0000000), wk =   0.0312500
        k(   34) = (  -0.5000000   0.0000000   0.2500000), wk =   0.0312500
        k(   35) = (  -0.5000000   0.0000000  -0.5000000), wk =   0.0312500
        k(   36) = (  -0.5000000   0.0000000  -0.2500000), wk =   0.0312500
        k(   37) = (  -0.5000000   0.2500000   0.0000000), wk =   0.0312500
        k(   38) = (  -0.5000000   0.2500000   0.2500000), wk =   0.0312500
        k(   39) = (  -0.5000000   0.2500000  -0.5000000), wk =   0.0312500
        k(   40) = (  -0.5000000   0.2500000  -0.2500000), wk =   0.0312500
        k(   41) = (  -0.5000000  -0.5000000   0.0000000), wk =   0.0312500
        k(   42) = (  -0.5000000  -0.5000000   0.2500000), wk =   0.0312500
        k(   43) = (  -0.5000000  -0.5000000  -0.5000000), wk =   0.0312500
        k(   44) = (  -0.5000000  -0.5000000  -0.2500000), wk =   0.0312500
        k(   45) = (  -0.5000000  -0.2500000   0.0000000), wk =   0.0312500
        k(   46) = (  -0.5000000  -0.2500000   0.2500000), wk =   0.0312500
        k(   47) = (  -0.5000000  -0.2500000  -0.5000000), wk =   0.0312500
        k(   48) = (  -0.5000000  -0.2500000  -0.2500000), wk =   0.0312500
        k(   49) = (  -0.2500000   0.0000000   0.0000000), wk =   0.0312500
        k(   50) = (  -0.2500000   0.0000000   0.2500000), wk =   0.0312500
        k(   51) = (  -0.2500000   0.0000000  -0.5000000), wk =   0.0312500
        k(   52) = (  -0.2500000   0.0000000  -0.2500000), wk =   0.0312500
        k(   53) = (  -0.2500000   0.2500000   0.0000000), wk =   0.0312500
        k(   54) = (  -0.2500000   0.2500000   0.2500000), wk =   0.0312500
        k(   55) = (  -0.2500000   0.2500000  -0.5000000), wk =   0.0312500
        k(   56) = (  -0.2500000   0.2500000  -0.2500000), wk =   0.0312500
        k(   57) = (  -0.2500000  -0.5000000   0.0000000), wk =   0.0312500
        k(   58) = (  -0.2500000  -0.5000000   0.2500000), wk =   0.0312500
        k(   59) = (  -0.2500000  -0.5000000  -0.5000000), wk =   0.0312500
        k(   60) = (  -0.2500000  -0.5000000  -0.2500000), wk =   0.0312500
        k(   61) = (  -0.2500000  -0.2500000   0.0000000), wk =   0.0312500
        k(   62) = (  -0.2500000  -0.2500000   0.2500000), wk =   0.0312500
        k(   63) = (  -0.2500000  -0.2500000  -0.5000000), wk =   0.0312500
        k(   64) = (  -0.2500000  -0.2500000  -0.2500000), wk =   0.0312500

     Dense  grid:   150117 G-vectors     FFT dimensions: (  72,  72,  72)

     Dynamical RAM for                 wfc:      13.75 MB

     Dynamical RAM for     wfc (w. buffer):      13.75 MB

     Dynamical RAM for           str. fact:       4.58 MB

     Dynamical RAM for           local pot:       0.00 MB

     Dynamical RAM for          nlocal pot:      25.78 MB

     Dynamical RAM for                qrad:       2.69 MB

     Dynamical RAM for          rho,v,vnew:      15.41 MB

     Dynamical RAM for               rhoin:       5.14 MB

     Dynamical RAM for           G-vectors:       9.74 MB

     Dynamical RAM for          h,s,v(r/c):       0.42 MB

     Dynamical RAM for          <psi|beta>:       0.07 MB

     Dynamical RAM for                 psi:      27.50 MB

     Dynamical RAM for                hpsi:      27.50 MB

     Dynamical RAM for      wfcinit/wfcrot:      27.55 MB

     Estimated static dynamical RAM per process >      98.20 MB

     Estimated max dynamical RAM per process >     153.68 MB

     Estimated total dynamical RAM >       1.20 GB

     Initial potential from superposition of free atoms

     starting charge      59.9486, renormalised to      60.0000
     Starting wfcs are   33 randomized atomic wfcs +   15 random wfcs

     total cpu time spent up to now is        5.2 secs

     Self-consistent Calculation

     iteration #  1     ecut=    70.00 Ry     beta= 0.30
     Davidson diagonalization with overlap

---- Real-time Memory Report at c_bands before calling an iterative solver
             0 MiB given to the printing process from OS
             0 MiB allocation reported by mallinfo(arena+hblkhd)
             0 MiB available memory on the node where the printing process lives
------------------
     ethr =  1.00E-02,  avg # of iterations =  7.7

     Threshold (ethr) on eigenvalues was too large:
     Diagonalizing with lowered threshold

     Davidson diagonalization with overlap

---- Real-time Memory Report at c_bands before calling an iterative solver
             0 MiB given to the printing process from OS
             0 MiB allocation reported by mallinfo(arena+hblkhd)
             0 MiB available memory on the node where the printing process lives
------------------
     ethr =  3.68E-04,  avg # of iterations =  3.2

     total cpu time spent up to now is       29.4 secs

     total energy              =    -496.93333380 Ry
     estimated scf accuracy    <       0.21759084 Ry

     iteration #  2     ecut=    70.00 Ry     beta= 0.30
     Davidson diagonalization with overlap

---- Real-time Memory Report at c_bands before calling an iterative solver
             0 MiB given to the printing process from OS
             0 MiB allocation reported by mallinfo(arena+hblkhd)
             0 MiB available memory on the node where the printing process lives
------------------
     ethr =  3.63E-04,  avg # of iterations =  4.1

     total cpu time spent up to now is       38.1 secs

     total energy              =    -496.93679913 Ry
     estimated scf accuracy    <       0.04313146 Ry

     iteration #  3     ecut=    70.00 Ry     beta= 0.30
     Davidson diagonalization with overlap

---- Real-time Memory Report at c_bands before calling an iterative solver
             0 MiB given to the printing process from OS
             0 MiB allocation reported by mallinfo(arena+hblkhd)
             0 MiB available memory on the node where the printing process lives
------------------
     ethr =  7.19E-05,  avg # of iterations =  6.5

     total cpu time spent up to now is       48.6 secs

     total energy              =    -496.94197094 Ry
     estimated scf accuracy    <       0.00512472 Ry

     iteration #  4     ecut=    70.00 Ry     beta= 0.30
     Davidson diagonalization with overlap

---- Real-time Memory Report at c_bands before calling an iterative solver
             0 MiB given to the printing process from OS
             0 MiB allocation reported by mallinfo(arena+hblkhd)
             0 MiB available memory on the node where the printing process lives
------------------
     ethr =  8.54E-06,  avg # of iterations =  8.1

     total cpu time spent up to now is       61.2 secs

     total energy              =    -496.94269001 Ry
     estimated scf accuracy    <       0.00062342 Ry

     iteration #  5     ecut=    70.00 Ry     beta= 0.30
     Davidson diagonalization with overlap

---- Real-time Memory Report at c_bands before calling an iterative solver
             0 MiB given to the printing process from OS
             0 MiB allocation reported by mallinfo(arena+hblkhd)
             0 MiB available memory on the node where the printing process lives
------------------
     ethr =  1.04E-06,  avg # of iterations =  4.2

     total cpu time spent up to now is       72.0 secs

     total energy              =    -496.94279522 Ry
     estimated scf accuracy    <       0.00017304 Ry

     iteration #  6     ecut=    70.00 Ry     beta= 0.30
     Davidson diagonalization with overlap

---- Real-time Memory Report at c_bands before calling an iterative solver
             0 MiB given to the printing process from OS
             0 MiB allocation reported by mallinfo(arena+hblkhd)
             0 MiB available memory on the node where the printing process lives
------------------
     ethr =  2.88E-07,  avg # of iterations =  2.0

     total cpu time spent up to now is       80.7 secs

     total energy              =    -496.94279950 Ry
     estimated scf accuracy    <       0.00003300 Ry

     iteration #  7     ecut=    70.00 Ry     beta= 0.30
     Davidson diagonalization with overlap

---- Real-time Memory Report at c_bands before calling an iterative solver
             0 MiB given to the printing process from OS
             0 MiB allocation reported by mallinfo(arena+hblkhd)
             0 MiB available memory on the node where the printing process lives
------------------
     ethr =  5.50E-08,  avg # of iterations =  2.0

     total cpu time spent up to now is       88.7 secs

     total energy              =    -496.94280956 Ry
     estimated scf accuracy    <       0.00001401 Ry

     iteration #  8     ecut=    70.00 Ry     beta= 0.30
     Davidson diagonalization with overlap

---- Real-time Memory Report at c_bands before calling an iterative solver
             0 MiB given to the printing process from OS
             0 MiB allocation reported by mallinfo(arena+hblkhd)
             0 MiB available memory on the node where the printing process lives
------------------
     ethr =  2.34E-08,  avg # of iterations =  2.0

     total cpu time spent up to now is       96.7 secs

     total energy              =    -496.94281209 Ry
     estimated scf accuracy    <       0.00000018 Ry

     iteration #  9     ecut=    70.00 Ry     beta= 0.30
     Davidson diagonalization with overlap

---- Real-time Memory Report at c_bands before calling an iterative solver
             0 MiB given to the printing process from OS
             0 MiB allocation reported by mallinfo(arena+hblkhd)
             0 MiB available memory on the node where the printing process lives
------------------
     ethr =  3.06E-10,  avg # of iterations =  3.5

     total cpu time spent up to now is      105.6 secs

     total energy              =    -496.94281216 Ry
     estimated scf accuracy    <       0.00000004 Ry

     iteration # 10     ecut=    70.00 Ry     beta= 0.30
     Davidson diagonalization with overlap

---- Real-time Memory Report at c_bands before calling an iterative solver
             0 MiB given to the printing process from OS
             0 MiB allocation reported by mallinfo(arena+hblkhd)
             0 MiB available memory on the node where the printing process lives
------------------
     ethr =  6.97E-11,  avg # of iterations =  2.0

     total cpu time spent up to now is      114.5 secs

     total energy              =    -496.94281215 Ry
     estimated scf accuracy    <       0.00000004 Ry

     iteration # 11     ecut=    70.00 Ry     beta= 0.30
     Davidson diagonalization with overlap

---- Real-time Memory Report at c_bands before calling an iterative solver
             0 MiB given to the printing process from OS
             0 MiB allocation reported by mallinfo(arena+hblkhd)
             0 MiB available memory on the node where the printing process lives
------------------
     ethr =  6.29E-11,  avg # of iterations =  2.0

     total cpu time spent up to now is      122.5 secs

     End of self-consistent calculation

          k = 0.0000 0.0000 0.0000 ( 18805 PWs)   bands (ev):

   -22.9385 -22.9126 -22.9126 -16.0833 -16.0833 -16.0352 -16.0352 -16.0352
   -15.8243 -15.8243 -15.8243 -15.8238 -15.8238  -8.2625  -8.2625  -8.2625
    -8.0949  -8.0949  -8.0949  -8.0172  -8.0172  -8.0172  -4.6043  -3.4865
     5.1138   5.1138   5.1138   5.4677   5.9000   5.9000   5.9000   6.3368
     6.3368   6.3623   6.3623   6.3623   8.5894   8.5894   8.5894   9.0455
     9.0455  10.2521  10.4765  10.4882  10.4882  10.4882  11.3315  11.3315

     occupation numbers 
     1.0000   1.0000   1.0000   1.0000   1.0000   1.0000   1.0000   1.0000
     1.0000   1.0000   1.0000   1.0000   1.0000   1.0000   1.0000   1.0000
     1.0000   1.0000   1.0000   1.0000   1.0000   1.0000   1.0000   1.0000
     1.0000   1.0000   1.0000   1.0000   0.6689   0.6689   0.6689  -0.0001
    -0.0001  -0.0000  -0.0000  -0.0000  -0.0000  -0.0000  -0.0000  -0.0000
    -0.0000  -0.0000  -0.0000  -0.0000  -0.0000  -0.0000  -0.0000  -0.0000

          k = 0.0000 0.0000 0.2500 ( 18765 PWs)   bands (ev):

   -22.9349 -22.9149 -22.9126 -16.0909 -16.0833 -16.0354 -16.0354 -16.0352
   -15.8244 -15.8244 -15.8243 -15.8238 -15.8238  -8.2586  -8.2435  -8.2435
    -8.1003  -8.1003  -8.0964  -8.0780  -8.0299  -8.0299  -4.3891  -3.4754
     4.3311   4.7225   5.0424   5.0424   5.4605   5.4605   6.2697   6.4539
     6.6369   7.1087   7.1087   7.1624   8.2855   8.8653   8.8653   9.0739
     9.1367   9.4163   9.8563   9.8563  10.0133  10.4903  11.0537  11.0736

     occupation numbers 
     1.0000   1.0000   1.0000   1.0000   1.0000   1.0000   1.0000   1.0000
     1.0000   1.0000   1.0000   1.0000   1.0000   1.0000   1.0000   1.0000
     1.0000   1.0000   1.0000   1.0000   1.0000   1.0000   1.0000   1.0000
     1.0000   1.0000   1.0000   1.0000   1.0000   1.0000  -0.0011  -0.0000
    -0.0000  -0.0000  -0.0000  -0.0000  -0.0000  -0.0000  -0.0000  -0.0000
    -0.0000  -0.0000  -0.0000  -0.0000  -0.0000  -0.0000  -0.0000  -0.0000

          k = 0.0000 0.0000-0.5000 ( 18752 PWs)   bands (ev):

   -22.9299 -22.9186 -22.9126 -16.0985 -16.0833 -16.0356 -16.0356 -16.0352
   -15.8244 -15.8244 -15.8243 -15.8238 -15.8238  -8.2493  -8.2195  -8.2195
    -8.1402  -8.1112  -8.1112  -8.0979  -8.0423  -8.0423  -4.1637  -3.4648
     3.6542   4.3816   4.9670   4.9670   5.2645   5.2645   6.5684   6.6511
     7.1440   7.6697   7.7618   7.7618   7.9961   8.4774   8.8623   9.1136
     9.2464   9.2464   9.3455   9.3455  10.0924  10.3929  10.3929  11.0100

     occupation numbers 
     1.0000   1.0000   1.0000   1.0000   1.0000   1.0000   1.0000   1.0000
     1.0000   1.0000   1.0000   1.0000   1.0000   1.0000   1.0000   1.0000
     1.0000   1.0000   1.0000   1.0000   1.0000   1.0000   1.0000   1.0000
     1.0000   1.0000   1.0000   1.0000   1.0000   1.0000  -0.0000  -0.0000
    -0.0000  -0.0000  -0.0000  -0.0000  -0.0000  -0.0000  -0.0000  -0.0000
    -0.0000  -0.0000  -0.0000  -0.0000  -0.0000  -0.0000  -0.0000  -0.0000

          k = 0.0000 0.0000-0.2500 ( 18765 PWs)   bands (ev):

   -22.9349 -22.9149 -22.9126 -16.0909 -16.0833 -16.0354 -16.0354 -16.0352
   -15.8244 -15.8244 -15.8243 -15.8238 -15.8238  -8.2586  -8.2435  -8.2435
    -8.1003  -8.1003  -8.0964  -8.0780  -8.0299  -8.0299  -4.3891  -3.4754
     4.3311   4.7225   5.0424   5.0424   5.4605   5.4605   6.2697   6.4539
     6.6369   7.1087   7.1087   7.1624   8.2855   8.8653   8.8653   9.0739
     9.1367   9.4163   9.8563   9.8563  10.0133  10.4903  11.0537  11.0736

     occupation numbers 
     1.0000   1.0000   1.0000   1.0000   1.0000   1.0000   1.0000   1.0000
     1.0000   1.0000   1.0000   1.0000   1.0000   1.0000   1.0000   1.0000
     1.0000   1.0000   1.0000   1.0000   1.0000   1.0000   1.0000   1.0000
     1.0000   1.0000   1.0000   1.0000   1.0000   1.0000  -0.0011  -0.0000
    -0.0000  -0.0000  -0.0000  -0.0000  -0.0000  -0.0000  -0.0000  -0.0000
    -0.0000  -0.0000  -0.0000  -0.0000  -0.0000  -0.0000  -0.0000  -0.0000

          k = 0.0000 0.2500 0.0000 ( 18765 PWs)   bands (ev):

   -22.9349 -22.9149 -22.9126 -16.0909 -16.0833 -16.0354 -16.0354 -16.0352
   -15.8244 -15.8244 -15.8243 -15.8238 -15.8238  -8.2586  -8.2435  -8.2435
    -8.1003  -8.1003  -8.0964  -8.0780  -8.0299  -8.0299  -4.3891  -3.4754
     4.3311   4.7225   5.0424   5.0424   5.4605   5.4605   6.2697   6.4539
     6.6369   7.1087   7.1087   7.1624   8.2855   8.8653   8.8653   9.0739
     9.1367   9.4163   9.8563   9.8563  10.0133  10.4903  11.0537  11.0736

     occupation numbers 
     1.0000   1.0000   1.0000   1.0000   1.0000   1.0000   1.0000   1.0000
     1.0000   1.0000   1.0000   1.0000   1.0000   1.0000   1.0000   1.0000
     1.0000   1.0000   1.0000   1.0000   1.0000   1.0000   1.0000   1.0000
     1.0000   1.0000   1.0000   1.0000   1.0000   1.0000  -0.0011  -0.0000
    -0.0000  -0.0000  -0.0000  -0.0000  -0.0000  -0.0000  -0.0000  -0.0000
    -0.0000  -0.0000  -0.0000  -0.0000  -0.0000  -0.0000  -0.0000  -0.0000

          k = 0.0000 0.2500 0.2500 ( 18821 PWs)   bands (ev):

   -22.9315 -22.9156 -22.9139 -16.0947 -16.0872 -16.0356 -16.0354 -16.0354
   -15.8244 -15.8244 -15.8244 -15.8238 -15.8238  -8.3648  -8.2229  -8.1650
    -8.1508  -8.1028  -8.1018  -8.0709  -8.0474  -7.9939  -4.1878  -3.4681
     4.1130   4.1710   4.8076   4.9200   5.2626   5.3087   6.5693   6.7393
     6.8781   7.2434   7.3091   7.7912   8.5336   8.6239   8.6738   8.8430
     9.1950   9.3056   9.5931   9.6426   9.9719  10.4547  10.6173  11.6375

     occupation numbers 
     1.0000   1.0000   1.0000   1.0000   1.0000   1.0000   1.0000   1.0000
     1.0000   1.0000   1.0000   1.0000   1.0000   1.0000   1.0000   1.0000
     1.0000   1.0000   1.0000   1.0000   1.0000   1.0000   1.0000   1.0000
     1.0000   1.0000   1.0000   1.0000   1.0000   1.0000  -0.0000  -0.0000
    -0.0000  -0.0000  -0.0000  -0.0000  -0.0000  -0.0000  -0.0000  -0.0000
    -0.0000  -0.0000  -0.0000  -0.0000  -0.0000  -0.0000  -0.0000  -0.0000

          k = 0.0000 0.2500-0.5000 ( 18802 PWs)   bands (ev):

   -22.9267 -22.9186 -22.9144 -16.1012 -16.0882 -16.0357 -16.0356 -16.0354
   -15.8244 -15.8244 -15.8244 -15.8238 -15.8238  -8.4233  -8.1948  -8.1799
    -8.1285  -8.1181  -8.1109  -8.0665  -8.0495  -7.9865  -3.9739  -3.4611
     3.5059   3.9728   4.7864   4.8058   5.1037   5.2159   6.9220   7.0091
     7.3312   7.4304   7.6698   7.9270   8.2691   8.4905   8.6675   9.0425
     9.0479   9.1685   9.2914   9.6479   9.6881   9.8988  10.9819  11.2772

     occupation numbers 
     1.0000   1.0000   1.0000   1.0000   1.0000   1.0000   1.0000   1.0000
     1.0000   1.0000   1.0000   1.0000   1.0000   1.0000   1.0000   1.0000
     1.0000   1.0000   1.0000   1.0000   1.0000   1.0000   1.0000   1.0000
     1.0000   1.0000   1.0000   1.0000   1.0000   1.0000  -0.0000  -0.0000
    -0.0000  -0.0000  -0.0000  -0.0000  -0.0000  -0.0000  -0.0000  -0.0000
    -0.0000  -0.0000  -0.0000  -0.0000  -0.0000  -0.0000  -0.0000  -0.0000

          k = 0.0000 0.2500-0.2500 ( 18821 PWs)   bands (ev):

   -22.9315 -22.9156 -22.9139 -16.0947 -16.0872 -16.0356 -16.0354 -16.0354
   -15.8244 -15.8244 -15.8244 -15.8238 -15.8238  -8.3648  -8.2229  -8.1650
    -8.1508  -8.1028  -8.1018  -8.0709  -8.0474  -7.9939  -4.1878  -3.4681
     4.1130   4.1710   4.8076   4.9200   5.2626   5.3087   6.5693   6.7393
     6.8781   7.2434   7.3091   7.7912   8.5336   8.6239   8.6738   8.8430
     9.1950   9.3056   9.5931   9.6426   9.9719  10.4547  10.6173  11.6376

     occupation numbers 
     1.0000   1.0000   1.0000   1.0000   1.0000   1.0000   1.0000   1.0000
     1.0000   1.0000   1.0000   1.0000   1.0000   1.0000   1.0000   1.0000
     1.0000   1.0000   1.0000   1.0000   1.0000   1.0000   1.0000   1.0000
     1.0000   1.0000   1.0000   1.0000   1.0000   1.0000  -0.0000  -0.0000
    -0.0000  -0.0000  -0.0000  -0.0000  -0.0000  -0.0000  -0.0000  -0.0000
    -0.0000  -0.0000  -0.0000  -0.0000  -0.0000  -0.0000  -0.0000  -0.0000

          k = 0.0000-0.5000 0.0000 ( 18752 PWs)   bands (ev):

   -22.9299 -22.9186 -22.9126 -16.0985 -16.0833 -16.0356 -16.0356 -16.0352
   -15.8244 -15.8244 -15.8243 -15.8238 -15.8238  -8.2493  -8.2195  -8.2195
    -8.1402  -8.1112  -8.1112  -8.0979  -8.0423  -8.0423  -4.1637  -3.4648
     3.6542   4.3816   4.9670   4.9670   5.2645   5.2645   6.5684   6.6511
     7.1440   7.6697   7.7618   7.7618   7.9961   8.4774   8.8623   9.1136
     9.2464   9.2464   9.3455   9.3456  10.0924  10.3929  10.3929  11.0106

     occupation numbers 
     1.0000   1.0000   1.0000   1.0000   1.0000   1.0000   1.0000   1.0000
     1.0000   1.0000   1.0000   1.0000   1.0000   1.0000   1.0000   1.0000
     1.0000   1.0000   1.0000   1.0000   1.0000   1.0000   1.0000   1.0000
     1.0000   1.0000   1.0000   1.0000   1.0000   1.0000  -0.0000  -0.0000
    -0.0000  -0.0000  -0.0000  -0.0000  -0.0000  -0.0000  -0.0000  -0.0000
    -0.0000  -0.0000  -0.0000  -0.0000  -0.0000  -0.0000  -0.0000  -0.0000

          k = 0.0000-0.5000 0.2500 ( 18802 PWs)   bands (ev):

   -22.9267 -22.9186 -22.9144 -16.1012 -16.0882 -16.0357 -16.0356 -16.0354
   -15.8244 -15.8244 -15.8244 -15.8238 -15.8238  -8.4233  -8.1948  -8.1799
    -8.1285  -8.1181  -8.1109  -8.0665  -8.0495  -7.9865  -3.9739  -3.4611
     3.5059   3.9728   4.7864   4.8058   5.1037   5.2159   6.9220   7.0091
     7.3312   7.4304   7.6698   7.9270   8.2691   8.4905   8.6675   9.0425
     9.0479   9.1685   9.2914   9.6479   9.6881   9.8988  10.9820  11.2772

     occupation numbers 
     1.0000   1.0000   1.0000   1.0000   1.0000   1.0000   1.0000   1.0000
     1.0000   1.0000   1.0000   1.0000   1.0000   1.0000   1.0000   1.0000
     1.0000   1.0000   1.0000   1.0000   1.0000   1.0000   1.0000   1.0000
     1.0000   1.0000   1.0000   1.0000   1.0000   1.0000  -0.0000  -0.0000
    -0.0000  -0.0000  -0.0000  -0.0000  -0.0000  -0.0000  -0.0000  -0.0000
    -0.0000  -0.0000  -0.0000  -0.0000  -0.0000  -0.0000  -0.0000  -0.0000

          k = 0.0000-0.5000-0.5000 ( 18800 PWs)   bands (ev):

   -22.9212 -22.9186 -22.9186 -16.1059 -16.0910 -16.0359 -16.0356 -16.0356
   -15.8244 -15.8244 -15.8244 -15.8238 -15.8237  -8.5092  -8.2035  -8.1502
    -8.1180  -8.1180  -8.1106  -8.1106  -8.0241  -7.9375  -3.7697  -3.4574
     3.3779   3.3779   4.6789   4.9630   4.9630   5.1688   7.3162   7.3162
     7.3380   7.4165   7.6835   7.6835   8.4718   8.5379   8.8055   8.8726
     8.8726   9.2290   9.2425   9.6295   9.6718  10.4212  10.4212  11.5254

     occupation numbers 
     1.0000   1.0000   1.0000   1.0000   1.0000   1.0000   1.0000   1.0000
     1.0000   1.0000   1.0000   1.0000   1.0000   1.0000   1.0000   1.0000
     1.0000   1.0000   1.0000   1.0000   1.0000   1.0000   1.0000   1.0000
     1.0000   1.0000   1.0000   1.0000   1.0000   1.0000  -0.0000  -0.0000
    -0.0000  -0.0000  -0.0000  -0.0000  -0.0000  -0.0000  -0.0000  -0.0000
    -0.0000  -0.0000  -0.0000  -0.0000  -0.0000  -0.0000  -0.0000  -0.0000

          k = 0.0000-0.5000-0.2500 ( 18802 PWs)   bands (ev):

   -22.9267 -22.9186 -22.9144 -16.1012 -16.0882 -16.0357 -16.0356 -16.0354
   -15.8244 -15.8244 -15.8244 -15.8238 -15.8238  -8.4233  -8.1948  -8.1799
    -8.1285  -8.1181  -8.1109  -8.0665  -8.0495  -7.9865  -3.9739  -3.4611
     3.5059   3.9728   4.7864   4.8058   5.1037   5.2159   6.9220   7.0091
     7.3312   7.4304   7.6698   7.9270   8.2691   8.4905   8.6675   9.0425
     9.0479   9.1685   9.2914   9.6479   9.6881   9.8988  10.9819  11.2772

     occupation numbers 
     1.0000   1.0000   1.0000   1.0000   1.0000   1.0000   1.0000   1.0000
     1.0000   1.0000   1.0000   1.0000   1.0000   1.0000   1.0000   1.0000
     1.0000   1.0000   1.0000   1.0000   1.0000   1.0000   1.0000   1.0000
     1.0000   1.0000   1.0000   1.0000   1.0000   1.0000  -0.0000  -0.0000
    -0.0000  -0.0000  -0.0000  -0.0000  -0.0000  -0.0000  -0.0000  -0.0000
    -0.0000  -0.0000  -0.0000  -0.0000  -0.0000  -0.0000  -0.0000  -0.0000

          k = 0.0000-0.2500 0.0000 ( 18765 PWs)   bands (ev):

   -22.9349 -22.9149 -22.9126 -16.0909 -16.0833 -16.0354 -16.0354 -16.0352
   -15.8244 -15.8244 -15.8243 -15.8238 -15.8238  -8.2586  -8.2435  -8.2435
    -8.1003  -8.1003  -8.0964  -8.0780  -8.0299  -8.0299  -4.3891  -3.4754
     4.3311   4.7225   5.0424   5.0424   5.4605   5.4605   6.2697   6.4539
     6.6369   7.1087   7.1087   7.1624   8.2855   8.8653   8.8653   9.0739
     9.1367   9.4163   9.8563   9.8563  10.0133  10.4903  11.0537  11.0736

     occupation numbers 
     1.0000   1.0000   1.0000   1.0000   1.0000   1.0000   1.0000   1.0000
     1.0000   1.0000   1.0000   1.0000   1.0000   1.0000   1.0000   1.0000
     1.0000   1.0000   1.0000   1.0000   1.0000   1.0000   1.0000   1.0000
     1.0000   1.0000   1.0000   1.0000   1.0000   1.0000  -0.0011  -0.0000
    -0.0000  -0.0000  -0.0000  -0.0000  -0.0000  -0.0000  -0.0000  -0.0000
    -0.0000  -0.0000  -0.0000  -0.0000  -0.0000  -0.0000  -0.0000  -0.0000

          k = 0.0000-0.2500 0.2500 ( 18821 PWs)   bands (ev):

   -22.9315 -22.9156 -22.9139 -16.0947 -16.0872 -16.0356 -16.0354 -16.0354
   -15.8244 -15.8244 -15.8244 -15.8238 -15.8238  -8.3648  -8.2229  -8.1650
    -8.1508  -8.1028  -8.1018  -8.0709  -8.0474  -7.9939  -4.1878  -3.4681
     4.1130   4.1710   4.8076   4.9200   5.2626   5.3087   6.5693   6.7393
     6.8781   7.2434   7.3091   7.7912   8.5336   8.6239   8.6738   8.8430
     9.1950   9.3056   9.5931   9.6426   9.9719  10.4547  10.6173  11.6377

     occupation numbers 
     1.0000   1.0000   1.0000   1.0000   1.0000   1.0000   1.0000   1.0000
     1.0000   1.0000   1.0000   1.0000   1.0000   1.0000   1.0000   1.0000
     1.0000   1.0000   1.0000   1.0000   1.0000   1.0000   1.0000   1.0000
     1.0000   1.0000   1.0000   1.0000   1.0000   1.0000  -0.0000  -0.0000
    -0.0000  -0.0000  -0.0000  -0.0000  -0.0000  -0.0000  -0.0000  -0.0000
    -0.0000  -0.0000  -0.0000  -0.0000  -0.0000  -0.0000  -0.0000  -0.0000

          k = 0.0000-0.2500-0.5000 ( 18802 PWs)   bands (ev):

   -22.9267 -22.9186 -22.9144 -16.1012 -16.0882 -16.0357 -16.0356 -16.0354
   -15.8244 -15.8244 -15.8244 -15.8238 -15.8238  -8.4233  -8.1948  -8.1799
    -8.1285  -8.1181  -8.1109  -8.0665  -8.0495  -7.9865  -3.9739  -3.4611
     3.5059   3.9728   4.7864   4.8058   5.1037   5.2159   6.9220   7.0091
     7.3312   7.4304   7.6698   7.9270   8.2691   8.4905   8.6675   9.0425
     9.0479   9.1685   9.2914   9.6479   9.6881   9.8988  10.9819  11.2772

     occupation numbers 
     1.0000   1.0000   1.0000   1.0000   1.0000   1.0000   1.0000   1.0000
     1.0000   1.0000   1.0000   1.0000   1.0000   1.0000   1.0000   1.0000
     1.0000   1.0000   1.0000   1.0000   1.0000   1.0000   1.0000   1.0000
     1.0000   1.0000   1.0000   1.0000   1.0000   1.0000  -0.0000  -0.0000
    -0.0000  -0.0000  -0.0000  -0.0000  -0.0000  -0.0000  -0.0000  -0.0000
    -0.0000  -0.0000  -0.0000  -0.0000  -0.0000  -0.0000  -0.0000  -0.0000

          k = 0.0000-0.2500-0.2500 ( 18821 PWs)   bands (ev):

   -22.9315 -22.9156 -22.9139 -16.0947 -16.0872 -16.0356 -16.0354 -16.0354
   -15.8244 -15.8244 -15.8244 -15.8238 -15.8238  -8.3648  -8.2229  -8.1650
    -8.1508  -8.1028  -8.1018  -8.0709  -8.0474  -7.9939  -4.1878  -3.4681
     4.1130   4.1710   4.8076   4.9200   5.2626   5.3087   6.5693   6.7393
     6.8781   7.2434   7.3091   7.7912   8.5336   8.6239   8.6738   8.8430
     9.1950   9.3056   9.5931   9.6426   9.9719  10.4547  10.6173  11.6380

     occupation numbers 
     1.0000   1.0000   1.0000   1.0000   1.0000   1.0000   1.0000   1.0000
     1.0000   1.0000   1.0000   1.0000   1.0000   1.0000   1.0000   1.0000
     1.0000   1.0000   1.0000   1.0000   1.0000   1.0000   1.0000   1.0000
     1.0000   1.0000   1.0000   1.0000   1.0000   1.0000  -0.0000  -0.0000
    -0.0000  -0.0000  -0.0000  -0.0000  -0.0000  -0.0000  -0.0000  -0.0000
    -0.0000  -0.0000  -0.0000  -0.0000  -0.0000  -0.0000  -0.0000  -0.0000

          k = 0.2500 0.0000 0.0000 ( 18765 PWs)   bands (ev):

   -22.9349 -22.9149 -22.9126 -16.0909 -16.0833 -16.0354 -16.0354 -16.0352
   -15.8244 -15.8244 -15.8243 -15.8238 -15.8238  -8.2586  -8.2435  -8.2435
    -8.1003  -8.1003  -8.0964  -8.0780  -8.0299  -8.0299  -4.3891  -3.4754
     4.3311   4.7225   5.0424   5.0424   5.4605   5.4605   6.2697   6.4539
     6.6369   7.1087   7.1087   7.1624   8.2855   8.8653   8.8653   9.0739
     9.1367   9.4163   9.8563   9.8563  10.0133  10.4903  11.0537  11.0736

     occupation numbers 
     1.0000   1.0000   1.0000   1.0000   1.0000   1.0000   1.0000   1.0000
     1.0000   1.0000   1.0000   1.0000   1.0000   1.0000   1.0000   1.0000
     1.0000   1.0000   1.0000   1.0000   1.0000   1.0000   1.0000   1.0000
     1.0000   1.0000   1.0000   1.0000   1.0000   1.0000  -0.0011  -0.0000
    -0.0000  -0.0000  -0.0000  -0.0000  -0.0000  -0.0000  -0.0000  -0.0000
    -0.0000  -0.0000  -0.0000  -0.0000  -0.0000  -0.0000  -0.0000  -0.0000

          k = 0.2500 0.0000 0.2500 ( 18821 PWs)   bands (ev):

   -22.9315 -22.9156 -22.9139 -16.0947 -16.0872 -16.0356 -16.0354 -16.0354
   -15.8244 -15.8244 -15.8244 -15.8238 -15.8238  -8.3648  -8.2229  -8.1650
    -8.1508  -8.1028  -8.1018  -8.0709  -8.0474  -7.9939  -4.1878  -3.4681
     4.1130   4.1710   4.8076   4.9200   5.2626   5.3087   6.5693   6.7393
     6.8781   7.2434   7.3091   7.7912   8.5336   8.6239   8.6738   8.8430
     9.1950   9.3056   9.5931   9.6426   9.9719  10.4547  10.6173  11.6375

     occupation numbers 
     1.0000   1.0000   1.0000   1.0000   1.0000   1.0000   1.0000   1.0000
     1.0000   1.0000   1.0000   1.0000   1.0000   1.0000   1.0000   1.0000
     1.0000   1.0000   1.0000   1.0000   1.0000   1.0000   1.0000   1.0000
     1.0000   1.0000   1.0000   1.0000   1.0000   1.0000  -0.0000  -0.0000
    -0.0000  -0.0000  -0.0000  -0.0000  -0.0000  -0.0000  -0.0000  -0.0000
    -0.0000  -0.0000  -0.0000  -0.0000  -0.0000  -0.0000  -0.0000  -0.0000

          k = 0.2500 0.0000-0.5000 ( 18802 PWs)   bands (ev):

   -22.9267 -22.9186 -22.9144 -16.1012 -16.0882 -16.0357 -16.0356 -16.0354
   -15.8244 -15.8244 -15.8244 -15.8238 -15.8238  -8.4233  -8.1948  -8.1799
    -8.1285  -8.1181  -8.1109  -8.0665  -8.0495  -7.9865  -3.9739  -3.4611
     3.5059   3.9728   4.7864   4.8058   5.1037   5.2159   6.9220   7.0091
     7.3312   7.4304   7.6698   7.9270   8.2691   8.4905   8.6675   9.0425
     9.0479   9.1685   9.2914   9.6479   9.6881   9.8988  10.9819  11.2772

     occupation numbers 
     1.0000   1.0000   1.0000   1.0000   1.0000   1.0000   1.0000   1.0000
     1.0000   1.0000   1.0000   1.0000   1.0000   1.0000   1.0000   1.0000
     1.0000   1.0000   1.0000   1.0000   1.0000   1.0000   1.0000   1.0000
     1.0000   1.0000   1.0000   1.0000   1.0000   1.0000  -0.0000  -0.0000
    -0.0000  -0.0000  -0.0000  -0.0000  -0.0000  -0.0000  -0.0000  -0.0000
    -0.0000  -0.0000  -0.0000  -0.0000  -0.0000  -0.0000  -0.0000  -0.0000

          k = 0.2500 0.0000-0.2500 ( 18821 PWs)   bands (ev):

   -22.9315 -22.9156 -22.9139 -16.0947 -16.0872 -16.0356 -16.0354 -16.0354
   -15.8244 -15.8244 -15.8244 -15.8238 -15.8238  -8.3648  -8.2229  -8.1650
    -8.1508  -8.1028  -8.1018  -8.0709  -8.0474  -7.9939  -4.1878  -3.4681
     4.1130   4.1710   4.8076   4.9200   5.2626   5.3087   6.5693   6.7393
     6.8781   7.2434   7.3091   7.7912   8.5336   8.6239   8.6738   8.8430
     9.1950   9.3056   9.5931   9.6426   9.9719  10.4547  10.6173  11.6375

     occupation numbers 
     1.0000   1.0000   1.0000   1.0000   1.0000   1.0000   1.0000   1.0000
     1.0000   1.0000   1.0000   1.0000   1.0000   1.0000   1.0000   1.0000
     1.0000   1.0000   1.0000   1.0000   1.0000   1.0000   1.0000   1.0000
     1.0000   1.0000   1.0000   1.0000   1.0000   1.0000  -0.0000  -0.0000
    -0.0000  -0.0000  -0.0000  -0.0000  -0.0000  -0.0000  -0.0000  -0.0000
    -0.0000  -0.0000  -0.0000  -0.0000  -0.0000  -0.0000  -0.0000  -0.0000

          k = 0.2500 0.2500 0.0000 ( 18821 PWs)   bands (ev):

   -22.9315 -22.9156 -22.9139 -16.0947 -16.0872 -16.0356 -16.0354 -16.0354
   -15.8244 -15.8244 -15.8244 -15.8238 -15.8238  -8.3648  -8.2229  -8.1650
    -8.1508  -8.1028  -8.1018  -8.0709  -8.0474  -7.9939  -4.1878  -3.4681
     4.1130   4.1710   4.8076   4.9200   5.2626   5.3087   6.5693   6.7393
     6.8781   7.2434   7.3091   7.7912   8.5336   8.6239   8.6738   8.8430
     9.1950   9.3056   9.5931   9.6426   9.9719  10.4547  10.6173  11.6376

     occupation numbers 
     1.0000   1.0000   1.0000   1.0000   1.0000   1.0000   1.0000   1.0000
     1.0000   1.0000   1.0000   1.0000   1.0000   1.0000   1.0000   1.0000
     1.0000   1.0000   1.0000   1.0000   1.0000   1.0000   1.0000   1.0000
     1.0000   1.0000   1.0000   1.0000   1.0000   1.0000  -0.0000  -0.0000
    -0.0000  -0.0000  -0.0000  -0.0000  -0.0000  -0.0000  -0.0000  -0.0000
    -0.0000  -0.0000  -0.0000  -0.0000  -0.0000  -0.0000  -0.0000  -0.0000

          k = 0.2500 0.2500 0.2500 ( 18805 PWs)   bands (ev):

   -22.9285 -22.9156 -22.9156 -16.0947 -16.0947 -16.0356 -16.0356 -16.0356
   -15.8244 -15.8244 -15.8244 -15.8238 -15.8238  -8.4821  -8.1681  -8.1681
    -8.1594  -8.1037  -8.1037  -8.0597  -8.0006  -8.0006  -3.9971  -3.4646
     4.0133   4.0549   4.0549   4.9287   5.2077   5.2077   6.7283   6.9871
     6.9871   7.5419   7.7144   7.7144   8.3680   8.3680   8.5886   9.1289
     9.1289   9.1374   9.1978  10.2574  10.5417  10.5417  10.7786  10.7786

     occupation numbers 
     1.0000   1.0000   1.0000   1.0000   1.0000   1.0000   1.0000   1.0000
     1.0000   1.0000   1.0000   1.0000   1.0000   1.0000   1.0000   1.0000
     1.0000   1.0000   1.0000   1.0000   1.0000   1.0000   1.0000   1.0000
     1.0000   1.0000   1.0000   1.0000   1.0000   1.0000  -0.0000  -0.0000
    -0.0000  -0.0000  -0.0000  -0.0000  -0.0000  -0.0000  -0.0000  -0.0000
    -0.0000  -0.0000  -0.0000  -0.0000  -0.0000  -0.0000  -0.0000  -0.0000

          k = 0.2500 0.2500-0.5000 ( 18726 PWs)   bands (ev):

   -22.9242 -22.9186 -22.9155 -16.1022 -16.0947 -16.0357 -16.0357 -16.0356
   -15.8244 -15.8244 -15.8244 -15.8238 -15.8238  -8.5574  -8.1831  -8.1715
    -8.1606  -8.1033  -8.0556  -8.0458  -8.0111  -7.9828  -3.7919  -3.4613
     3.4090   3.9054   3.9917   4.9337   5.0692   5.1906   7.0500   7.1528
     7.4306   7.5267   7.7536   7.7772   8.3401   8.3882   8.4639   9.0145
     9.1628   9.1764   9.1786   9.6628  10.5244  10.5718  10.9560  11.1888

     occupation numbers 
     1.0000   1.0000   1.0000   1.0000   1.0000   1.0000   1.0000   1.0000
     1.0000   1.0000   1.0000   1.0000   1.0000   1.0000   1.0000   1.0000
     1.0000   1.0000   1.0000   1.0000   1.0000   1.0000   1.0000   1.0000
     1.0000   1.0000   1.0000   1.0000   1.0000   1.0000  -0.0000  -0.0000
    -0.0000  -0.0000  -0.0000  -0.0000  -0.0000  -0.0000  -0.0000  -0.0000
    -0.0000  -0.0000  -0.0000  -0.0000  -0.0000  -0.0000  -0.0000  -0.0000

          k = 0.2500 0.2500-0.2500 ( 18805 PWs)   bands (ev):

   -22.9285 -22.9156 -22.9156 -16.0947 -16.0947 -16.0356 -16.0356 -16.0356
   -15.8244 -15.8244 -15.8244 -15.8238 -15.8238  -8.4821  -8.1681  -8.1681
    -8.1594  -8.1037  -8.1037  -8.0597  -8.0006  -8.0006  -3.9971  -3.4646
     4.0133   4.0549   4.0549   4.9287   5.2077   5.2077   6.7283   6.9871
     6.9871   7.5419   7.7144   7.7144   8.3680   8.3680   8.5886   9.1289
     9.1289   9.1374   9.1978  10.2574  10.5417  10.5417  10.7786  10.7786

     occupation numbers 
     1.0000   1.0000   1.0000   1.0000   1.0000   1.0000   1.0000   1.0000
     1.0000   1.0000   1.0000   1.0000   1.0000   1.0000   1.0000   1.0000
     1.0000   1.0000   1.0000   1.0000   1.0000   1.0000   1.0000   1.0000
     1.0000   1.0000   1.0000   1.0000   1.0000   1.0000  -0.0000  -0.0000
    -0.0000  -0.0000  -0.0000  -0.0000  -0.0000  -0.0000  -0.0000  -0.0000
    -0.0000  -0.0000  -0.0000  -0.0000  -0.0000  -0.0000  -0.0000  -0.0000

          k = 0.2500-0.5000 0.0000 ( 18802 PWs)   bands (ev):

   -22.9267 -22.9186 -22.9144 -16.1012 -16.0882 -16.0357 -16.0356 -16.0354
   -15.8244 -15.8244 -15.8244 -15.8238 -15.8238  -8.4233  -8.1948  -8.1799
    -8.1285  -8.1181  -8.1109  -8.0665  -8.0495  -7.9865  -3.9739  -3.4611
     3.5059   3.9728   4.7864   4.8058   5.1037   5.2159   6.9220   7.0091
     7.3312   7.4304   7.6698   7.9270   8.2691   8.4905   8.6675   9.0425
     9.0479   9.1685   9.2914   9.6479   9.6881   9.8988  10.9819  11.2772

     occupation numbers 
     1.0000   1.0000   1.0000   1.0000   1.0000   1.0000   1.0000   1.0000
     1.0000   1.0000   1.0000   1.0000   1.0000   1.0000   1.0000   1.0000
     1.0000   1.0000   1.0000   1.0000   1.0000   1.0000   1.0000   1.0000
     1.0000   1.0000   1.0000   1.0000   1.0000   1.0000  -0.0000  -0.0000
    -0.0000  -0.0000  -0.0000  -0.0000  -0.0000  -0.0000  -0.0000  -0.0000
    -0.0000  -0.0000  -0.0000  -0.0000  -0.0000  -0.0000  -0.0000  -0.0000

          k = 0.2500-0.5000 0.2500 ( 18726 PWs)   bands (ev):

   -22.9242 -22.9186 -22.9155 -16.1022 -16.0947 -16.0357 -16.0357 -16.0356
   -15.8244 -15.8244 -15.8244 -15.8238 -15.8238  -8.5574  -8.1831  -8.1715
    -8.1606  -8.1033  -8.0556  -8.0458  -8.0111  -7.9828  -3.7919  -3.4613
     3.4090   3.9054   3.9917   4.9337   5.0692   5.1906   7.0500   7.1528
     7.4306   7.5267   7.7536   7.7772   8.3401   8.3882   8.4639   9.0145
     9.1628   9.1764   9.1786   9.6628  10.5244  10.5718  10.9560  11.1888

     occupation numbers 
     1.0000   1.0000   1.0000   1.0000   1.0000   1.0000   1.0000   1.0000
     1.0000   1.0000   1.0000   1.0000   1.0000   1.0000   1.0000   1.0000
     1.0000   1.0000   1.0000   1.0000   1.0000   1.0000   1.0000   1.0000
     1.0000   1.0000   1.0000   1.0000   1.0000   1.0000  -0.0000  -0.0000
    -0.0000  -0.0000  -0.0000  -0.0000  -0.0000  -0.0000  -0.0000  -0.0000
    -0.0000  -0.0000  -0.0000  -0.0000  -0.0000  -0.0000  -0.0000  -0.0000

          k = 0.2500-0.5000-0.5000 ( 18732 PWs)   bands (ev):

   -22.9199 -22.9186 -22.9186 -16.1059 -16.0985 -16.0359 -16.0357 -16.0357
   -15.8244 -15.8244 -15.8244 -15.8238 -15.8237  -8.6444  -8.2025  -8.1763
    -8.1763  -8.0508  -8.0508  -8.0241  -8.0217  -7.9374  -3.5943  -3.4615
     3.3203   3.3203   3.8987   5.0375   5.0375   5.1557   7.1881   7.4005
     7.4005   7.4200   7.6636   7.6636   7.9651   8.7735   9.0473   9.0473
     9.1355   9.1706   9.5746   9.5770  10.3828  10.3828  11.3002  11.3003

     occupation numbers 
     1.0000   1.0000   1.0000   1.0000   1.0000   1.0000   1.0000   1.0000
     1.0000   1.0000   1.0000   1.0000   1.0000   1.0000   1.0000   1.0000
     1.0000   1.0000   1.0000   1.0000   1.0000   1.0000   1.0000   1.0000
     1.0000   1.0000   1.0000   1.0000   1.0000   1.0000  -0.0000  -0.0000
    -0.0000  -0.0000  -0.0000  -0.0000  -0.0000  -0.0000  -0.0000  -0.0000
    -0.0000  -0.0000  -0.0000  -0.0000  -0.0000  -0.0000  -0.0000  -0.0000

          k = 0.2500-0.5000-0.2500 ( 18726 PWs)   bands (ev):

   -22.9242 -22.9186 -22.9155 -16.1022 -16.0947 -16.0357 -16.0357 -16.0356
   -15.8244 -15.8244 -15.8244 -15.8238 -15.8238  -8.5574  -8.1831  -8.1715
    -8.1606  -8.1033  -8.0556  -8.0458  -8.0111  -7.9828  -3.7919  -3.4613
     3.4090   3.9054   3.9917   4.9337   5.0692   5.1906   7.0500   7.1528
     7.4306   7.5267   7.7536   7.7772   8.3401   8.3882   8.4639   9.0145
     9.1628   9.1764   9.1786   9.6628  10.5244  10.5718  10.9560  11.1888

     occupation numbers 
     1.0000   1.0000   1.0000   1.0000   1.0000   1.0000   1.0000   1.0000
     1.0000   1.0000   1.0000   1.0000   1.0000   1.0000   1.0000   1.0000
     1.0000   1.0000   1.0000   1.0000   1.0000   1.0000   1.0000   1.0000
     1.0000   1.0000   1.0000   1.0000   1.0000   1.0000  -0.0000  -0.0000
    -0.0000  -0.0000  -0.0000  -0.0000  -0.0000  -0.0000  -0.0000  -0.0000
    -0.0000  -0.0000  -0.0000  -0.0000  -0.0000  -0.0000  -0.0000  -0.0000

          k = 0.2500-0.2500 0.0000 ( 18821 PWs)   bands (ev):

   -22.9315 -22.9156 -22.9139 -16.0947 -16.0872 -16.0356 -16.0354 -16.0354
   -15.8244 -15.8244 -15.8244 -15.8238 -15.8238  -8.3648  -8.2229  -8.1650
    -8.1508  -8.1028  -8.1018  -8.0709  -8.0474  -7.9939  -4.1878  -3.4681
     4.1130   4.1710   4.8076   4.9200   5.2626   5.3087   6.5693   6.7393
     6.8781   7.2434   7.3091   7.7912   8.5336   8.6239   8.6738   8.8430
     9.1950   9.3056   9.5931   9.6426   9.9719  10.4547  10.6173  11.6375

     occupation numbers 
     1.0000   1.0000   1.0000   1.0000   1.0000   1.0000   1.0000   1.0000
     1.0000   1.0000   1.0000   1.0000   1.0000   1.0000   1.0000   1.0000
     1.0000   1.0000   1.0000   1.0000   1.0000   1.0000   1.0000   1.0000
     1.0000   1.0000   1.0000   1.0000   1.0000   1.0000  -0.0000  -0.0000
    -0.0000  -0.0000  -0.0000  -0.0000  -0.0000  -0.0000  -0.0000  -0.0000
    -0.0000  -0.0000  -0.0000  -0.0000  -0.0000  -0.0000  -0.0000  -0.0000

          k = 0.2500-0.2500 0.2500 ( 18805 PWs)   bands (ev):

   -22.9285 -22.9156 -22.9156 -16.0947 -16.0947 -16.0356 -16.0356 -16.0356
   -15.8244 -15.8244 -15.8244 -15.8238 -15.8238  -8.4821  -8.1681  -8.1681
    -8.1594  -8.1037  -8.1037  -8.0597  -8.0006  -8.0006  -3.9971  -3.4646
     4.0133   4.0549   4.0549   4.9287   5.2077   5.2077   6.7283   6.9871
     6.9871   7.5419   7.7144   7.7144   8.3680   8.3680   8.5886   9.1289
     9.1289   9.1374   9.1978  10.2574  10.5417  10.5417  10.7786  10.7786

     occupation numbers 
     1.0000   1.0000   1.0000   1.0000   1.0000   1.0000   1.0000   1.0000
     1.0000   1.0000   1.0000   1.0000   1.0000   1.0000   1.0000   1.0000
     1.0000   1.0000   1.0000   1.0000   1.0000   1.0000   1.0000   1.0000
     1.0000   1.0000   1.0000   1.0000   1.0000   1.0000  -0.0000  -0.0000
    -0.0000  -0.0000  -0.0000  -0.0000  -0.0000  -0.0000  -0.0000  -0.0000
    -0.0000  -0.0000  -0.0000  -0.0000  -0.0000  -0.0000  -0.0000  -0.0000

          k = 0.2500-0.2500-0.5000 ( 18726 PWs)   bands (ev):

   -22.9242 -22.9186 -22.9155 -16.1022 -16.0947 -16.0357 -16.0357 -16.0356
   -15.8244 -15.8244 -15.8244 -15.8238 -15.8238  -8.5574  -8.1831  -8.1715
    -8.1606  -8.1033  -8.0556  -8.0458  -8.0111  -7.9828  -3.7919  -3.4613
     3.4090   3.9054   3.9917   4.9337   5.0692   5.1906   7.0500   7.1528
     7.4306   7.5267   7.7536   7.7772   8.3401   8.3882   8.4639   9.0145
     9.1628   9.1764   9.1786   9.6628  10.5244  10.5718  10.9560  11.1888

     occupation numbers 
     1.0000   1.0000   1.0000   1.0000   1.0000   1.0000   1.0000   1.0000
     1.0000   1.0000   1.0000   1.0000   1.0000   1.0000   1.0000   1.0000
     1.0000   1.0000   1.0000   1.0000   1.0000   1.0000   1.0000   1.0000
     1.0000   1.0000   1.0000   1.0000   1.0000   1.0000  -0.0000  -0.0000
    -0.0000  -0.0000  -0.0000  -0.0000  -0.0000  -0.0000  -0.0000  -0.0000
    -0.0000  -0.0000  -0.0000  -0.0000  -0.0000  -0.0000  -0.0000  -0.0000

          k = 0.2500-0.2500-0.2500 ( 18805 PWs)   bands (ev):

   -22.9285 -22.9156 -22.9156 -16.0947 -16.0947 -16.0356 -16.0356 -16.0356
   -15.8244 -15.8244 -15.8244 -15.8238 -15.8238  -8.4821  -8.1681  -8.1681
    -8.1594  -8.1037  -8.1037  -8.0597  -8.0006  -8.0006  -3.9971  -3.4646
     4.0133   4.0549   4.0549   4.9287   5.2077   5.2077   6.7283   6.9871
     6.9871   7.5419   7.7144   7.7144   8.3680   8.3680   8.5886   9.1289
     9.1289   9.1374   9.1978  10.2574  10.5417  10.5417  10.7786  10.7786

     occupation numbers 
     1.0000   1.0000   1.0000   1.0000   1.0000   1.0000   1.0000   1.0000
     1.0000   1.0000   1.0000   1.0000   1.0000   1.0000   1.0000   1.0000
     1.0000   1.0000   1.0000   1.0000   1.0000   1.0000   1.0000   1.0000
     1.0000   1.0000   1.0000   1.0000   1.0000   1.0000  -0.0000  -0.0000
    -0.0000  -0.0000  -0.0000  -0.0000  -0.0000  -0.0000  -0.0000  -0.0000
    -0.0000  -0.0000  -0.0000  -0.0000  -0.0000  -0.0000  -0.0000  -0.0000

          k =-0.5000 0.0000 0.0000 ( 18752 PWs)   bands (ev):

   -22.9299 -22.9186 -22.9126 -16.0985 -16.0833 -16.0356 -16.0356 -16.0352
   -15.8244 -15.8244 -15.8243 -15.8238 -15.8238  -8.2493  -8.2195  -8.2195
    -8.1402  -8.1112  -8.1112  -8.0979  -8.0423  -8.0423  -4.1637  -3.4648
     3.6542   4.3816   4.9670   4.9670   5.2645   5.2645   6.5684   6.6511
     7.1440   7.6697   7.7618   7.7618   7.9961   8.4774   8.8623   9.1136
     9.2464   9.2464   9.3455   9.3456  10.0924  10.3929  10.3929  11.0107

     occupation numbers 
     1.0000   1.0000   1.0000   1.0000   1.0000   1.0000   1.0000   1.0000
     1.0000   1.0000   1.0000   1.0000   1.0000   1.0000   1.0000   1.0000
     1.0000   1.0000   1.0000   1.0000   1.0000   1.0000   1.0000   1.0000
     1.0000   1.0000   1.0000   1.0000   1.0000   1.0000  -0.0000  -0.0000
    -0.0000  -0.0000  -0.0000  -0.0000  -0.0000  -0.0000  -0.0000  -0.0000
    -0.0000  -0.0000  -0.0000  -0.0000  -0.0000  -0.0000  -0.0000  -0.0000

          k =-0.5000 0.0000 0.2500 ( 18802 PWs)   bands (ev):

   -22.9267 -22.9186 -22.9144 -16.1012 -16.0882 -16.0357 -16.0356 -16.0354
   -15.8244 -15.8244 -15.8244 -15.8238 -15.8238  -8.4233  -8.1948  -8.1799
    -8.1285  -8.1181  -8.1109  -8.0665  -8.0495  -7.9865  -3.9739  -3.4611
     3.5059   3.9728   4.7864   4.8058   5.1037   5.2159   6.9220   7.0091
     7.3312   7.4304   7.6698   7.9270   8.2691   8.4905   8.6675   9.0425
     9.0479   9.1685   9.2914   9.6479   9.6881   9.8987  10.9819  11.2772

     occupation numbers 
     1.0000   1.0000   1.0000   1.0000   1.0000   1.0000   1.0000   1.0000
     1.0000   1.0000   1.0000   1.0000   1.0000   1.0000   1.0000   1.0000
     1.0000   1.0000   1.0000   1.0000   1.0000   1.0000   1.0000   1.0000
     1.0000   1.0000   1.0000   1.0000   1.0000   1.0000  -0.0000  -0.0000
    -0.0000  -0.0000  -0.0000  -0.0000  -0.0000  -0.0000  -0.0000  -0.0000
    -0.0000  -0.0000  -0.0000  -0.0000  -0.0000  -0.0000  -0.0000  -0.0000

          k =-0.5000 0.0000-0.5000 ( 18800 PWs)   bands (ev):

   -22.9212 -22.9186 -22.9186 -16.1059 -16.0910 -16.0359 -16.0356 -16.0356
   -15.8244 -15.8244 -15.8244 -15.8238 -15.8237  -8.5092  -8.2035  -8.1502
    -8.1180  -8.1180  -8.1106  -8.1106  -8.0241  -7.9375  -3.7697  -3.4574
     3.3779   3.3779   4.6789   4.9630   4.9630   5.1688   7.3162   7.3162
     7.3380   7.4165   7.6835   7.6835   8.4718   8.5379   8.8055   8.8726
     8.8726   9.2290   9.2425   9.6295   9.6718  10.4212  10.4212  11.5254

     occupation numbers 
     1.0000   1.0000   1.0000   1.0000   1.0000   1.0000   1.0000   1.0000
     1.0000   1.0000   1.0000   1.0000   1.0000   1.0000   1.0000   1.0000
     1.0000   1.0000   1.0000   1.0000   1.0000   1.0000   1.0000   1.0000
     1.0000   1.0000   1.0000   1.0000   1.0000   1.0000  -0.0000  -0.0000
    -0.0000  -0.0000  -0.0000  -0.0000  -0.0000  -0.0000  -0.0000  -0.0000
    -0.0000  -0.0000  -0.0000  -0.0000  -0.0000  -0.0000  -0.0000  -0.0000

          k =-0.5000 0.0000-0.2500 ( 18802 PWs)   bands (ev):

   -22.9267 -22.9186 -22.9144 -16.1012 -16.0882 -16.0357 -16.0356 -16.0354
   -15.8244 -15.8244 -15.8244 -15.8238 -15.8238  -8.4233  -8.1948  -8.1799
    -8.1285  -8.1181  -8.1109  -8.0665  -8.0495  -7.9865  -3.9739  -3.4611
     3.5059   3.9728   4.7864   4.8058   5.1037   5.2159   6.9220   7.0091
     7.3312   7.4304   7.6698   7.9270   8.2691   8.4905   8.6675   9.0425
     9.0479   9.1685   9.2914   9.6479   9.6881   9.8987  10.9819  11.2772

     occupation numbers 
     1.0000   1.0000   1.0000   1.0000   1.0000   1.0000   1.0000   1.0000
     1.0000   1.0000   1.0000   1.0000   1.0000   1.0000   1.0000   1.0000
     1.0000   1.0000   1.0000   1.0000   1.0000   1.0000   1.0000   1.0000
     1.0000   1.0000   1.0000   1.0000   1.0000   1.0000  -0.0000  -0.0000
    -0.0000  -0.0000  -0.0000  -0.0000  -0.0000  -0.0000  -0.0000  -0.0000
    -0.0000  -0.0000  -0.0000  -0.0000  -0.0000  -0.0000  -0.0000  -0.0000

          k =-0.5000 0.2500 0.0000 ( 18802 PWs)   bands (ev):

   -22.9267 -22.9186 -22.9144 -16.1012 -16.0882 -16.0357 -16.0356 -16.0354
   -15.8244 -15.8244 -15.8244 -15.8238 -15.8238  -8.4233  -8.1948  -8.1799
    -8.1285  -8.1181  -8.1109  -8.0665  -8.0495  -7.9865  -3.9739  -3.4611
     3.5059   3.9728   4.7864   4.8058   5.1037   5.2159   6.9220   7.0091
     7.3312   7.4304   7.6698   7.9270   8.2691   8.4905   8.6675   9.0425
     9.0479   9.1685   9.2914   9.6479   9.6881   9.8988  10.9819  11.2772

     occupation numbers 
     1.0000   1.0000   1.0000   1.0000   1.0000   1.0000   1.0000   1.0000
     1.0000   1.0000   1.0000   1.0000   1.0000   1.0000   1.0000   1.0000
     1.0000   1.0000   1.0000   1.0000   1.0000   1.0000   1.0000   1.0000
     1.0000   1.0000   1.0000   1.0000   1.0000   1.0000  -0.0000  -0.0000
    -0.0000  -0.0000  -0.0000  -0.0000  -0.0000  -0.0000  -0.0000  -0.0000
    -0.0000  -0.0000  -0.0000  -0.0000  -0.0000  -0.0000  -0.0000  -0.0000

          k =-0.5000 0.2500 0.2500 ( 18726 PWs)   bands (ev):

   -22.9242 -22.9186 -22.9156 -16.1022 -16.0947 -16.0357 -16.0357 -16.0356
   -15.8244 -15.8244 -15.8244 -15.8238 -15.8238  -8.5574  -8.1831  -8.1715
    -8.1606  -8.1033  -8.0556  -8.0458  -8.0111  -7.9828  -3.7919  -3.4613
     3.4090   3.9054   3.9917   4.9337   5.0692   5.1906   7.0500   7.1528
     7.4306   7.5267   7.7536   7.7772   8.3401   8.3882   8.4639   9.0145
     9.1628   9.1764   9.1786   9.6628  10.5244  10.5718  10.9560  11.1888

     occupation numbers 
     1.0000   1.0000   1.0000   1.0000   1.0000   1.0000   1.0000   1.0000
     1.0000   1.0000   1.0000   1.0000   1.0000   1.0000   1.0000   1.0000
     1.0000   1.0000   1.0000   1.0000   1.0000   1.0000   1.0000   1.0000
     1.0000   1.0000   1.0000   1.0000   1.0000   1.0000  -0.0000  -0.0000
    -0.0000  -0.0000  -0.0000  -0.0000  -0.0000  -0.0000  -0.0000  -0.0000
    -0.0000  -0.0000  -0.0000  -0.0000  -0.0000  -0.0000  -0.0000  -0.0000

          k =-0.5000 0.2500-0.5000 ( 18732 PWs)   bands (ev):

   -22.9199 -22.9186 -22.9186 -16.1059 -16.0985 -16.0359 -16.0357 -16.0357
   -15.8244 -15.8244 -15.8244 -15.8238 -15.8237  -8.6444  -8.2025  -8.1763
    -8.1763  -8.0508  -8.0508  -8.0241  -8.0217  -7.9374  -3.5943  -3.4615
     3.3203   3.3203   3.8987   5.0375   5.0375   5.1557   7.1881   7.4005
     7.4005   7.4200   7.6636   7.6636   7.9651   8.7735   9.0473   9.0473
     9.1355   9.1706   9.5746   9.5770  10.3828  10.3828  11.3002  11.3002

     occupation numbers 
     1.0000   1.0000   1.0000   1.0000   1.0000   1.0000   1.0000   1.0000
     1.0000   1.0000   1.0000   1.0000   1.0000   1.0000   1.0000   1.0000
     1.0000   1.0000   1.0000   1.0000   1.0000   1.0000   1.0000   1.0000
     1.0000   1.0000   1.0000   1.0000   1.0000   1.0000  -0.0000  -0.0000
    -0.0000  -0.0000  -0.0000  -0.0000  -0.0000  -0.0000  -0.0000  -0.0000
    -0.0000  -0.0000  -0.0000  -0.0000  -0.0000  -0.0000  -0.0000  -0.0000

          k =-0.5000 0.2500-0.2500 ( 18726 PWs)   bands (ev):

   -22.9242 -22.9186 -22.9156 -16.1022 -16.0947 -16.0357 -16.0357 -16.0356
   -15.8244 -15.8244 -15.8244 -15.8238 -15.8238  -8.5574  -8.1831  -8.1715
    -8.1606  -8.1033  -8.0556  -8.0458  -8.0111  -7.9828  -3.7919  -3.4613
     3.4090   3.9054   3.9917   4.9337   5.0692   5.1906   7.0500   7.1528
     7.4306   7.5267   7.7536   7.7772   8.3401   8.3882   8.4639   9.0145
     9.1628   9.1764   9.1786   9.6628  10.5244  10.5718  10.9560  11.1888

     occupation numbers 
     1.0000   1.0000   1.0000   1.0000   1.0000   1.0000   1.0000   1.0000
     1.0000   1.0000   1.0000   1.0000   1.0000   1.0000   1.0000   1.0000
     1.0000   1.0000   1.0000   1.0000   1.0000   1.0000   1.0000   1.0000
     1.0000   1.0000   1.0000   1.0000   1.0000   1.0000  -0.0000  -0.0000
    -0.0000  -0.0000  -0.0000  -0.0000  -0.0000  -0.0000  -0.0000  -0.0000
    -0.0000  -0.0000  -0.0000  -0.0000  -0.0000  -0.0000  -0.0000  -0.0000

          k =-0.5000-0.5000 0.0000 ( 18800 PWs)   bands (ev):

   -22.9212 -22.9186 -22.9186 -16.1059 -16.0910 -16.0359 -16.0356 -16.0356
   -15.8244 -15.8244 -15.8244 -15.8238 -15.8237  -8.5092  -8.2035  -8.1502
    -8.1180  -8.1180  -8.1106  -8.1106  -8.0241  -7.9375  -3.7697  -3.4574
     3.3779   3.3779   4.6789   4.9630   4.9630   5.1688   7.3162   7.3162
     7.3380   7.4165   7.6835   7.6835   8.4718   8.5379   8.8055   8.8726
     8.8726   9.2290   9.2425   9.6295   9.6718  10.4212  10.4212  11.5254

     occupation numbers 
     1.0000   1.0000   1.0000   1.0000   1.0000   1.0000   1.0000   1.0000
     1.0000   1.0000   1.0000   1.0000   1.0000   1.0000   1.0000   1.0000
     1.0000   1.0000   1.0000   1.0000   1.0000   1.0000   1.0000   1.0000
     1.0000   1.0000   1.0000   1.0000   1.0000   1.0000  -0.0000  -0.0000
    -0.0000  -0.0000  -0.0000  -0.0000  -0.0000  -0.0000  -0.0000  -0.0000
    -0.0000  -0.0000  -0.0000  -0.0000  -0.0000  -0.0000  -0.0000  -0.0000

          k =-0.5000-0.5000 0.2500 ( 18732 PWs)   bands (ev):

   -22.9199 -22.9186 -22.9186 -16.1059 -16.0985 -16.0359 -16.0357 -16.0357
   -15.8244 -15.8244 -15.8244 -15.8238 -15.8237  -8.6444  -8.2025  -8.1763
    -8.1763  -8.0508  -8.0508  -8.0241  -8.0217  -7.9374  -3.5943  -3.4615
     3.3203   3.3203   3.8987   5.0375   5.0375   5.1557   7.1881   7.4005
     7.4005   7.4200   7.6636   7.6636   7.9651   8.7735   9.0473   9.0473
     9.1355   9.1706   9.5746   9.5770  10.3828  10.3829  11.3002  11.3015

     occupation numbers 
     1.0000   1.0000   1.0000   1.0000   1.0000   1.0000   1.0000   1.0000
     1.0000   1.0000   1.0000   1.0000   1.0000   1.0000   1.0000   1.0000
     1.0000   1.0000   1.0000   1.0000   1.0000   1.0000   1.0000   1.0000
     1.0000   1.0000   1.0000   1.0000   1.0000   1.0000  -0.0000  -0.0000
    -0.0000  -0.0000  -0.0000  -0.0000  -0.0000  -0.0000  -0.0000  -0.0000
    -0.0000  -0.0000  -0.0000  -0.0000  -0.0000  -0.0000  -0.0000  -0.0000

          k =-0.5000-0.5000-0.5000 ( 18656 PWs)   bands (ev):

   -22.9185 -22.9185 -22.9185 -16.1059 -16.1059 -16.0359 -16.0359 -16.0359
   -15.8244 -15.8244 -15.8244 -15.8237 -15.8237  -8.7360  -8.2015  -8.2015
    -8.2015  -8.0240  -8.0240  -8.0240  -7.9373  -7.9373  -3.4656  -3.4019
     3.2617   3.2617   3.2617   5.1460   5.1460   5.1460   7.0029   7.2544
     7.2544   7.2544   7.7401   7.7401   7.7401   9.0415   9.0415   9.9035
     9.9035   9.9035  10.1473  10.1473  10.1473  10.2012  10.5348  10.5348

     occupation numbers 
     1.0000   1.0000   1.0000   1.0000   1.0000   1.0000   1.0000   1.0000
     1.0000   1.0000   1.0000   1.0000   1.0000   1.0000   1.0000   1.0000
     1.0000   1.0000   1.0000   1.0000   1.0000   1.0000   1.0000   1.0000
     1.0000   1.0000   1.0000   1.0000   1.0000   1.0000  -0.0000  -0.0000
    -0.0000  -0.0000  -0.0000  -0.0000  -0.0000  -0.0000  -0.0000  -0.0000
    -0.0000  -0.0000  -0.0000  -0.0000  -0.0000  -0.0000  -0.0000  -0.0000

          k =-0.5000-0.5000-0.2500 ( 18732 PWs)   bands (ev):

   -22.9199 -22.9186 -22.9186 -16.1059 -16.0985 -16.0359 -16.0357 -16.0357
   -15.8244 -15.8244 -15.8244 -15.8238 -15.8237  -8.6444  -8.2025  -8.1763
    -8.1763  -8.0508  -8.0508  -8.0241  -8.0217  -7.9374  -3.5943  -3.4615
     3.3203   3.3203   3.8987   5.0375   5.0375   5.1557   7.1881   7.4005
     7.4005   7.4200   7.6636   7.6636   7.9651   8.7735   9.0473   9.0473
     9.1355   9.1706   9.5746   9.5770  10.3828  10.3828  11.3002  11.3003

     occupation numbers 
     1.0000   1.0000   1.0000   1.0000   1.0000   1.0000   1.0000   1.0000
     1.0000   1.0000   1.0000   1.0000   1.0000   1.0000   1.0000   1.0000
     1.0000   1.0000   1.0000   1.0000   1.0000   1.0000   1.0000   1.0000
     1.0000   1.0000   1.0000   1.0000   1.0000   1.0000  -0.0000  -0.0000
    -0.0000  -0.0000  -0.0000  -0.0000  -0.0000  -0.0000  -0.0000  -0.0000
    -0.0000  -0.0000  -0.0000  -0.0000  -0.0000  -0.0000  -0.0000  -0.0000

          k =-0.5000-0.2500 0.0000 ( 18802 PWs)   bands (ev):

   -22.9267 -22.9186 -22.9144 -16.1012 -16.0882 -16.0357 -16.0356 -16.0354
   -15.8244 -15.8244 -15.8244 -15.8238 -15.8238  -8.4233  -8.1948  -8.1799
    -8.1285  -8.1181  -8.1109  -8.0665  -8.0495  -7.9865  -3.9739  -3.4611
     3.5059   3.9728   4.7864   4.8058   5.1037   5.2159   6.9220   7.0091
     7.3312   7.4304   7.6698   7.9270   8.2691   8.4905   8.6675   9.0425
     9.0479   9.1685   9.2914   9.6479   9.6881   9.8988  10.9819  11.2772

     occupation numbers 
     1.0000   1.0000   1.0000   1.0000   1.0000   1.0000   1.0000   1.0000
     1.0000   1.0000   1.0000   1.0000   1.0000   1.0000   1.0000   1.0000
     1.0000   1.0000   1.0000   1.0000   1.0000   1.0000   1.0000   1.0000
     1.0000   1.0000   1.0000   1.0000   1.0000   1.0000  -0.0000  -0.0000
    -0.0000  -0.0000  -0.0000  -0.0000  -0.0000  -0.0000  -0.0000  -0.0000
    -0.0000  -0.0000  -0.0000  -0.0000  -0.0000  -0.0000  -0.0000  -0.0000

          k =-0.5000-0.2500 0.2500 ( 18726 PWs)   bands (ev):

   -22.9242 -22.9186 -22.9156 -16.1022 -16.0947 -16.0357 -16.0357 -16.0356
   -15.8244 -15.8244 -15.8244 -15.8238 -15.8238  -8.5574  -8.1831  -8.1715
    -8.1606  -8.1033  -8.0556  -8.0458  -8.0111  -7.9828  -3.7919  -3.4613
     3.4090   3.9054   3.9917   4.9337   5.0692   5.1906   7.0500   7.1528
     7.4306   7.5267   7.7536   7.7772   8.3401   8.3882   8.4639   9.0145
     9.1628   9.1764   9.1786   9.6628  10.5244  10.5718  10.9560  11.1888

     occupation numbers 
     1.0000   1.0000   1.0000   1.0000   1.0000   1.0000   1.0000   1.0000
     1.0000   1.0000   1.0000   1.0000   1.0000   1.0000   1.0000   1.0000
     1.0000   1.0000   1.0000   1.0000   1.0000   1.0000   1.0000   1.0000
     1.0000   1.0000   1.0000   1.0000   1.0000   1.0000  -0.0000  -0.0000
    -0.0000  -0.0000  -0.0000  -0.0000  -0.0000  -0.0000  -0.0000  -0.0000
    -0.0000  -0.0000  -0.0000  -0.0000  -0.0000  -0.0000  -0.0000  -0.0000

          k =-0.5000-0.2500-0.5000 ( 18732 PWs)   bands (ev):

   -22.9199 -22.9186 -22.9186 -16.1059 -16.0985 -16.0359 -16.0357 -16.0357
   -15.8244 -15.8244 -15.8244 -15.8238 -15.8237  -8.6444  -8.2025  -8.1763
    -8.1763  -8.0508  -8.0508  -8.0241  -8.0217  -7.9374  -3.5943  -3.4615
     3.3203   3.3203   3.8987   5.0375   5.0375   5.1557   7.1881   7.4005
     7.4005   7.4200   7.6636   7.6636   7.9651   8.7735   9.0473   9.0473
     9.1355   9.1706   9.5746   9.5770  10.3828  10.3829  11.3002  11.4312

     occupation numbers 
     1.0000   1.0000   1.0000   1.0000   1.0000   1.0000   1.0000   1.0000
     1.0000   1.0000   1.0000   1.0000   1.0000   1.0000   1.0000   1.0000
     1.0000   1.0000   1.0000   1.0000   1.0000   1.0000   1.0000   1.0000
     1.0000   1.0000   1.0000   1.0000   1.0000   1.0000  -0.0000  -0.0000
    -0.0000  -0.0000  -0.0000  -0.0000  -0.0000  -0.0000  -0.0000  -0.0000
    -0.0000  -0.0000  -0.0000  -0.0000  -0.0000  -0.0000  -0.0000  -0.0000

          k =-0.5000-0.2500-0.2500 ( 18726 PWs)   bands (ev):

   -22.9242 -22.9186 -22.9156 -16.1022 -16.0947 -16.0357 -16.0357 -16.0356
   -15.8244 -15.8244 -15.8244 -15.8238 -15.8238  -8.5574  -8.1831  -8.1715
    -8.1606  -8.1033  -8.0556  -8.0458  -8.0111  -7.9828  -3.7919  -3.4613
     3.4090   3.9054   3.9917   4.9337   5.0692   5.1906   7.0500   7.1528
     7.4306   7.5267   7.7536   7.7772   8.3401   8.3882   8.4639   9.0145
     9.1628   9.1764   9.1786   9.6628  10.5244  10.5718  10.9560  11.1888

     occupation numbers 
     1.0000   1.0000   1.0000   1.0000   1.0000   1.0000   1.0000   1.0000
     1.0000   1.0000   1.0000   1.0000   1.0000   1.0000   1.0000   1.0000
     1.0000   1.0000   1.0000   1.0000   1.0000   1.0000   1.0000   1.0000
     1.0000   1.0000   1.0000   1.0000   1.0000   1.0000  -0.0000  -0.0000
    -0.0000  -0.0000  -0.0000  -0.0000  -0.0000  -0.0000  -0.0000  -0.0000
    -0.0000  -0.0000  -0.0000  -0.0000  -0.0000  -0.0000  -0.0000  -0.0000

          k =-0.2500 0.0000 0.0000 ( 18765 PWs)   bands (ev):

   -22.9349 -22.9149 -22.9126 -16.0909 -16.0833 -16.0354 -16.0354 -16.0352
   -15.8244 -15.8244 -15.8243 -15.8238 -15.8238  -8.2586  -8.2435  -8.2435
    -8.1003  -8.1003  -8.0964  -8.0780  -8.0299  -8.0299  -4.3891  -3.4754
     4.3311   4.7225   5.0424   5.0424   5.4605   5.4605   6.2697   6.4539
     6.6369   7.1087   7.1087   7.1624   8.2855   8.8653   8.8653   9.0739
     9.1367   9.4163   9.8563   9.8563  10.0133  10.4903  11.0537  11.0736

     occupation numbers 
     1.0000   1.0000   1.0000   1.0000   1.0000   1.0000   1.0000   1.0000
     1.0000   1.0000   1.0000   1.0000   1.0000   1.0000   1.0000   1.0000
     1.0000   1.0000   1.0000   1.0000   1.0000   1.0000   1.0000   1.0000
     1.0000   1.0000   1.0000   1.0000   1.0000   1.0000  -0.0011  -0.0000
    -0.0000  -0.0000  -0.0000  -0.0000  -0.0000  -0.0000  -0.0000  -0.0000
    -0.0000  -0.0000  -0.0000  -0.0000  -0.0000  -0.0000  -0.0000  -0.0000

          k =-0.2500 0.0000 0.2500 ( 18821 PWs)   bands (ev):

   -22.9315 -22.9156 -22.9139 -16.0947 -16.0872 -16.0356 -16.0354 -16.0354
   -15.8244 -15.8244 -15.8244 -15.8238 -15.8238  -8.3648  -8.2229  -8.1650
    -8.1508  -8.1028  -8.1018  -8.0709  -8.0474  -7.9939  -4.1878  -3.4681
     4.1130   4.1710   4.8076   4.9200   5.2626   5.3087   6.5693   6.7393
     6.8781   7.2434   7.3091   7.7912   8.5336   8.6239   8.6738   8.8430
     9.1950   9.3056   9.5931   9.6426   9.9719  10.4547  10.6173  11.6375

     occupation numbers 
     1.0000   1.0000   1.0000   1.0000   1.0000   1.0000   1.0000   1.0000
     1.0000   1.0000   1.0000   1.0000   1.0000   1.0000   1.0000   1.0000
     1.0000   1.0000   1.0000   1.0000   1.0000   1.0000   1.0000   1.0000
     1.0000   1.0000   1.0000   1.0000   1.0000   1.0000  -0.0000  -0.0000
    -0.0000  -0.0000  -0.0000  -0.0000  -0.0000  -0.0000  -0.0000  -0.0000
    -0.0000  -0.0000  -0.0000  -0.0000  -0.0000  -0.0000  -0.0000  -0.0000

          k =-0.2500 0.0000-0.5000 ( 18802 PWs)   bands (ev):

   -22.9267 -22.9186 -22.9144 -16.1012 -16.0882 -16.0357 -16.0356 -16.0354
   -15.8244 -15.8244 -15.8244 -15.8238 -15.8238  -8.4233  -8.1948  -8.1799
    -8.1285  -8.1181  -8.1109  -8.0665  -8.0495  -7.9865  -3.9739  -3.4611
     3.5059   3.9728   4.7864   4.8058   5.1037   5.2159   6.9220   7.0091
     7.3312   7.4304   7.6698   7.9270   8.2691   8.4905   8.6675   9.0425
     9.0479   9.1685   9.2914   9.6479   9.6881   9.8988  10.9819  11.2772

     occupation numbers 
     1.0000   1.0000   1.0000   1.0000   1.0000   1.0000   1.0000   1.0000
     1.0000   1.0000   1.0000   1.0000   1.0000   1.0000   1.0000   1.0000
     1.0000   1.0000   1.0000   1.0000   1.0000   1.0000   1.0000   1.0000
     1.0000   1.0000   1.0000   1.0000   1.0000   1.0000  -0.0000  -0.0000
    -0.0000  -0.0000  -0.0000  -0.0000  -0.0000  -0.0000  -0.0000  -0.0000
    -0.0000  -0.0000  -0.0000  -0.0000  -0.0000  -0.0000  -0.0000  -0.0000

          k =-0.2500 0.0000-0.2500 ( 18821 PWs)   bands (ev):

   -22.9315 -22.9156 -22.9139 -16.0947 -16.0872 -16.0356 -16.0354 -16.0354
   -15.8244 -15.8244 -15.8244 -15.8238 -15.8238  -8.3648  -8.2229  -8.1650
    -8.1508  -8.1028  -8.1018  -8.0709  -8.0474  -7.9939  -4.1878  -3.4681
     4.1130   4.1710   4.8076   4.9200   5.2626   5.3087   6.5693   6.7393
     6.8781   7.2434   7.3091   7.7912   8.5336   8.6239   8.6738   8.8430
     9.1950   9.3056   9.5931   9.6426   9.9719  10.4547  10.6173  11.6375

     occupation numbers 
     1.0000   1.0000   1.0000   1.0000   1.0000   1.0000   1.0000   1.0000
     1.0000   1.0000   1.0000   1.0000   1.0000   1.0000   1.0000   1.0000
     1.0000   1.0000   1.0000   1.0000   1.0000   1.0000   1.0000   1.0000
     1.0000   1.0000   1.0000   1.0000   1.0000   1.0000  -0.0000  -0.0000
    -0.0000  -0.0000  -0.0000  -0.0000  -0.0000  -0.0000  -0.0000  -0.0000
    -0.0000  -0.0000  -0.0000  -0.0000  -0.0000  -0.0000  -0.0000  -0.0000

          k =-0.2500 0.2500 0.0000 ( 18821 PWs)   bands (ev):

   -22.9315 -22.9156 -22.9139 -16.0947 -16.0872 -16.0356 -16.0354 -16.0354
   -15.8244 -15.8244 -15.8244 -15.8238 -15.8238  -8.3648  -8.2229  -8.1650
    -8.1508  -8.1028  -8.1018  -8.0709  -8.0474  -7.9939  -4.1878  -3.4681
     4.1130   4.1710   4.8076   4.9200   5.2626   5.3087   6.5693   6.7393
     6.8781   7.2434   7.3091   7.7912   8.5336   8.6239   8.6738   8.8430
     9.1950   9.3056   9.5931   9.6426   9.9719  10.4547  10.6173  11.6376

     occupation numbers 
     1.0000   1.0000   1.0000   1.0000   1.0000   1.0000   1.0000   1.0000
     1.0000   1.0000   1.0000   1.0000   1.0000   1.0000   1.0000   1.0000
     1.0000   1.0000   1.0000   1.0000   1.0000   1.0000   1.0000   1.0000
     1.0000   1.0000   1.0000   1.0000   1.0000   1.0000  -0.0000  -0.0000
    -0.0000  -0.0000  -0.0000  -0.0000  -0.0000  -0.0000  -0.0000  -0.0000
    -0.0000  -0.0000  -0.0000  -0.0000  -0.0000  -0.0000  -0.0000  -0.0000

          k =-0.2500 0.2500 0.2500 ( 18805 PWs)   bands (ev):

   -22.9285 -22.9156 -22.9156 -16.0947 -16.0947 -16.0356 -16.0356 -16.0356
   -15.8244 -15.8244 -15.8244 -15.8238 -15.8238  -8.4821  -8.1681  -8.1681
    -8.1594  -8.1037  -8.1037  -8.0597  -8.0006  -8.0006  -3.9971  -3.4646
     4.0133   4.0549   4.0549   4.9287   5.2077   5.2077   6.7283   6.9871
     6.9871   7.5419   7.7144   7.7144   8.3680   8.3680   8.5886   9.1289
     9.1289   9.1374   9.1978  10.2574  10.5417  10.5417  10.7786  10.7786

     occupation numbers 
     1.0000   1.0000   1.0000   1.0000   1.0000   1.0000   1.0000   1.0000
     1.0000   1.0000   1.0000   1.0000   1.0000   1.0000   1.0000   1.0000
     1.0000   1.0000   1.0000   1.0000   1.0000   1.0000   1.0000   1.0000
     1.0000   1.0000   1.0000   1.0000   1.0000   1.0000  -0.0000  -0.0000
    -0.0000  -0.0000  -0.0000  -0.0000  -0.0000  -0.0000  -0.0000  -0.0000
    -0.0000  -0.0000  -0.0000  -0.0000  -0.0000  -0.0000  -0.0000  -0.0000

          k =-0.2500 0.2500-0.5000 ( 18726 PWs)   bands (ev):

   -22.9242 -22.9186 -22.9155 -16.1022 -16.0947 -16.0357 -16.0357 -16.0356
   -15.8244 -15.8244 -15.8244 -15.8238 -15.8238  -8.5574  -8.1831  -8.1715
    -8.1606  -8.1033  -8.0556  -8.0458  -8.0111  -7.9828  -3.7919  -3.4613
     3.4090   3.9054   3.9917   4.9337   5.0692   5.1906   7.0500   7.1528
     7.4306   7.5267   7.7536   7.7772   8.3401   8.3882   8.4639   9.0145
     9.1628   9.1764   9.1786   9.6628  10.5244  10.5718  10.9560  11.1888

     occupation numbers 
     1.0000   1.0000   1.0000   1.0000   1.0000   1.0000   1.0000   1.0000
     1.0000   1.0000   1.0000   1.0000   1.0000   1.0000   1.0000   1.0000
     1.0000   1.0000   1.0000   1.0000   1.0000   1.0000   1.0000   1.0000
     1.0000   1.0000   1.0000   1.0000   1.0000   1.0000  -0.0000  -0.0000
    -0.0000  -0.0000  -0.0000  -0.0000  -0.0000  -0.0000  -0.0000  -0.0000
    -0.0000  -0.0000  -0.0000  -0.0000  -0.0000  -0.0000  -0.0000  -0.0000

          k =-0.2500 0.2500-0.2500 ( 18805 PWs)   bands (ev):

   -22.9285 -22.9156 -22.9156 -16.0947 -16.0947 -16.0356 -16.0356 -16.0356
   -15.8244 -15.8244 -15.8244 -15.8238 -15.8238  -8.4821  -8.1681  -8.1681
    -8.1594  -8.1037  -8.1037  -8.0597  -8.0006  -8.0006  -3.9971  -3.4646
     4.0133   4.0549   4.0549   4.9287   5.2077   5.2077   6.7283   6.9871
     6.9871   7.5419   7.7144   7.7144   8.3680   8.3680   8.5886   9.1289
     9.1289   9.1374   9.1978  10.2574  10.5417  10.5417  10.7786  10.7786

     occupation numbers 
     1.0000   1.0000   1.0000   1.0000   1.0000   1.0000   1.0000   1.0000
     1.0000   1.0000   1.0000   1.0000   1.0000   1.0000   1.0000   1.0000
     1.0000   1.0000   1.0000   1.0000   1.0000   1.0000   1.0000   1.0000
     1.0000   1.0000   1.0000   1.0000   1.0000   1.0000  -0.0000  -0.0000
    -0.0000  -0.0000  -0.0000  -0.0000  -0.0000  -0.0000  -0.0000  -0.0000
    -0.0000  -0.0000  -0.0000  -0.0000  -0.0000  -0.0000  -0.0000  -0.0000

          k =-0.2500-0.5000 0.0000 ( 18802 PWs)   bands (ev):

   -22.9267 -22.9186 -22.9144 -16.1012 -16.0882 -16.0357 -16.0356 -16.0354
   -15.8244 -15.8244 -15.8244 -15.8238 -15.8238  -8.4233  -8.1948  -8.1799
    -8.1285  -8.1181  -8.1109  -8.0665  -8.0495  -7.9865  -3.9739  -3.4611
     3.5059   3.9728   4.7864   4.8058   5.1037   5.2159   6.9220   7.0091
     7.3312   7.4304   7.6698   7.9270   8.2691   8.4905   8.6675   9.0425
     9.0479   9.1685   9.2914   9.6479   9.6881   9.8987  10.9820  11.2772

     occupation numbers 
     1.0000   1.0000   1.0000   1.0000   1.0000   1.0000   1.0000   1.0000
     1.0000   1.0000   1.0000   1.0000   1.0000   1.0000   1.0000   1.0000
     1.0000   1.0000   1.0000   1.0000   1.0000   1.0000   1.0000   1.0000
     1.0000   1.0000   1.0000   1.0000   1.0000   1.0000  -0.0000  -0.0000
    -0.0000  -0.0000  -0.0000  -0.0000  -0.0000  -0.0000  -0.0000  -0.0000
    -0.0000  -0.0000  -0.0000  -0.0000  -0.0000  -0.0000  -0.0000  -0.0000

          k =-0.2500-0.5000 0.2500 ( 18726 PWs)   bands (ev):

   -22.9242 -22.9186 -22.9155 -16.1022 -16.0947 -16.0357 -16.0357 -16.0356
   -15.8244 -15.8244 -15.8244 -15.8238 -15.8238  -8.5574  -8.1831  -8.1715
    -8.1606  -8.1033  -8.0556  -8.0458  -8.0111  -7.9828  -3.7919  -3.4613
     3.4090   3.9054   3.9917   4.9337   5.0692   5.1906   7.0500   7.1528
     7.4306   7.5267   7.7536   7.7772   8.3401   8.3882   8.4639   9.0145
     9.1628   9.1764   9.1786   9.6628  10.5244  10.5718  10.9560  11.1888

     occupation numbers 
     1.0000   1.0000   1.0000   1.0000   1.0000   1.0000   1.0000   1.0000
     1.0000   1.0000   1.0000   1.0000   1.0000   1.0000   1.0000   1.0000
     1.0000   1.0000   1.0000   1.0000   1.0000   1.0000   1.0000   1.0000
     1.0000   1.0000   1.0000   1.0000   1.0000   1.0000  -0.0000  -0.0000
    -0.0000  -0.0000  -0.0000  -0.0000  -0.0000  -0.0000  -0.0000  -0.0000
    -0.0000  -0.0000  -0.0000  -0.0000  -0.0000  -0.0000  -0.0000  -0.0000

          k =-0.2500-0.5000-0.5000 ( 18732 PWs)   bands (ev):

   -22.9199 -22.9186 -22.9186 -16.1059 -16.0985 -16.0359 -16.0357 -16.0357
   -15.8244 -15.8244 -15.8244 -15.8238 -15.8237  -8.6444  -8.2025  -8.1763
    -8.1763  -8.0508  -8.0508  -8.0241  -8.0217  -7.9374  -3.5943  -3.4615
     3.3203   3.3203   3.8987   5.0375   5.0375   5.1557   7.1881   7.4005
     7.4005   7.4200   7.6636   7.6636   7.9651   8.7735   9.0473   9.0473
     9.1355   9.1706   9.5746   9.5770  10.3828  10.3828  11.3002  11.3002

     occupation numbers 
     1.0000   1.0000   1.0000   1.0000   1.0000   1.0000   1.0000   1.0000
     1.0000   1.0000   1.0000   1.0000   1.0000   1.0000   1.0000   1.0000
     1.0000   1.0000   1.0000   1.0000   1.0000   1.0000   1.0000   1.0000
     1.0000   1.0000   1.0000   1.0000   1.0000   1.0000  -0.0000  -0.0000
    -0.0000  -0.0000  -0.0000  -0.0000  -0.0000  -0.0000  -0.0000  -0.0000
    -0.0000  -0.0000  -0.0000  -0.0000  -0.0000  -0.0000  -0.0000  -0.0000

          k =-0.2500-0.5000-0.2500 ( 18726 PWs)   bands (ev):

   -22.9242 -22.9186 -22.9155 -16.1022 -16.0947 -16.0357 -16.0357 -16.0356
   -15.8244 -15.8244 -15.8244 -15.8238 -15.8238  -8.5574  -8.1831  -8.1715
    -8.1606  -8.1033  -8.0556  -8.0458  -8.0111  -7.9828  -3.7919  -3.4613
     3.4090   3.9054   3.9917   4.9337   5.0692   5.1906   7.0500   7.1528
     7.4306   7.5267   7.7536   7.7772   8.3401   8.3882   8.4639   9.0145
     9.1628   9.1764   9.1786   9.6628  10.5244  10.5718  10.9560  11.1888

     occupation numbers 
     1.0000   1.0000   1.0000   1.0000   1.0000   1.0000   1.0000   1.0000
     1.0000   1.0000   1.0000   1.0000   1.0000   1.0000   1.0000   1.0000
     1.0000   1.0000   1.0000   1.0000   1.0000   1.0000   1.0000   1.0000
     1.0000   1.0000   1.0000   1.0000   1.0000   1.0000  -0.0000  -0.0000
    -0.0000  -0.0000  -0.0000  -0.0000  -0.0000  -0.0000  -0.0000  -0.0000
    -0.0000  -0.0000  -0.0000  -0.0000  -0.0000  -0.0000  -0.0000  -0.0000

          k =-0.2500-0.2500 0.0000 ( 18821 PWs)   bands (ev):

   -22.9315 -22.9156 -22.9139 -16.0947 -16.0872 -16.0356 -16.0354 -16.0354
   -15.8244 -15.8244 -15.8244 -15.8238 -15.8238  -8.3648  -8.2229  -8.1650
    -8.1508  -8.1028  -8.1018  -8.0709  -8.0474  -7.9939  -4.1878  -3.4681
     4.1130   4.1710   4.8076   4.9200   5.2626   5.3087   6.5693   6.7393
     6.8781   7.2434   7.3091   7.7912   8.5336   8.6239   8.6738   8.8430
     9.1950   9.3056   9.5931   9.6426   9.9719  10.4547  10.6173  11.6375

     occupation numbers 
     1.0000   1.0000   1.0000   1.0000   1.0000   1.0000   1.0000   1.0000
     1.0000   1.0000   1.0000   1.0000   1.0000   1.0000   1.0000   1.0000
     1.0000   1.0000   1.0000   1.0000   1.0000   1.0000   1.0000   1.0000
     1.0000   1.0000   1.0000   1.0000   1.0000   1.0000  -0.0000  -0.0000
    -0.0000  -0.0000  -0.0000  -0.0000  -0.0000  -0.0000  -0.0000  -0.0000
    -0.0000  -0.0000  -0.0000  -0.0000  -0.0000  -0.0000  -0.0000  -0.0000

          k =-0.2500-0.2500 0.2500 ( 18805 PWs)   bands (ev):

   -22.9285 -22.9156 -22.9156 -16.0947 -16.0947 -16.0356 -16.0356 -16.0356
   -15.8244 -15.8244 -15.8244 -15.8238 -15.8238  -8.4821  -8.1681  -8.1681
    -8.1594  -8.1037  -8.1037  -8.0597  -8.0006  -8.0006  -3.9971  -3.4646
     4.0133   4.0549   4.0549   4.9287   5.2077   5.2077   6.7283   6.9871
     6.9871   7.5419   7.7144   7.7144   8.3680   8.3680   8.5886   9.1289
     9.1289   9.1374   9.1978  10.2574  10.5417  10.5417  10.7786  10.7786

     occupation numbers 
     1.0000   1.0000   1.0000   1.0000   1.0000   1.0000   1.0000   1.0000
     1.0000   1.0000   1.0000   1.0000   1.0000   1.0000   1.0000   1.0000
     1.0000   1.0000   1.0000   1.0000   1.0000   1.0000   1.0000   1.0000
     1.0000   1.0000   1.0000   1.0000   1.0000   1.0000  -0.0000  -0.0000
    -0.0000  -0.0000  -0.0000  -0.0000  -0.0000  -0.0000  -0.0000  -0.0000
    -0.0000  -0.0000  -0.0000  -0.0000  -0.0000  -0.0000  -0.0000  -0.0000

          k =-0.2500-0.2500-0.5000 ( 18726 PWs)   bands (ev):

   -22.9242 -22.9186 -22.9155 -16.1022 -16.0947 -16.0357 -16.0357 -16.0356
   -15.8244 -15.8244 -15.8244 -15.8238 -15.8238  -8.5574  -8.1831  -8.1715
    -8.1606  -8.1033  -8.0556  -8.0458  -8.0111  -7.9828  -3.7919  -3.4613
     3.4090   3.9054   3.9917   4.9337   5.0692   5.1906   7.0500   7.1528
     7.4306   7.5267   7.7536   7.7772   8.3401   8.3882   8.4639   9.0145
     9.1628   9.1764   9.1786   9.6628  10.5244  10.5718  10.9560  11.1888

     occupation numbers 
     1.0000   1.0000   1.0000   1.0000   1.0000   1.0000   1.0000   1.0000
     1.0000   1.0000   1.0000   1.0000   1.0000   1.0000   1.0000   1.0000
     1.0000   1.0000   1.0000   1.0000   1.0000   1.0000   1.0000   1.0000
     1.0000   1.0000   1.0000   1.0000   1.0000   1.0000  -0.0000  -0.0000
    -0.0000  -0.0000  -0.0000  -0.0000  -0.0000  -0.0000  -0.0000  -0.0000
    -0.0000  -0.0000  -0.0000  -0.0000  -0.0000  -0.0000  -0.0000  -0.0000

          k =-0.2500-0.2500-0.2500 ( 18805 PWs)   bands (ev):

   -22.9285 -22.9156 -22.9156 -16.0947 -16.0947 -16.0356 -16.0356 -16.0356
   -15.8244 -15.8244 -15.8244 -15.8238 -15.8238  -8.4821  -8.1681  -8.1681
    -8.1594  -8.1037  -8.1037  -8.0597  -8.0006  -8.0006  -3.9971  -3.4646
     4.0133   4.0549   4.0549   4.9287   5.2077   5.2077   6.7283   6.9871
     6.9871   7.5419   7.7144   7.7144   8.3680   8.3680   8.5886   9.1289
     9.1289   9.1374   9.1978  10.2574  10.5417  10.5417  10.7786  10.7786

     occupation numbers 
     1.0000   1.0000   1.0000   1.0000   1.0000   1.0000   1.0000   1.0000
     1.0000   1.0000   1.0000   1.0000   1.0000   1.0000   1.0000   1.0000
     1.0000   1.0000   1.0000   1.0000   1.0000   1.0000   1.0000   1.0000
     1.0000   1.0000   1.0000   1.0000   1.0000   1.0000  -0.0000  -0.0000
    -0.0000  -0.0000  -0.0000  -0.0000  -0.0000  -0.0000  -0.0000  -0.0000
    -0.0000  -0.0000  -0.0000  -0.0000  -0.0000  -0.0000  -0.0000  -0.0000

     the Fermi energy is     5.9278 ev

!    total energy              =    -496.94281216 Ry
     estimated scf accuracy    <          3.7E-10 Ry
     smearing contrib. (-TS)   =      -0.00011031 Ry
     internal energy E=F+TS    =    -496.94270185 Ry

     The total energy is F=E-TS. E is the sum of the following terms:
     one-electron contribution =    -223.53096257 Ry
     hartree contribution      =     131.66352285 Ry
     xc contribution           =    -126.52282128 Ry
     ewald contribution        =    -278.55244084 Ry

     convergence has been achieved in  11 iterations

     Writing all to output data dir ./out_nosoc_nc_Ba3Bi2/Ba3Bi2_nosoc_nc.save/ :
     XML data file, charge density, pseudopotentials, collected wavefunctions

     init_run     :      4.33s CPU      4.98s WALL (       1 calls)
     electrons    :    111.27s CPU    117.37s WALL (       1 calls)

     Called by init_run:
     wfcinit      :      3.20s CPU      3.67s WALL (       1 calls)
     wfcinit:atom :      0.03s CPU      0.04s WALL (       8 calls)
     wfcinit:wfcr :      3.03s CPU      3.11s WALL (       8 calls)
     potinit      :      0.17s CPU      0.30s WALL (       1 calls)
     hinit0       :      0.92s CPU      0.95s WALL (       1 calls)

     Called by electrons:
     c_bands      :     99.34s CPU    103.54s WALL (      12 calls)
     sum_band     :     10.23s CPU     11.13s WALL (      12 calls)
     v_of_rho     :      1.48s CPU      2.24s WALL (      12 calls)
     v_h          :      0.06s CPU      0.11s WALL (      12 calls)
     v_xc         :      1.42s CPU      2.13s WALL (      12 calls)
     mix_rho      :      0.13s CPU      0.34s WALL (      12 calls)

     Called by c_bands:
     init_us_2    :      1.59s CPU      1.88s WALL (     200 calls)
     cegterg      :     87.93s CPU     90.90s WALL (      96 calls)

     Called by sum_band:
     sum_band:wei :      0.01s CPU      0.01s WALL (      12 calls)
     sum_band:loo :      9.71s CPU     10.52s WALL (      12 calls)
     sum_band:buf :      0.00s CPU      0.31s WALL (      96 calls)
     sum_band:ini :      0.72s CPU      0.82s WALL (      96 calls)

     Called by *egterg:
     cdiaghg      :      1.03s CPU      1.05s WALL (     465 calls)
     cegterg:over :      9.41s CPU      9.64s WALL (     377 calls)
     cegterg:upda :      5.84s CPU      6.01s WALL (     377 calls)
     cegterg:last :     10.23s CPU     10.53s WALL (     201 calls)
     h_psi        :     59.82s CPU     61.97s WALL (     481 calls)
     g_psi        :      0.27s CPU      0.29s WALL (     377 calls)

     Called by h_psi:
     h_psi:calbec :      9.13s CPU      9.39s WALL (     481 calls)
     vloc_psi     :     41.90s CPU     43.49s WALL (     481 calls)
                                        0.00s GPU  (     481 calls)
     add_vuspsi   :      8.50s CPU      8.68s WALL (     481 calls)

     General routines
     calbec       :      9.13s CPU      9.39s WALL (     481 calls)
     fft          :      0.97s CPU      1.00s WALL (     121 calls)
     ffts         :      0.03s CPU      0.03s WALL (      12 calls)
     fftw         :     43.25s CPU     44.58s WALL (   27334 calls)
     davcio       :      0.00s CPU      1.50s WALL (     430 calls)

     Parallel routines

     PWSCF        :   1m55.77s CPU   2m 3.32s WALL


   This run was terminated on:  22:27:16  10Jul2026            

=------------------------------------------------------------------------------=
   JOB DONE.
=------------------------------------------------------------------------------=
