
     Program PWSCF v.7.5 starts on 29Jul2026 at 19:10:33 

     This program is part of the open-source Quantum ESPRESSO suite
     for quantum simulation of materials; please cite
         "P. Giannozzi et al., J. Phys.:Condens. Matter 21 395502 (2009);
         "P. Giannozzi et al., J. Phys.:Condens. Matter 29 465901 (2017);
         "P. Giannozzi et al., J. Chem. Phys. 152 154105 (2020);
          URL http://www.quantum-espresso.org", 
     in publications or presentations arising from this work. More details at
     http://www.quantum-espresso.org/quote

     Parallel version (MPI & OpenMP), running on      48 processor cores
     Number of MPI processes:                48
     Threads/MPI process:                     1

     MPI processes distributed on     1 nodes
     521306 MiB available memory on the printing compute node when the environment starts

     Reading input from Bi2Te3.scf.nosoc.nc.in

     Current dimensions of program PWSCF are:
     Max number of different atomic species (ntypx) = 10
     Max number of k-points (npk) =  40000
     Max angular momentum in pseudopotentials (lmaxx) =  4

     K-points division:     npool     =      24
     R & G space division:  proc/nbgrp/npool/nimage =       2
     Subspace diagonalization in iterative solution of the eigenvalue problem:
     a serial algorithm will be used


     Parallelization info
     --------------------
     sticks:   dense  smooth     PW     G-vecs:    dense   smooth      PW
     Min        1853    1853    548                47655    47655    7588
     Max        1854    1854    549                47658    47658    7589
     Sum        3707    3707   1097                95313    95313   15177

     Using Slab Decomposition



     bravais-lattice index     =            0
     lattice parameter (alat)  =      20.2452  a.u.
     unit-cell volume          =    1203.9706 (a.u.)^3
     number of atoms/cell      =            5
     number of atomic types    =            2
     number of electrons       =        78.00
     number of Kohn-Sham states=           62
     kinetic-energy cutoff     =      70.0000  Ry
     charge density cutoff     =     280.0000  Ry
     scf convergence threshold =      1.0E-08
     mixing beta               =       0.3000
     number of iterations used =            8  plain     mixing
     Exchange-correlation= PBE
                           (   1   4   3   4   0   0   0)

     celldm(1)=  20.245188  celldm(2)=   0.000000  celldm(3)=   0.000000
     celldm(4)=   0.000000  celldm(5)=   0.000000  celldm(6)=   0.000000

     crystal axes: (cart. coord. in units of alat)
               a(1) = (   0.999998   0.001635   0.000973 )  
               a(2) = (   0.913045   0.407858   0.000973 )  
               a(3) = (   0.913045   0.195440   0.357984 )  

     reciprocal axes: (cart. coord. in units 2 pi/alat)
               b(1) = (  1.004976 -2.246585 -1.336696 )  
               b(2) = ( -0.002724  2.461120 -1.336695 )  
               b(3) = ( -0.002724 -0.000583  2.800690 )  


     PseudoPot. # 1 for Bi read from file:
     ./pseudo_nc/Bi_SR.upf
     MD5 check sum: 200c63f77f1a5690b65e64056759e8a3
     Pseudo is Norm-conserving + core correction, Zval = 15.0
     Generated using ONCVPSP code by D. R. Hamann
     Using radial grid of 1490 points,  6 beta functions with: 
                l(1) =   0
                l(2) =   0
                l(3) =   1
                l(4) =   1
                l(5) =   2
                l(6) =   2

     PseudoPot. # 2 for Te read from file:
     ./pseudo_nc/Te_SR.upf
     MD5 check sum: 3368f43c0236043475348b0373f3ab9d
     Pseudo is Norm-conserving + core correction, Zval = 16.0
     Generated using ONCVPSP code by D. R. Hamann
     Using radial grid of 1294 points,  6 beta functions with: 
                l(1) =   0
                l(2) =   0
                l(3) =   1
                l(4) =   1
                l(5) =   2
                l(6) =   2

     atomic species   valence    mass     pseudopotential
     Bi               15.00   208.98040     Bi( 1.00)
     Te               16.00   127.60000     Te( 1.00)

     No symmetry found


                                    s                        frac. trans.

      isym =  1     identity                                     

 cryst.   s( 1) = (     1          0          0      )
                  (     0          1          0      )
                  (     0          0          1      )

 cart.    s( 1) = (  1.0000000  0.0000000 -0.0000000 )
                  (  0.0000000  1.0000000 -0.0000000 )
                  ( -0.0000000  0.0000000  1.0000000 )


   Cartesian axes

     site n.     atom                  positions (alat units)
         1        Bi     tau(   1) = (   1.1280872   0.2414708   0.1436727  )
         2        Bi     tau(   2) = (   1.6980009   0.3634627   0.2162567  )
         3        Te     tau(   3) = (   0.5990627   0.1282313   0.0762964  )
         4        Te     tau(   4) = (   0.0000000   0.0000000   0.0000000  )
         5        Te     tau(   5) = (   2.2270254   0.4767021   0.2836330  )

   Crystallographic axes

     site n.     atom                  positions (cryst. coord.)
         1        Bi     tau(   1) = (  0.3991692  0.3991691  0.3991691  )
         2        Bi     tau(   2) = (  0.6008309  0.6008309  0.6008308  )
         3        Te     tau(   3) = (  0.2119760  0.2119759  0.2119759  )
         4        Te     tau(   4) = (  0.0000000  0.0000000  0.0000000  )
         5        Te     tau(   5) = (  0.7880240  0.7880240  0.7880240  )

     number of k points=   216  Methfessel-Paxton smearing, width (Ry)=  0.0100
                       cart. coord. in units 2pi/alat
        k(    1) = (   0.0000000   0.0000000   0.0000000), wk =   0.0092593
        k(    2) = (  -0.0004540  -0.0000972   0.4667817), wk =   0.0092593
        k(    3) = (  -0.0009080  -0.0001944   0.9335634), wk =   0.0092593
        k(    4) = (   0.0013619   0.0002915  -1.4003451), wk =   0.0092593
        k(    5) = (   0.0009080   0.0001944  -0.9335634), wk =   0.0092593
        k(    6) = (   0.0004540   0.0000972  -0.4667817), wk =   0.0092593
        k(    7) = (  -0.0004540   0.4101867  -0.2227825), wk =   0.0092593
        k(    8) = (  -0.0009080   0.4100895   0.2439992), wk =   0.0092593
        k(    9) = (  -0.0013620   0.4099923   0.7107809), wk =   0.0092593
        k(   10) = (   0.0009079   0.4104782  -1.6231276), wk =   0.0092593
        k(   11) = (   0.0004540   0.4103810  -1.1563459), wk =   0.0092593
        k(   12) = (  -0.0000000   0.4102839  -0.6895642), wk =   0.0092593
        k(   13) = (  -0.0009080   0.8203734  -0.4455650), wk =   0.0092593
        k(   14) = (  -0.0013620   0.8202762   0.0212167), wk =   0.0092593
        k(   15) = (  -0.0018160   0.8201790   0.4879985), wk =   0.0092593
        k(   16) = (   0.0004539   0.8206649  -1.8459101), wk =   0.0092593
        k(   17) = (  -0.0000000   0.8205677  -1.3791284), wk =   0.0092593
        k(   18) = (  -0.0004540   0.8204706  -0.9123467), wk =   0.0092593
        k(   19) = (   0.0013620  -1.2305601   0.6683475), wk =   0.0092593
        k(   20) = (   0.0009080  -1.2306573   1.1351292), wk =   0.0092593
        k(   21) = (   0.0004540  -1.2307544   1.6019109), wk =   0.0092593
        k(   22) = (   0.0027239  -1.2302686  -0.7319977), wk =   0.0092593
        k(   23) = (   0.0022700  -1.2303657  -0.2652160), wk =   0.0092593
        k(   24) = (   0.0018160  -1.2304629   0.2015657), wk =   0.0092593
        k(   25) = (   0.0009080  -0.8203734   0.4455650), wk =   0.0092593
        k(   26) = (   0.0004540  -0.8204706   0.9123467), wk =   0.0092593
        k(   27) = (   0.0000000  -0.8205677   1.3791284), wk =   0.0092593
        k(   28) = (   0.0022699  -0.8200819  -0.9547802), wk =   0.0092593
        k(   29) = (   0.0018160  -0.8201790  -0.4879985), wk =   0.0092593
        k(   30) = (   0.0013620  -0.8202762  -0.0212167), wk =   0.0092593
        k(   31) = (   0.0004540  -0.4101867   0.2227825), wk =   0.0092593
        k(   32) = (   0.0000000  -0.4102839   0.6895642), wk =   0.0092593
        k(   33) = (  -0.0004540  -0.4103810   1.1563459), wk =   0.0092593
        k(   34) = (   0.0018159  -0.4098952  -1.1775627), wk =   0.0092593
        k(   35) = (   0.0013620  -0.4099923  -0.7107809), wk =   0.0092593
        k(   36) = (   0.0009080  -0.4100895  -0.2439992), wk =   0.0092593
        k(   37) = (   0.1674960  -0.3744308  -0.2227827), wk =   0.0092593
        k(   38) = (   0.1670420  -0.3745280   0.2439991), wk =   0.0092593
        k(   39) = (   0.1665880  -0.3746252   0.7107808), wk =   0.0092593
        k(   40) = (   0.1688579  -0.3741393  -1.6231278), wk =   0.0092593
        k(   41) = (   0.1684040  -0.3742365  -1.1563461), wk =   0.0092593
        k(   42) = (   0.1679500  -0.3743337  -0.6895644), wk =   0.0092593
        k(   43) = (   0.1670420   0.0357559  -0.4455652), wk =   0.0092593
        k(   44) = (   0.1665880   0.0356587   0.0212166), wk =   0.0092593
        k(   45) = (   0.1661340   0.0355615   0.4879983), wk =   0.0092593
        k(   46) = (   0.1684039   0.0360474  -1.8459103), wk =   0.0092593
        k(   47) = (   0.1679500   0.0359502  -1.3791286), wk =   0.0092593
        k(   48) = (   0.1674960   0.0358530  -0.9123469), wk =   0.0092593
        k(   49) = (   0.1665880   0.4459425  -0.6683476), wk =   0.0092593
        k(   50) = (   0.1661340   0.4458454  -0.2015659), wk =   0.0092593
        k(   51) = (   0.1656800   0.4457482   0.2652158), wk =   0.0092593
        k(   52) = (   0.1679499   0.4462341  -2.0686928), wk =   0.0092593
        k(   53) = (   0.1674960   0.4461369  -1.6019111), wk =   0.0092593
        k(   54) = (   0.1670420   0.4460397  -1.1351294), wk =   0.0092593
        k(   55) = (   0.1688580  -1.6049909   0.4455648), wk =   0.0092593
        k(   56) = (   0.1684040  -1.6050881   0.9123465), wk =   0.0092593
        k(   57) = (   0.1679500  -1.6051853   1.3791282), wk =   0.0092593
        k(   58) = (   0.1702199  -1.6046994  -0.9547803), wk =   0.0092593
        k(   59) = (   0.1697659  -1.6047966  -0.4879986), wk =   0.0092593
        k(   60) = (   0.1693120  -1.6048937  -0.0212169), wk =   0.0092593
        k(   61) = (   0.1684040  -1.1948042   0.2227823), wk =   0.0092593
        k(   62) = (   0.1679500  -1.1949014   0.6895640), wk =   0.0092593
        k(   63) = (   0.1674960  -1.1949986   1.1563457), wk =   0.0092593
        k(   64) = (   0.1697659  -1.1945127  -1.1775628), wk =   0.0092593
        k(   65) = (   0.1693119  -1.1946099  -0.7107811), wk =   0.0092593
        k(   66) = (   0.1688580  -1.1947070  -0.2439994), wk =   0.0092593
        k(   67) = (   0.1679500  -0.7846175  -0.0000002), wk =   0.0092593
        k(   68) = (   0.1674960  -0.7847147   0.4667815), wk =   0.0092593
        k(   69) = (   0.1670420  -0.7848119   0.9335633), wk =   0.0092593
        k(   70) = (   0.1693119  -0.7843260  -1.4003453), wk =   0.0092593
        k(   71) = (   0.1688580  -0.7844232  -0.9335636), wk =   0.0092593
        k(   72) = (   0.1684040  -0.7845204  -0.4667819), wk =   0.0092593
        k(   73) = (   0.3349920  -0.7488617  -0.4455653), wk =   0.0092593
        k(   74) = (   0.3345380  -0.7489589   0.0212164), wk =   0.0092593
        k(   75) = (   0.3340840  -0.7490560   0.4879981), wk =   0.0092593
        k(   76) = (   0.3363539  -0.7485701  -1.8459105), wk =   0.0092593
        k(   77) = (   0.3358999  -0.7486673  -1.3791288), wk =   0.0092593
        k(   78) = (   0.3354460  -0.7487645  -0.9123470), wk =   0.0092593
        k(   79) = (   0.3345380  -0.3386750  -0.6683478), wk =   0.0092593
        k(   80) = (   0.3340840  -0.3387722  -0.2015661), wk =   0.0092593
        k(   81) = (   0.3336300  -0.3388693   0.2652156), wk =   0.0092593
        k(   82) = (   0.3358999  -0.3383835  -2.0686930), wk =   0.0092593
        k(   83) = (   0.3354460  -0.3384806  -1.6019112), wk =   0.0092593
        k(   84) = (   0.3349920  -0.3385778  -1.1351295), wk =   0.0092593
        k(   85) = (   0.3340840   0.0715117  -0.8911303), wk =   0.0092593
        k(   86) = (   0.3336300   0.0714145  -0.4243486), wk =   0.0092593
        k(   87) = (   0.3331760   0.0713174   0.0424331), wk =   0.0092593
        k(   88) = (   0.3354459   0.0718032  -2.2914754), wk =   0.0092593
        k(   89) = (   0.3349920   0.0717061  -1.8246937), wk =   0.0092593
        k(   90) = (   0.3345380   0.0716089  -1.3579120), wk =   0.0092593
        k(   91) = (   0.3363540  -1.9794218   0.2227821), wk =   0.0092593
        k(   92) = (   0.3359000  -1.9795189   0.6895638), wk =   0.0092593
        k(   93) = (   0.3354460  -1.9796161   1.1563456), wk =   0.0092593
        k(   94) = (   0.3377159  -1.9791302  -1.1775630), wk =   0.0092593
        k(   95) = (   0.3372619  -1.9792274  -0.7107813), wk =   0.0092593
        k(   96) = (   0.3368080  -1.9793246  -0.2439996), wk =   0.0092593
        k(   97) = (   0.3359000  -1.5692351  -0.0000004), wk =   0.0092593
        k(   98) = (   0.3354460  -1.5693322   0.4667814), wk =   0.0092593
        k(   99) = (   0.3349920  -1.5694294   0.9335631), wk =   0.0092593
        k(  100) = (   0.3372619  -1.5689435  -1.4003455), wk =   0.0092593
        k(  101) = (   0.3368079  -1.5690407  -0.9335638), wk =   0.0092593
        k(  102) = (   0.3363540  -1.5691379  -0.4667821), wk =   0.0092593
        k(  103) = (   0.3354460  -1.1590484  -0.2227828), wk =   0.0092593
        k(  104) = (   0.3349920  -1.1591455   0.2439989), wk =   0.0092593
        k(  105) = (   0.3345380  -1.1592427   0.7107806), wk =   0.0092593
        k(  106) = (   0.3368079  -1.1587568  -1.6231280), wk =   0.0092593
        k(  107) = (   0.3363539  -1.1588540  -1.1563463), wk =   0.0092593
        k(  108) = (   0.3359000  -1.1589512  -0.6895646), wk =   0.0092593
        k(  109) = (  -0.5024880   1.1232925   0.6683480), wk =   0.0092593
        k(  110) = (  -0.5029420   1.1231953   1.1351297), wk =   0.0092593
        k(  111) = (  -0.5033959   1.1230982   1.6019114), wk =   0.0092593
        k(  112) = (  -0.5011260   1.1235840  -0.7319972), wk =   0.0092593
        k(  113) = (  -0.5015800   1.1234869  -0.2652154), wk =   0.0092593
        k(  114) = (  -0.5020340   1.1233897   0.2015663), wk =   0.0092593
        k(  115) = (  -0.5029420   1.5334792   0.4455655), wk =   0.0092593
        k(  116) = (  -0.5033960   1.5333820   0.9123472), wk =   0.0092593
        k(  117) = (  -0.5038499   1.5332849   1.3791289), wk =   0.0092593
        k(  118) = (  -0.5015800   1.5337707  -0.9547796), wk =   0.0092593
        k(  119) = (  -0.5020340   1.5336736  -0.4879979), wk =   0.0092593
        k(  120) = (  -0.5024880   1.5335764  -0.0212162), wk =   0.0092593
        k(  121) = (  -0.5033960   1.9436659   0.2227830), wk =   0.0092593
        k(  122) = (  -0.5038500   1.9435687   0.6895647), wk =   0.0092593
        k(  123) = (  -0.5043039   1.9434715   1.1563464), wk =   0.0092593
        k(  124) = (  -0.5020340   1.9439574  -1.1775621), wk =   0.0092593
        k(  125) = (  -0.5024880   1.9438603  -0.7107804), wk =   0.0092593
        k(  126) = (  -0.5029420   1.9437631  -0.2439987), wk =   0.0092593
        k(  127) = (  -0.5011260  -0.1072676   1.3366955), wk =   0.0092593
        k(  128) = (  -0.5015800  -0.1073647   1.8034772), wk =   0.0092593
        k(  129) = (  -0.5020339  -0.1074619   2.2702589), wk =   0.0092593
        k(  130) = (  -0.4997640  -0.1069760  -0.0636497), wk =   0.0092593
        k(  131) = (  -0.5002180  -0.1070732   0.4031320), wk =   0.0092593
        k(  132) = (  -0.5006720  -0.1071704   0.8699137), wk =   0.0092593
        k(  133) = (  -0.5015800   0.3029191   1.1139130), wk =   0.0092593
        k(  134) = (  -0.5020340   0.3028220   1.5806947), wk =   0.0092593
        k(  135) = (  -0.5024879   0.3027248   2.0474764), wk =   0.0092593
        k(  136) = (  -0.5002180   0.3032107  -0.2864322), wk =   0.0092593
        k(  137) = (  -0.5006720   0.3031135   0.1803495), wk =   0.0092593
        k(  138) = (  -0.5011260   0.3030163   0.6471313), wk =   0.0092593
        k(  139) = (  -0.5020340   0.7131058   0.8911305), wk =   0.0092593
        k(  140) = (  -0.5024880   0.7130086   1.3579122), wk =   0.0092593
        k(  141) = (  -0.5029419   0.7129115   1.8246939), wk =   0.0092593
        k(  142) = (  -0.5006720   0.7133973  -0.5092147), wk =   0.0092593
        k(  143) = (  -0.5011260   0.7133002  -0.0424330), wk =   0.0092593
        k(  144) = (  -0.5015800   0.7132030   0.4243488), wk =   0.0092593
        k(  145) = (  -0.3349920   0.7488617   0.4455653), wk =   0.0092593
        k(  146) = (  -0.3354460   0.7487645   0.9123470), wk =   0.0092593
        k(  147) = (  -0.3358999   0.7486673   1.3791288), wk =   0.0092593
        k(  148) = (  -0.3336300   0.7491532  -0.9547798), wk =   0.0092593
        k(  149) = (  -0.3340840   0.7490560  -0.4879981), wk =   0.0092593
        k(  150) = (  -0.3345380   0.7489589  -0.0212164), wk =   0.0092593
        k(  151) = (  -0.3354460   1.1590484   0.2227828), wk =   0.0092593
        k(  152) = (  -0.3359000   1.1589512   0.6895646), wk =   0.0092593
        k(  153) = (  -0.3363539   1.1588540   1.1563463), wk =   0.0092593
        k(  154) = (  -0.3340840   1.1593399  -1.1775623), wk =   0.0092593
        k(  155) = (  -0.3345380   1.1592427  -0.7107806), wk =   0.0092593
        k(  156) = (  -0.3349920   1.1591455  -0.2439989), wk =   0.0092593
        k(  157) = (  -0.3359000   1.5692351   0.0000004), wk =   0.0092593
        k(  158) = (  -0.3363540   1.5691379   0.4667821), wk =   0.0092593
        k(  159) = (  -0.3368079   1.5690407   0.9335638), wk =   0.0092593
        k(  160) = (  -0.3345380   1.5695266  -1.4003448), wk =   0.0092593
        k(  161) = (  -0.3349920   1.5694294  -0.9335631), wk =   0.0092593
        k(  162) = (  -0.3354460   1.5693322  -0.4667814), wk =   0.0092593
        k(  163) = (  -0.3336300  -0.4816984   1.1139128), wk =   0.0092593
        k(  164) = (  -0.3340840  -0.4817956   1.5806945), wk =   0.0092593
        k(  165) = (  -0.3345380  -0.4818928   2.0474762), wk =   0.0092593
        k(  166) = (  -0.3322681  -0.4814069  -0.2864324), wk =   0.0092593
        k(  167) = (  -0.3327220  -0.4815041   0.1803494), wk =   0.0092593
        k(  168) = (  -0.3331760  -0.4816012   0.6471311), wk =   0.0092593
        k(  169) = (  -0.3340840  -0.0715117   0.8911303), wk =   0.0092593
        k(  170) = (  -0.3345380  -0.0716089   1.3579120), wk =   0.0092593
        k(  171) = (  -0.3349920  -0.0717061   1.8246937), wk =   0.0092593
        k(  172) = (  -0.3327221  -0.0712202  -0.5092148), wk =   0.0092593
        k(  173) = (  -0.3331760  -0.0713174  -0.0424331), wk =   0.0092593
        k(  174) = (  -0.3336300  -0.0714145   0.4243486), wk =   0.0092593
        k(  175) = (  -0.3345380   0.3386750   0.6683478), wk =   0.0092593
        k(  176) = (  -0.3349920   0.3385778   1.1351295), wk =   0.0092593
        k(  177) = (  -0.3354460   0.3384806   1.6019112), wk =   0.0092593
        k(  178) = (  -0.3331761   0.3389665  -0.7319973), wk =   0.0092593
        k(  179) = (  -0.3336300   0.3388693  -0.2652156), wk =   0.0092593
        k(  180) = (  -0.3340840   0.3387722   0.2015661), wk =   0.0092593
        k(  181) = (  -0.1674960   0.3744308   0.2227827), wk =   0.0092593
        k(  182) = (  -0.1679500   0.3743337   0.6895644), wk =   0.0092593
        k(  183) = (  -0.1684040   0.3742365   1.1563461), wk =   0.0092593
        k(  184) = (  -0.1661341   0.3747224  -1.1775625), wk =   0.0092593
        k(  185) = (  -0.1665880   0.3746252  -0.7107808), wk =   0.0092593
        k(  186) = (  -0.1670420   0.3745280  -0.2439991), wk =   0.0092593
        k(  187) = (  -0.1679500   0.7846175   0.0000002), wk =   0.0092593
        k(  188) = (  -0.1684040   0.7845204   0.4667819), wk =   0.0092593
        k(  189) = (  -0.1688580   0.7844232   0.9335636), wk =   0.0092593
        k(  190) = (  -0.1665881   0.7849091  -1.4003450), wk =   0.0092593
        k(  191) = (  -0.1670420   0.7848119  -0.9335633), wk =   0.0092593
        k(  192) = (  -0.1674960   0.7847147  -0.4667815), wk =   0.0092593
        k(  193) = (  -0.1684040   1.1948042  -0.2227823), wk =   0.0092593
        k(  194) = (  -0.1688580   1.1947070   0.2439994), wk =   0.0092593
        k(  195) = (  -0.1693119   1.1946099   0.7107811), wk =   0.0092593
        k(  196) = (  -0.1670420   1.1950958  -1.6231275), wk =   0.0092593
        k(  197) = (  -0.1674960   1.1949986  -1.1563457), wk =   0.0092593
        k(  198) = (  -0.1679500   1.1949014  -0.6895640), wk =   0.0092593
        k(  199) = (  -0.1661340  -0.8561292   0.8911301), wk =   0.0092593
        k(  200) = (  -0.1665880  -0.8562264   1.3579118), wk =   0.0092593
        k(  201) = (  -0.1670420  -0.8563236   1.8246936), wk =   0.0092593
        k(  202) = (  -0.1647721  -0.8558377  -0.5092150), wk =   0.0092593
        k(  203) = (  -0.1652260  -0.8559349  -0.0424333), wk =   0.0092593
        k(  204) = (  -0.1656800  -0.8560321   0.4243484), wk =   0.0092593
        k(  205) = (  -0.1665880  -0.4459425   0.6683476), wk =   0.0092593
        k(  206) = (  -0.1670420  -0.4460397   1.1351294), wk =   0.0092593
        k(  207) = (  -0.1674960  -0.4461369   1.6019111), wk =   0.0092593
        k(  208) = (  -0.1652261  -0.4456510  -0.7319975), wk =   0.0092593
        k(  209) = (  -0.1656800  -0.4457482  -0.2652158), wk =   0.0092593
        k(  210) = (  -0.1661340  -0.4458454   0.2015659), wk =   0.0092593
        k(  211) = (  -0.1670420  -0.0357559   0.4455652), wk =   0.0092593
        k(  212) = (  -0.1674960  -0.0358530   0.9123469), wk =   0.0092593
        k(  213) = (  -0.1679500  -0.0359502   1.3791286), wk =   0.0092593
        k(  214) = (  -0.1656801  -0.0354643  -0.9547800), wk =   0.0092593
        k(  215) = (  -0.1661340  -0.0355615  -0.4879983), wk =   0.0092593
        k(  216) = (  -0.1665880  -0.0356587  -0.0212166), wk =   0.0092593

                       cryst. coord.
        k(    1) = (   0.0000000   0.0000000   0.0000000), wk =   0.0092593
        k(    2) = (  -0.0000000  -0.0000000   0.1666667), wk =   0.0092593
        k(    3) = (  -0.0000000  -0.0000000   0.3333333), wk =   0.0092593
        k(    4) = (   0.0000000   0.0000000  -0.5000000), wk =   0.0092593
        k(    5) = (   0.0000000   0.0000000  -0.3333333), wk =   0.0092593
        k(    6) = (   0.0000000   0.0000000  -0.1666667), wk =   0.0092593
        k(    7) = (   0.0000000   0.1666667   0.0000000), wk =   0.0092593
        k(    8) = (  -0.0000000   0.1666667   0.1666667), wk =   0.0092593
        k(    9) = (  -0.0000000   0.1666667   0.3333333), wk =   0.0092593
        k(   10) = (   0.0000000   0.1666667  -0.5000000), wk =   0.0092593
        k(   11) = (   0.0000000   0.1666667  -0.3333333), wk =   0.0092593
        k(   12) = (   0.0000000   0.1666667  -0.1666667), wk =   0.0092593
        k(   13) = (   0.0000000   0.3333333   0.0000000), wk =   0.0092593
        k(   14) = (   0.0000000   0.3333333   0.1666667), wk =   0.0092593
        k(   15) = (  -0.0000000   0.3333333   0.3333333), wk =   0.0092593
        k(   16) = (   0.0000000   0.3333333  -0.5000000), wk =   0.0092593
        k(   17) = (   0.0000000   0.3333333  -0.3333333), wk =   0.0092593
        k(   18) = (   0.0000000   0.3333333  -0.1666667), wk =   0.0092593
        k(   19) = (  -0.0000000  -0.5000000  -0.0000000), wk =   0.0092593
        k(   20) = (  -0.0000000  -0.5000000   0.1666667), wk =   0.0092593
        k(   21) = (  -0.0000000  -0.5000000   0.3333333), wk =   0.0092593
        k(   22) = (  -0.0000000  -0.5000000  -0.5000000), wk =   0.0092593
        k(   23) = (   0.0000000  -0.5000000  -0.3333333), wk =   0.0092593
        k(   24) = (   0.0000000  -0.5000000  -0.1666667), wk =   0.0092593
        k(   25) = (  -0.0000000  -0.3333333  -0.0000000), wk =   0.0092593
        k(   26) = (  -0.0000000  -0.3333333   0.1666667), wk =   0.0092593
        k(   27) = (  -0.0000000  -0.3333333   0.3333333), wk =   0.0092593
        k(   28) = (  -0.0000000  -0.3333333  -0.5000000), wk =   0.0092593
        k(   29) = (  -0.0000000  -0.3333333  -0.3333333), wk =   0.0092593
        k(   30) = (  -0.0000000  -0.3333333  -0.1666667), wk =   0.0092593
        k(   31) = (  -0.0000000  -0.1666667  -0.0000000), wk =   0.0092593
        k(   32) = (  -0.0000000  -0.1666667   0.1666667), wk =   0.0092593
        k(   33) = (  -0.0000000  -0.1666667   0.3333333), wk =   0.0092593
        k(   34) = (   0.0000000  -0.1666667  -0.5000000), wk =   0.0092593
        k(   35) = (  -0.0000000  -0.1666667  -0.3333333), wk =   0.0092593
        k(   36) = (  -0.0000000  -0.1666667  -0.1666667), wk =   0.0092593
        k(   37) = (   0.1666667   0.0000000   0.0000000), wk =   0.0092593
        k(   38) = (   0.1666667   0.0000000   0.1666667), wk =   0.0092593
        k(   39) = (   0.1666667   0.0000000   0.3333333), wk =   0.0092593
        k(   40) = (   0.1666667  -0.0000000  -0.5000000), wk =   0.0092593
        k(   41) = (   0.1666667  -0.0000000  -0.3333333), wk =   0.0092593
        k(   42) = (   0.1666667  -0.0000000  -0.1666667), wk =   0.0092593
        k(   43) = (   0.1666667   0.1666667   0.0000000), wk =   0.0092593
        k(   44) = (   0.1666667   0.1666667   0.1666667), wk =   0.0092593
        k(   45) = (   0.1666667   0.1666667   0.3333333), wk =   0.0092593
        k(   46) = (   0.1666667   0.1666667  -0.5000000), wk =   0.0092593
        k(   47) = (   0.1666667   0.1666667  -0.3333333), wk =   0.0092593
        k(   48) = (   0.1666667   0.1666667  -0.1666667), wk =   0.0092593
        k(   49) = (   0.1666667   0.3333333   0.0000000), wk =   0.0092593
        k(   50) = (   0.1666667   0.3333333   0.1666667), wk =   0.0092593
        k(   51) = (   0.1666667   0.3333333   0.3333333), wk =   0.0092593
        k(   52) = (   0.1666667   0.3333333  -0.5000000), wk =   0.0092593
        k(   53) = (   0.1666667   0.3333333  -0.3333333), wk =   0.0092593
        k(   54) = (   0.1666667   0.3333333  -0.1666667), wk =   0.0092593
        k(   55) = (   0.1666667  -0.5000000   0.0000000), wk =   0.0092593
        k(   56) = (   0.1666667  -0.5000000   0.1666667), wk =   0.0092593
        k(   57) = (   0.1666667  -0.5000000   0.3333333), wk =   0.0092593
        k(   58) = (   0.1666667  -0.5000000  -0.5000000), wk =   0.0092593
        k(   59) = (   0.1666667  -0.5000000  -0.3333333), wk =   0.0092593
        k(   60) = (   0.1666667  -0.5000000  -0.1666667), wk =   0.0092593
        k(   61) = (   0.1666667  -0.3333333   0.0000000), wk =   0.0092593
        k(   62) = (   0.1666667  -0.3333333   0.1666667), wk =   0.0092593
        k(   63) = (   0.1666667  -0.3333333   0.3333333), wk =   0.0092593
        k(   64) = (   0.1666667  -0.3333333  -0.5000000), wk =   0.0092593
        k(   65) = (   0.1666667  -0.3333333  -0.3333333), wk =   0.0092593
        k(   66) = (   0.1666667  -0.3333333  -0.1666667), wk =   0.0092593
        k(   67) = (   0.1666667  -0.1666667   0.0000000), wk =   0.0092593
        k(   68) = (   0.1666667  -0.1666667   0.1666667), wk =   0.0092593
        k(   69) = (   0.1666667  -0.1666667   0.3333333), wk =   0.0092593
        k(   70) = (   0.1666667  -0.1666667  -0.5000000), wk =   0.0092593
        k(   71) = (   0.1666667  -0.1666667  -0.3333333), wk =   0.0092593
        k(   72) = (   0.1666667  -0.1666667  -0.1666667), wk =   0.0092593
        k(   73) = (   0.3333333   0.0000000   0.0000000), wk =   0.0092593
        k(   74) = (   0.3333333  -0.0000000   0.1666667), wk =   0.0092593
        k(   75) = (   0.3333333   0.0000000   0.3333333), wk =   0.0092593
        k(   76) = (   0.3333333   0.0000000  -0.5000000), wk =   0.0092593
        k(   77) = (   0.3333333  -0.0000000  -0.3333333), wk =   0.0092593
        k(   78) = (   0.3333333   0.0000000  -0.1666667), wk =   0.0092593
        k(   79) = (   0.3333333   0.1666667   0.0000000), wk =   0.0092593
        k(   80) = (   0.3333333   0.1666667   0.1666667), wk =   0.0092593
        k(   81) = (   0.3333333   0.1666667   0.3333333), wk =   0.0092593
        k(   82) = (   0.3333333   0.1666667  -0.5000000), wk =   0.0092593
        k(   83) = (   0.3333333   0.1666667  -0.3333333), wk =   0.0092593
        k(   84) = (   0.3333333   0.1666667  -0.1666667), wk =   0.0092593
        k(   85) = (   0.3333333   0.3333333   0.0000000), wk =   0.0092593
        k(   86) = (   0.3333333   0.3333333   0.1666667), wk =   0.0092593
        k(   87) = (   0.3333333   0.3333333   0.3333333), wk =   0.0092593
        k(   88) = (   0.3333333   0.3333333  -0.5000000), wk =   0.0092593
        k(   89) = (   0.3333333   0.3333333  -0.3333333), wk =   0.0092593
        k(   90) = (   0.3333333   0.3333333  -0.1666667), wk =   0.0092593
        k(   91) = (   0.3333333  -0.5000000   0.0000000), wk =   0.0092593
        k(   92) = (   0.3333333  -0.5000000   0.1666667), wk =   0.0092593
        k(   93) = (   0.3333333  -0.5000000   0.3333333), wk =   0.0092593
        k(   94) = (   0.3333333  -0.5000000  -0.5000000), wk =   0.0092593
        k(   95) = (   0.3333333  -0.5000000  -0.3333333), wk =   0.0092593
        k(   96) = (   0.3333333  -0.5000000  -0.1666667), wk =   0.0092593
        k(   97) = (   0.3333333  -0.3333333   0.0000000), wk =   0.0092593
        k(   98) = (   0.3333333  -0.3333333   0.1666667), wk =   0.0092593
        k(   99) = (   0.3333333  -0.3333333   0.3333333), wk =   0.0092593
        k(  100) = (   0.3333333  -0.3333333  -0.5000000), wk =   0.0092593
        k(  101) = (   0.3333333  -0.3333333  -0.3333333), wk =   0.0092593
        k(  102) = (   0.3333333  -0.3333333  -0.1666667), wk =   0.0092593
        k(  103) = (   0.3333333  -0.1666667  -0.0000000), wk =   0.0092593
        k(  104) = (   0.3333333  -0.1666667   0.1666667), wk =   0.0092593
        k(  105) = (   0.3333333  -0.1666667   0.3333333), wk =   0.0092593
        k(  106) = (   0.3333333  -0.1666667  -0.5000000), wk =   0.0092593
        k(  107) = (   0.3333333  -0.1666667  -0.3333333), wk =   0.0092593
        k(  108) = (   0.3333333  -0.1666667  -0.1666667), wk =   0.0092593
        k(  109) = (  -0.5000000  -0.0000000  -0.0000000), wk =   0.0092593
        k(  110) = (  -0.5000000  -0.0000000   0.1666667), wk =   0.0092593
        k(  111) = (  -0.5000000  -0.0000000   0.3333333), wk =   0.0092593
        k(  112) = (  -0.5000000   0.0000000  -0.5000000), wk =   0.0092593
        k(  113) = (  -0.5000000   0.0000000  -0.3333333), wk =   0.0092593
        k(  114) = (  -0.5000000  -0.0000000  -0.1666667), wk =   0.0092593
        k(  115) = (  -0.5000000   0.1666667  -0.0000000), wk =   0.0092593
        k(  116) = (  -0.5000000   0.1666667   0.1666667), wk =   0.0092593
        k(  117) = (  -0.5000000   0.1666667   0.3333333), wk =   0.0092593
        k(  118) = (  -0.5000000   0.1666667  -0.5000000), wk =   0.0092593
        k(  119) = (  -0.5000000   0.1666667  -0.3333333), wk =   0.0092593
        k(  120) = (  -0.5000000   0.1666667  -0.1666667), wk =   0.0092593
        k(  121) = (  -0.5000000   0.3333333  -0.0000000), wk =   0.0092593
        k(  122) = (  -0.5000000   0.3333333   0.1666667), wk =   0.0092593
        k(  123) = (  -0.5000000   0.3333333   0.3333333), wk =   0.0092593
        k(  124) = (  -0.5000000   0.3333333  -0.5000000), wk =   0.0092593
        k(  125) = (  -0.5000000   0.3333333  -0.3333333), wk =   0.0092593
        k(  126) = (  -0.5000000   0.3333333  -0.1666667), wk =   0.0092593
        k(  127) = (  -0.5000000  -0.5000000  -0.0000000), wk =   0.0092593
        k(  128) = (  -0.5000000  -0.5000000   0.1666667), wk =   0.0092593
        k(  129) = (  -0.5000000  -0.5000000   0.3333333), wk =   0.0092593
        k(  130) = (  -0.5000000  -0.5000000  -0.5000000), wk =   0.0092593
        k(  131) = (  -0.5000000  -0.5000000  -0.3333333), wk =   0.0092593
        k(  132) = (  -0.5000000  -0.5000000  -0.1666667), wk =   0.0092593
        k(  133) = (  -0.5000000  -0.3333333  -0.0000000), wk =   0.0092593
        k(  134) = (  -0.5000000  -0.3333333   0.1666667), wk =   0.0092593
        k(  135) = (  -0.5000000  -0.3333333   0.3333333), wk =   0.0092593
        k(  136) = (  -0.5000000  -0.3333333  -0.5000000), wk =   0.0092593
        k(  137) = (  -0.5000000  -0.3333333  -0.3333333), wk =   0.0092593
        k(  138) = (  -0.5000000  -0.3333333  -0.1666667), wk =   0.0092593
        k(  139) = (  -0.5000000  -0.1666667  -0.0000000), wk =   0.0092593
        k(  140) = (  -0.5000000  -0.1666667   0.1666667), wk =   0.0092593
        k(  141) = (  -0.5000000  -0.1666667   0.3333333), wk =   0.0092593
        k(  142) = (  -0.5000000  -0.1666667  -0.5000000), wk =   0.0092593
        k(  143) = (  -0.5000000  -0.1666667  -0.3333333), wk =   0.0092593
        k(  144) = (  -0.5000000  -0.1666667  -0.1666667), wk =   0.0092593
        k(  145) = (  -0.3333333  -0.0000000  -0.0000000), wk =   0.0092593
        k(  146) = (  -0.3333333  -0.0000000   0.1666667), wk =   0.0092593
        k(  147) = (  -0.3333333   0.0000000   0.3333333), wk =   0.0092593
        k(  148) = (  -0.3333333  -0.0000000  -0.5000000), wk =   0.0092593
        k(  149) = (  -0.3333333  -0.0000000  -0.3333333), wk =   0.0092593
        k(  150) = (  -0.3333333   0.0000000  -0.1666667), wk =   0.0092593
        k(  151) = (  -0.3333333   0.1666667  -0.0000000), wk =   0.0092593
        k(  152) = (  -0.3333333   0.1666667   0.1666667), wk =   0.0092593
        k(  153) = (  -0.3333333   0.1666667   0.3333333), wk =   0.0092593
        k(  154) = (  -0.3333333   0.1666667  -0.5000000), wk =   0.0092593
        k(  155) = (  -0.3333333   0.1666667  -0.3333333), wk =   0.0092593
        k(  156) = (  -0.3333333   0.1666667  -0.1666667), wk =   0.0092593
        k(  157) = (  -0.3333333   0.3333333  -0.0000000), wk =   0.0092593
        k(  158) = (  -0.3333333   0.3333333   0.1666667), wk =   0.0092593
        k(  159) = (  -0.3333333   0.3333333   0.3333333), wk =   0.0092593
        k(  160) = (  -0.3333333   0.3333333  -0.5000000), wk =   0.0092593
        k(  161) = (  -0.3333333   0.3333333  -0.3333333), wk =   0.0092593
        k(  162) = (  -0.3333333   0.3333333  -0.1666667), wk =   0.0092593
        k(  163) = (  -0.3333333  -0.5000000  -0.0000000), wk =   0.0092593
        k(  164) = (  -0.3333333  -0.5000000   0.1666667), wk =   0.0092593
        k(  165) = (  -0.3333333  -0.5000000   0.3333333), wk =   0.0092593
        k(  166) = (  -0.3333333  -0.5000000  -0.5000000), wk =   0.0092593
        k(  167) = (  -0.3333333  -0.5000000  -0.3333333), wk =   0.0092593
        k(  168) = (  -0.3333333  -0.5000000  -0.1666667), wk =   0.0092593
        k(  169) = (  -0.3333333  -0.3333333  -0.0000000), wk =   0.0092593
        k(  170) = (  -0.3333333  -0.3333333   0.1666667), wk =   0.0092593
        k(  171) = (  -0.3333333  -0.3333333   0.3333333), wk =   0.0092593
        k(  172) = (  -0.3333333  -0.3333333  -0.5000000), wk =   0.0092593
        k(  173) = (  -0.3333333  -0.3333333  -0.3333333), wk =   0.0092593
        k(  174) = (  -0.3333333  -0.3333333  -0.1666667), wk =   0.0092593
        k(  175) = (  -0.3333333  -0.1666667  -0.0000000), wk =   0.0092593
        k(  176) = (  -0.3333333  -0.1666667   0.1666667), wk =   0.0092593
        k(  177) = (  -0.3333333  -0.1666667   0.3333333), wk =   0.0092593
        k(  178) = (  -0.3333333  -0.1666667  -0.5000000), wk =   0.0092593
        k(  179) = (  -0.3333333  -0.1666667  -0.3333333), wk =   0.0092593
        k(  180) = (  -0.3333333  -0.1666667  -0.1666667), wk =   0.0092593
        k(  181) = (  -0.1666667   0.0000000  -0.0000000), wk =   0.0092593
        k(  182) = (  -0.1666667   0.0000000   0.1666667), wk =   0.0092593
        k(  183) = (  -0.1666667   0.0000000   0.3333333), wk =   0.0092593
        k(  184) = (  -0.1666667   0.0000000  -0.5000000), wk =   0.0092593
        k(  185) = (  -0.1666667  -0.0000000  -0.3333333), wk =   0.0092593
        k(  186) = (  -0.1666667  -0.0000000  -0.1666667), wk =   0.0092593
        k(  187) = (  -0.1666667   0.1666667  -0.0000000), wk =   0.0092593
        k(  188) = (  -0.1666667   0.1666667   0.1666667), wk =   0.0092593
        k(  189) = (  -0.1666667   0.1666667   0.3333333), wk =   0.0092593
        k(  190) = (  -0.1666667   0.1666667  -0.5000000), wk =   0.0092593
        k(  191) = (  -0.1666667   0.1666667  -0.3333333), wk =   0.0092593
        k(  192) = (  -0.1666667   0.1666667  -0.1666667), wk =   0.0092593
        k(  193) = (  -0.1666667   0.3333333   0.0000000), wk =   0.0092593
        k(  194) = (  -0.1666667   0.3333333   0.1666667), wk =   0.0092593
        k(  195) = (  -0.1666667   0.3333333   0.3333333), wk =   0.0092593
        k(  196) = (  -0.1666667   0.3333333  -0.5000000), wk =   0.0092593
        k(  197) = (  -0.1666667   0.3333333  -0.3333333), wk =   0.0092593
        k(  198) = (  -0.1666667   0.3333333  -0.1666667), wk =   0.0092593
        k(  199) = (  -0.1666667  -0.5000000  -0.0000000), wk =   0.0092593
        k(  200) = (  -0.1666667  -0.5000000   0.1666667), wk =   0.0092593
        k(  201) = (  -0.1666667  -0.5000000   0.3333333), wk =   0.0092593
        k(  202) = (  -0.1666667  -0.5000000  -0.5000000), wk =   0.0092593
        k(  203) = (  -0.1666667  -0.5000000  -0.3333333), wk =   0.0092593
        k(  204) = (  -0.1666667  -0.5000000  -0.1666667), wk =   0.0092593
        k(  205) = (  -0.1666667  -0.3333333  -0.0000000), wk =   0.0092593
        k(  206) = (  -0.1666667  -0.3333333   0.1666667), wk =   0.0092593
        k(  207) = (  -0.1666667  -0.3333333   0.3333333), wk =   0.0092593
        k(  208) = (  -0.1666667  -0.3333333  -0.5000000), wk =   0.0092593
        k(  209) = (  -0.1666667  -0.3333333  -0.3333333), wk =   0.0092593
        k(  210) = (  -0.1666667  -0.3333333  -0.1666667), wk =   0.0092593
        k(  211) = (  -0.1666667  -0.1666667  -0.0000000), wk =   0.0092593
        k(  212) = (  -0.1666667  -0.1666667   0.1666667), wk =   0.0092593
        k(  213) = (  -0.1666667  -0.1666667   0.3333333), wk =   0.0092593
        k(  214) = (  -0.1666667  -0.1666667  -0.5000000), wk =   0.0092593
        k(  215) = (  -0.1666667  -0.1666667  -0.3333333), wk =   0.0092593
        k(  216) = (  -0.1666667  -0.1666667  -0.1666667), wk =   0.0092593

     Dense  grid:    95313 G-vectors     FFT dimensions: ( 108, 108, 108)

     Dynamical RAM for                 wfc:       5.63 MB

     Dynamical RAM for     wfc (w. buffer):       5.63 MB

     Dynamical RAM for           str. fact:       1.45 MB

     Dynamical RAM for           local pot:       0.00 MB

     Dynamical RAM for          nlocal pot:       8.18 MB

     Dynamical RAM for                qrad:       2.69 MB

     Dynamical RAM for          rho,v,vnew:      16.60 MB

     Dynamical RAM for               rhoin:       5.53 MB

     Dynamical RAM for           G-vectors:       3.09 MB

     Dynamical RAM for          h,s,v(r/c):       0.70 MB

     Dynamical RAM for          <psi|beta>:       0.09 MB

     Dynamical RAM for                 psi:      11.26 MB

     Dynamical RAM for                hpsi:      11.26 MB

     Dynamical RAM for      wfcinit/wfcrot:      11.35 MB

     Estimated static dynamical RAM per process >      69.38 MB

     Estimated max dynamical RAM per process >      92.69 MB

     Estimated total dynamical RAM >       4.35 GB

     Initial potential from superposition of free atoms

     starting charge      77.9977, renormalised to      78.0000
     Starting wfcs are   45 randomized atomic wfcs +   17 random wfcs

     total cpu time spent up to now is        9.6 secs

     per-process dynamical memory:   150.8 Mb

     Self-consistent Calculation

     iteration #  1     ecut=    70.00 Ry     beta= 0.30
     Davidson diagonalization with overlap

---- Real-time Memory Report at c_bands before calling an iterative solver
           260 MiB given to the printing process from OS
           147 MiB allocation reported by mallinfo(arena+hblkhd)
        514996 MiB available memory on the node where the printing process lives
------------------
     ethr =  1.00E-02,  avg # of iterations =  5.7

     Threshold (ethr) on eigenvalues was too large:
     Diagonalizing with lowered threshold

     Davidson diagonalization with overlap

---- Real-time Memory Report at c_bands before calling an iterative solver
           260 MiB given to the printing process from OS
           141 MiB allocation reported by mallinfo(arena+hblkhd)
        516218 MiB available memory on the node where the printing process lives
------------------
     ethr =  1.52E-04,  avg # of iterations =  8.2

     total cpu time spent up to now is       67.8 secs

     total energy              =    -957.42396154 Ry
     estimated scf accuracy    <       0.11668446 Ry

     iteration #  2     ecut=    70.00 Ry     beta= 0.30
     Davidson diagonalization with overlap

---- Real-time Memory Report at c_bands before calling an iterative solver
           298 MiB given to the printing process from OS
           122 MiB allocation reported by mallinfo(arena+hblkhd)
        513189 MiB available memory on the node where the printing process lives
------------------
     ethr =  1.50E-04,  avg # of iterations =  2.0

     total cpu time spent up to now is       90.7 secs

     total energy              =    -957.42941020 Ry
     estimated scf accuracy    <       0.07936711 Ry

     iteration #  3     ecut=    70.00 Ry     beta= 0.30
     Davidson diagonalization with overlap

---- Real-time Memory Report at c_bands before calling an iterative solver
           298 MiB given to the printing process from OS
           122 MiB allocation reported by mallinfo(arena+hblkhd)
        518652 MiB available memory on the node where the printing process lives
------------------
     ethr =  1.02E-04,  avg # of iterations =  2.0

     total cpu time spent up to now is      113.8 secs

     total energy              =    -957.44106989 Ry
     estimated scf accuracy    <       0.03049631 Ry

     iteration #  4     ecut=    70.00 Ry     beta= 0.30
     Davidson diagonalization with overlap

---- Real-time Memory Report at c_bands before calling an iterative solver
           300 MiB given to the printing process from OS
           122 MiB allocation reported by mallinfo(arena+hblkhd)
        520286 MiB available memory on the node where the printing process lives
------------------
     ethr =  3.91E-05,  avg # of iterations =  1.1

     total cpu time spent up to now is      135.7 secs

     total energy              =    -957.44374511 Ry
     estimated scf accuracy    <       0.00227355 Ry

     iteration #  5     ecut=    70.00 Ry     beta= 0.30
     Davidson diagonalization with overlap

---- Real-time Memory Report at c_bands before calling an iterative solver
           300 MiB given to the printing process from OS
           122 MiB allocation reported by mallinfo(arena+hblkhd)
        523873 MiB available memory on the node where the printing process lives
------------------
     ethr =  2.91E-06,  avg # of iterations =  4.8

     total cpu time spent up to now is      159.5 secs

     total energy              =    -957.44389303 Ry
     estimated scf accuracy    <       0.00015881 Ry

     iteration #  6     ecut=    70.00 Ry     beta= 0.30
     Davidson diagonalization with overlap

---- Real-time Memory Report at c_bands before calling an iterative solver
           300 MiB given to the printing process from OS
           122 MiB allocation reported by mallinfo(arena+hblkhd)
        510165 MiB available memory on the node where the printing process lives
------------------
     ethr =  2.04E-07,  avg # of iterations =  1.1

     total cpu time spent up to now is      181.3 secs

     total energy              =    -957.44390861 Ry
     estimated scf accuracy    <       0.00001883 Ry

     iteration #  7     ecut=    70.00 Ry     beta= 0.30
     Davidson diagonalization with overlap

---- Real-time Memory Report at c_bands before calling an iterative solver
           300 MiB given to the printing process from OS
           122 MiB allocation reported by mallinfo(arena+hblkhd)
        512114 MiB available memory on the node where the printing process lives
------------------
     ethr =  2.41E-08,  avg # of iterations =  2.0

     total cpu time spent up to now is      204.7 secs

     total energy              =    -957.44391044 Ry
     estimated scf accuracy    <       0.00000353 Ry

     iteration #  8     ecut=    70.00 Ry     beta= 0.30
     Davidson diagonalization with overlap

---- Real-time Memory Report at c_bands before calling an iterative solver
           300 MiB given to the printing process from OS
           122 MiB allocation reported by mallinfo(arena+hblkhd)
        511008 MiB available memory on the node where the printing process lives
------------------
     ethr =  4.53E-09,  avg # of iterations =  2.0

     total cpu time spent up to now is      228.2 secs

     total energy              =    -957.44391097 Ry
     estimated scf accuracy    <       0.00000011 Ry

     iteration #  9     ecut=    70.00 Ry     beta= 0.30
     Davidson diagonalization with overlap

---- Real-time Memory Report at c_bands before calling an iterative solver
           300 MiB given to the printing process from OS
           122 MiB allocation reported by mallinfo(arena+hblkhd)
        512016 MiB available memory on the node where the printing process lives
------------------
     ethr =  1.40E-10,  avg # of iterations =  2.0

     total cpu time spent up to now is      253.4 secs

     total energy              =    -957.44391099 Ry
     estimated scf accuracy    <       0.00000003 Ry

     iteration # 10     ecut=    70.00 Ry     beta= 0.30
     Davidson diagonalization with overlap

---- Real-time Memory Report at c_bands before calling an iterative solver
           300 MiB given to the printing process from OS
           122 MiB allocation reported by mallinfo(arena+hblkhd)
        512482 MiB available memory on the node where the printing process lives
------------------
     ethr =  3.87E-11,  avg # of iterations =  2.0

     total cpu time spent up to now is      276.0 secs

     End of self-consistent calculation

          k = 0.0000 0.0000 0.0000 ( 11957 PWs)   bands (ev):

   -27.8891 -27.8891 -27.8883 -27.8883 -27.8829 -27.8829 -27.8804 -27.8804
   -27.8798 -27.8791 -27.7316 -27.7241 -27.7241 -27.6952 -27.6952 -14.4192
   -14.4192 -14.4181 -14.4181 -14.4111 -14.4100 -14.4076 -14.4076 -14.4067
   -14.4067  -4.3154  -3.7035  -2.3691  -0.1919   0.3407   6.5668   6.7457
     7.0774   7.0774   7.1455   7.1455   7.9008   7.9008   8.6428   8.9909
     9.4827   9.4827  10.6131  10.7912  10.7912  13.7232  14.3616  14.7363
    14.7363  14.9459  15.2663  15.2663  16.0204  16.0204  16.7121  16.9506
    17.1652  18.4031  18.4242  18.4242  19.0984  19.0984

     occupation numbers 
     1.0000   1.0000   1.0000   1.0000   1.0000   1.0000   1.0000   1.0000
     1.0000   1.0000   1.0000   1.0000   1.0000   1.0000   1.0000   1.0000
     1.0000   1.0000   1.0000   1.0000   1.0000   1.0000   1.0000   1.0000
     1.0000   1.0000   1.0000   1.0000   1.0000   1.0000   1.0000   1.0000
     1.0000   1.0000   1.0000   1.0000   1.0000   1.0000   1.0339  -0.0355
    -0.0000  -0.0000  -0.0000  -0.0000  -0.0000  -0.0000  -0.0000  -0.0000
    -0.0000  -0.0000  -0.0000  -0.0000  -0.0000  -0.0000  -0.0000  -0.0000
    -0.0000  -0.0000  -0.0000  -0.0000  -0.0000  -0.0000

          k =-0.0005-0.0001 0.4668 ( 11897 PWs)   bands (ev):

   -27.8890 -27.8889 -27.8882 -27.8880 -27.8830 -27.8829 -27.8808 -27.8804
   -27.8796 -27.8789 -27.7315 -27.7241 -27.7241 -27.6951 -27.6949 -14.4205
   -14.4192 -14.4165 -14.4154 -14.4101 -14.4092 -14.4084 -14.4082 -14.4077
   -14.4066  -4.0864  -3.5077  -2.2251  -0.3897   0.0993   5.6519   5.7322
     6.3437   6.4481   7.0220   7.4195   7.7529   7.7668   8.1655   9.8938
    10.0152  10.1981  10.7097  10.8005  11.5302  13.0996  13.9142  14.9596
    15.0632  15.5121  15.6292  15.8381  16.3148  17.0391  17.1578  17.6614
    17.9094  18.0253  18.1193  18.7336  18.8269  19.2334

     occupation numbers 
     1.0000   1.0000   1.0000   1.0000   1.0000   1.0000   1.0000   1.0000
     1.0000   1.0000   1.0000   1.0000   1.0000   1.0000   1.0000   1.0000
     1.0000   1.0000   1.0000   1.0000   1.0000   1.0000   1.0000   1.0000
     1.0000   1.0000   1.0000   1.0000   1.0000   1.0000   1.0000   1.0000
     1.0000   1.0000   1.0000   1.0000   1.0000   1.0000   1.0000  -0.0000
    -0.0000  -0.0000  -0.0000  -0.0000  -0.0000  -0.0000  -0.0000  -0.0000
    -0.0000  -0.0000  -0.0000  -0.0000  -0.0000  -0.0000  -0.0000  -0.0000
    -0.0000  -0.0000  -0.0000  -0.0000  -0.0000  -0.0000

          k =-0.0009-0.0002 0.9336 ( 11906 PWs)   bands (ev):

   -27.8889 -27.8885 -27.8881 -27.8874 -27.8833 -27.8831 -27.8813 -27.8802
   -27.8791 -27.8786 -27.7313 -27.7243 -27.7241 -27.6951 -27.6945 -14.4242
   -14.4225 -14.4128 -14.4124 -14.4110 -14.4108 -14.4074 -14.4060 -14.4055
   -14.4044  -3.4315  -3.0019  -1.8947  -1.1069  -0.5078   4.3657   5.3199
     5.5618   5.9090   6.3094   6.3612   7.4560   7.8493   8.0789   9.5901
    10.1062  10.5361  11.4243  11.7446  12.4249  12.7183  14.0786  15.0338
    16.2220  16.3457  16.6688  16.9078  17.2709  17.8930  18.0939  18.1195
    18.3785  18.6285  19.3452  20.4858  20.7242  20.9011

     occupation numbers 
     1.0000   1.0000   1.0000   1.0000   1.0000   1.0000   1.0000   1.0000
     1.0000   1.0000   1.0000   1.0000   1.0000   1.0000   1.0000   1.0000
     1.0000   1.0000   1.0000   1.0000   1.0000   1.0000   1.0000   1.0000
     1.0000   1.0000   1.0000   1.0000   1.0000   1.0000   1.0000   1.0000
     1.0000   1.0000   1.0000   1.0000   1.0000   1.0000   1.0000  -0.0000
    -0.0000  -0.0000  -0.0000  -0.0000  -0.0000  -0.0000  -0.0000  -0.0000
    -0.0000  -0.0000  -0.0000  -0.0000  -0.0000  -0.0000  -0.0000  -0.0000
    -0.0000  -0.0000  -0.0000  -0.0000  -0.0000  -0.0000

          k = 0.0014 0.0003-1.4003 ( 11896 PWs)   bands (ev):

   -27.8889 -27.8883 -27.8881 -27.8871 -27.8834 -27.8832 -27.8815 -27.8801
   -27.8788 -27.8785 -27.7311 -27.7243 -27.7241 -27.6951 -27.6943 -14.4264
   -14.4245 -14.4140 -14.4121 -14.4120 -14.4096 -14.4054 -14.4047 -14.4036
   -14.4024  -2.6670  -2.6370  -2.1280  -1.3751  -1.0861   3.7925   5.5204
     5.5657   5.7147   5.8149   6.0330   6.6291   7.8423   8.1592   9.3500
     9.9560  11.3493  11.5239  12.2016  12.2137  12.2327  13.6969  16.8863
    17.0843  17.3847  17.5331  17.7634  18.0402  18.1454  18.6536  19.0170
    19.0507  19.1319  19.6922  20.2089  20.2907  20.6875

     occupation numbers 
     1.0000   1.0000   1.0000   1.0000   1.0000   1.0000   1.0000   1.0000
     1.0000   1.0000   1.0000   1.0000   1.0000   1.0000   1.0000   1.0000
     1.0000   1.0000   1.0000   1.0000   1.0000   1.0000   1.0000   1.0000
     1.0000   1.0000   1.0000   1.0000   1.0000   1.0000   1.0000   1.0000
     1.0000   1.0000   1.0000   1.0000   1.0000   1.0000   1.0000  -0.0000
    -0.0000  -0.0000  -0.0000  -0.0000  -0.0000  -0.0000  -0.0000  -0.0000
    -0.0000  -0.0000  -0.0000  -0.0000  -0.0000  -0.0000  -0.0000  -0.0000
    -0.0000  -0.0000  -0.0000  -0.0000  -0.0000  -0.0000

          k = 0.0009 0.0002-0.9336 ( 11906 PWs)   bands (ev):

   -27.8889 -27.8885 -27.8881 -27.8874 -27.8833 -27.8831 -27.8813 -27.8802
   -27.8791 -27.8786 -27.7313 -27.7243 -27.7241 -27.6951 -27.6945 -14.4242
   -14.4225 -14.4128 -14.4124 -14.4110 -14.4108 -14.4074 -14.4060 -14.4055
   -14.4044  -3.4315  -3.0019  -1.8947  -1.1069  -0.5078   4.3657   5.3199
     5.5618   5.9090   6.3094   6.3612   7.4560   7.8493   8.0789   9.5901
    10.1062  10.5361  11.4243  11.7446  12.4249  12.7183  14.0786  15.0338
    16.2220  16.3457  16.6688  16.9078  17.2709  17.8930  18.0939  18.1195
    18.3785  18.6285  19.3452  20.4858  20.7242  20.9011

     occupation numbers 
     1.0000   1.0000   1.0000   1.0000   1.0000   1.0000   1.0000   1.0000
     1.0000   1.0000   1.0000   1.0000   1.0000   1.0000   1.0000   1.0000
     1.0000   1.0000   1.0000   1.0000   1.0000   1.0000   1.0000   1.0000
     1.0000   1.0000   1.0000   1.0000   1.0000   1.0000   1.0000   1.0000
     1.0000   1.0000   1.0000   1.0000   1.0000   1.0000   1.0000  -0.0000
    -0.0000  -0.0000  -0.0000  -0.0000  -0.0000  -0.0000  -0.0000  -0.0000
    -0.0000  -0.0000  -0.0000  -0.0000  -0.0000  -0.0000  -0.0000  -0.0000
    -0.0000  -0.0000  -0.0000  -0.0000  -0.0000  -0.0000

          k = 0.0005 0.0001-0.4668 ( 11897 PWs)   bands (ev):

   -27.8890 -27.8889 -27.8882 -27.8880 -27.8830 -27.8829 -27.8808 -27.8804
   -27.8796 -27.8789 -27.7315 -27.7241 -27.7241 -27.6951 -27.6949 -14.4205
   -14.4192 -14.4165 -14.4154 -14.4101 -14.4092 -14.4084 -14.4082 -14.4077
   -14.4066  -4.0864  -3.5077  -2.2251  -0.3897   0.0993   5.6519   5.7322
     6.3437   6.4481   7.0220   7.4195   7.7529   7.7668   8.1655   9.8938
    10.0152  10.1981  10.7097  10.8005  11.5302  13.0996  13.9142  14.9596
    15.0632  15.5121  15.6292  15.8381  16.3148  17.0391  17.1578  17.6614
    17.9094  18.0253  18.1193  18.7336  18.8269  19.2333

     occupation numbers 
     1.0000   1.0000   1.0000   1.0000   1.0000   1.0000   1.0000   1.0000
     1.0000   1.0000   1.0000   1.0000   1.0000   1.0000   1.0000   1.0000
     1.0000   1.0000   1.0000   1.0000   1.0000   1.0000   1.0000   1.0000
     1.0000   1.0000   1.0000   1.0000   1.0000   1.0000   1.0000   1.0000
     1.0000   1.0000   1.0000   1.0000   1.0000   1.0000   1.0000  -0.0000
    -0.0000  -0.0000  -0.0000  -0.0000  -0.0000  -0.0000  -0.0000  -0.0000
    -0.0000  -0.0000  -0.0000  -0.0000  -0.0000  -0.0000  -0.0000  -0.0000
    -0.0000  -0.0000  -0.0000  -0.0000  -0.0000  -0.0000

          k =-0.0005 0.4102-0.2228 ( 11897 PWs)   bands (ev):

   -27.8890 -27.8889 -27.8882 -27.8880 -27.8830 -27.8829 -27.8808 -27.8804
   -27.8796 -27.8789 -27.7315 -27.7241 -27.7241 -27.6951 -27.6949 -14.4205
   -14.4192 -14.4165 -14.4154 -14.4101 -14.4092 -14.4084 -14.4082 -14.4077
   -14.4066  -4.0864  -3.5077  -2.2251  -0.3897   0.0993   5.6519   5.7322
     6.3437   6.4481   7.0220   7.4195   7.7529   7.7668   8.1655   9.8938
    10.0152  10.1981  10.7097  10.8005  11.5302  13.0996  13.9142  14.9596
    15.0632  15.5121  15.6292  15.8381  16.3148  17.0391  17.1578  17.6614
    17.9094  18.0253  18.1193  18.7336  18.8269  19.2334

     occupation numbers 
     1.0000   1.0000   1.0000   1.0000   1.0000   1.0000   1.0000   1.0000
     1.0000   1.0000   1.0000   1.0000   1.0000   1.0000   1.0000   1.0000
     1.0000   1.0000   1.0000   1.0000   1.0000   1.0000   1.0000   1.0000
     1.0000   1.0000   1.0000   1.0000   1.0000   1.0000   1.0000   1.0000
     1.0000   1.0000   1.0000   1.0000   1.0000   1.0000   1.0000  -0.0000
    -0.0000  -0.0000  -0.0000  -0.0000  -0.0000  -0.0000  -0.0000  -0.0000
    -0.0000  -0.0000  -0.0000  -0.0000  -0.0000  -0.0000  -0.0000  -0.0000
    -0.0000  -0.0000  -0.0000  -0.0000  -0.0000  -0.0000

          k =-0.0009 0.4101 0.2440 ( 11889 PWs)   bands (ev):

   -27.8890 -27.8889 -27.8882 -27.8880 -27.8830 -27.8829 -27.8808 -27.8803
   -27.8796 -27.8789 -27.7315 -27.7241 -27.7241 -27.6951 -27.6949 -14.4205
   -14.4192 -14.4165 -14.4154 -14.4101 -14.4092 -14.4084 -14.4082 -14.4077
   -14.4066  -4.0809  -3.5213  -2.2081  -0.4059   0.1023   5.5702   5.9320
     6.2933   6.4211   7.0952   7.2432   7.7213   7.8026   8.2401   9.7769
     9.9736  10.0702  10.8136  10.9689  11.6444  13.1953  13.8540  14.8450
    14.9031  15.5069  15.8711  16.1278  16.1388  16.7561  16.7946  17.2469
    17.4502  18.2128  18.6476  18.7618  19.4090  19.6882

     occupation numbers 
     1.0000   1.0000   1.0000   1.0000   1.0000   1.0000   1.0000   1.0000
     1.0000   1.0000   1.0000   1.0000   1.0000   1.0000   1.0000   1.0000
     1.0000   1.0000   1.0000   1.0000   1.0000   1.0000   1.0000   1.0000
     1.0000   1.0000   1.0000   1.0000   1.0000   1.0000   1.0000   1.0000
     1.0000   1.0000   1.0000   1.0000   1.0000   1.0000   1.0000  -0.0000
    -0.0000  -0.0000  -0.0000  -0.0000  -0.0000  -0.0000  -0.0000  -0.0000
    -0.0000  -0.0000  -0.0000  -0.0000  -0.0000  -0.0000  -0.0000  -0.0000
    -0.0000  -0.0000  -0.0000  -0.0000  -0.0000  -0.0000

          k =-0.0014 0.4100 0.7108 ( 11897 PWs)   bands (ev):

   -27.8888 -27.8888 -27.8881 -27.8876 -27.8833 -27.8829 -27.8812 -27.8802
   -27.8792 -27.8786 -27.7313 -27.7242 -27.7241 -27.6951 -27.6947 -14.4216
   -14.4206 -14.4139 -14.4137 -14.4110 -14.4108 -14.4082 -14.4076 -14.4059
   -14.4049  -3.6338  -3.1659  -1.9685  -0.8019  -0.4038   4.8843   5.1551
     5.5594   6.0941   6.2169   6.6252   7.6109   8.0763   8.1474   9.7245
    10.0193  10.5090  11.2804  12.0682  12.2619  13.2052  13.2985  14.7633
    15.2949  16.1976  16.3380  16.4819  16.9536  17.1933  17.4085  18.0890
    18.7733  19.1221  19.5785  20.1460  20.4114  20.7852

     occupation numbers 
     1.0000   1.0000   1.0000   1.0000   1.0000   1.0000   1.0000   1.0000
     1.0000   1.0000   1.0000   1.0000   1.0000   1.0000   1.0000   1.0000
     1.0000   1.0000   1.0000   1.0000   1.0000   1.0000   1.0000   1.0000
     1.0000   1.0000   1.0000   1.0000   1.0000   1.0000   1.0000   1.0000
     1.0000   1.0000   1.0000   1.0000   1.0000   1.0000   1.0000  -0.0000
    -0.0000  -0.0000  -0.0000  -0.0000  -0.0000  -0.0000  -0.0000  -0.0000
    -0.0000  -0.0000  -0.0000  -0.0000  -0.0000  -0.0000  -0.0000  -0.0000
    -0.0000  -0.0000  -0.0000  -0.0000  -0.0000  -0.0000

          k = 0.0009 0.4105-1.6231 ( 11914 PWs)   bands (ev):

   -27.8888 -27.8883 -27.8879 -27.8873 -27.8836 -27.8828 -27.8817 -27.8801
   -27.8788 -27.8785 -27.7311 -27.7243 -27.7242 -27.6950 -27.6944 -14.4234
   -14.4219 -14.4138 -14.4124 -14.4118 -14.4108 -14.4074 -14.4065 -14.4038
   -14.4028  -2.8291  -2.6168  -1.8037  -1.4926  -1.1271   4.1445   4.7573
     5.1580   5.3847   6.3149   6.6825   7.1003   7.2233   7.4932  10.5629
    10.7191  10.8095  11.4286  11.8426  12.7327  12.9923  13.6148  14.7384
    16.6607  16.7268  17.1567  17.8063  17.9609  18.1914  18.3216  18.9609
    19.2943  19.3766  19.6734  19.8546  20.4837  21.1823

     occupation numbers 
     1.0000   1.0000   1.0000   1.0000   1.0000   1.0000   1.0000   1.0000
     1.0000   1.0000   1.0000   1.0000   1.0000   1.0000   1.0000   1.0000
     1.0000   1.0000   1.0000   1.0000   1.0000   1.0000   1.0000   1.0000
     1.0000   1.0000   1.0000   1.0000   1.0000   1.0000   1.0000   1.0000
     1.0000   1.0000   1.0000   1.0000   1.0000   1.0000   1.0000  -0.0000
    -0.0000  -0.0000  -0.0000  -0.0000  -0.0000  -0.0000  -0.0000  -0.0000
    -0.0000  -0.0000  -0.0000  -0.0000  -0.0000  -0.0000  -0.0000  -0.0000
    -0.0000  -0.0000  -0.0000  -0.0000  -0.0000  -0.0000

          k = 0.0005 0.4104-1.1563 ( 11920 PWs)   bands (ev):

   -27.8888 -27.8884 -27.8879 -27.8873 -27.8836 -27.8828 -27.8817 -27.8801
   -27.8788 -27.8785 -27.7311 -27.7243 -27.7242 -27.6950 -27.6944 -14.4234
   -14.4219 -14.4138 -14.4124 -14.4118 -14.4108 -14.4074 -14.4065 -14.4038
   -14.4028  -2.8563  -2.5727  -1.8166  -1.5183  -1.1053   4.0521   4.8014
     5.2270   5.7688   6.0918   6.3461   6.8205   7.4828   7.6680  10.3787
    10.5265  11.2161  11.5994  12.0898  12.2573  12.8323  14.0303  14.7465
    16.1547  16.7788  17.1360  17.3351  17.8616  18.0798  18.6637  19.0691
    19.2896  19.7160  19.9862  20.1790  20.5893  21.0015

     occupation numbers 
     1.0000   1.0000   1.0000   1.0000   1.0000   1.0000   1.0000   1.0000
     1.0000   1.0000   1.0000   1.0000   1.0000   1.0000   1.0000   1.0000
     1.0000   1.0000   1.0000   1.0000   1.0000   1.0000   1.0000   1.0000
     1.0000   1.0000   1.0000   1.0000   1.0000   1.0000   1.0000   1.0000
     1.0000   1.0000   1.0000   1.0000   1.0000   1.0000   1.0000  -0.0000
    -0.0000  -0.0000  -0.0000  -0.0000  -0.0000  -0.0000  -0.0000  -0.0000
    -0.0000  -0.0000  -0.0000  -0.0000  -0.0000  -0.0000  -0.0000  -0.0000
    -0.0000  -0.0000  -0.0000  -0.0000  -0.0000  -0.0000

          k =-0.0000 0.4103-0.6896 ( 11899 PWs)   bands (ev):

   -27.8888 -27.8888 -27.8881 -27.8876 -27.8833 -27.8829 -27.8812 -27.8802
   -27.8792 -27.8786 -27.7313 -27.7242 -27.7241 -27.6951 -27.6947 -14.4216
   -14.4206 -14.4139 -14.4137 -14.4110 -14.4108 -14.4082 -14.4076 -14.4059
   -14.4049  -3.6510  -3.1250  -2.0247  -0.7067  -0.4665   4.9791   5.1138
     5.6646   5.8214   6.3120   6.4650   7.9268   7.9809   8.2765   9.5850
    10.1036  10.1656  11.3612  12.2575  12.2899  13.1434  13.2709  15.3337
    15.5740  15.9175  16.0195  16.1985  16.8276  16.9446  17.3846  17.8037
    19.0737  19.5715  19.7031  20.2099  20.4225  20.6272

     occupation numbers 
     1.0000   1.0000   1.0000   1.0000   1.0000   1.0000   1.0000   1.0000
     1.0000   1.0000   1.0000   1.0000   1.0000   1.0000   1.0000   1.0000
     1.0000   1.0000   1.0000   1.0000   1.0000   1.0000   1.0000   1.0000
     1.0000   1.0000   1.0000   1.0000   1.0000   1.0000   1.0000   1.0000
     1.0000   1.0000   1.0000   1.0000   1.0000   1.0000   1.0000  -0.0000
    -0.0000  -0.0000  -0.0000  -0.0000  -0.0000  -0.0000  -0.0000  -0.0000
    -0.0000  -0.0000  -0.0000  -0.0000  -0.0000  -0.0000  -0.0000  -0.0000
    -0.0000  -0.0000  -0.0000  -0.0000  -0.0000  -0.0000

          k =-0.0009 0.8204-0.4456 ( 11906 PWs)   bands (ev):

   -27.8889 -27.8885 -27.8881 -27.8874 -27.8833 -27.8831 -27.8813 -27.8802
   -27.8791 -27.8786 -27.7313 -27.7243 -27.7241 -27.6951 -27.6945 -14.4242
   -14.4225 -14.4128 -14.4124 -14.4110 -14.4108 -14.4074 -14.4060 -14.4055
   -14.4044  -3.4315  -3.0019  -1.8947  -1.1069  -0.5078   4.3657   5.3199
     5.5618   5.9090   6.3094   6.3612   7.4560   7.8493   8.0789   9.5901
    10.1062  10.5361  11.4243  11.7446  12.4249  12.7183  14.0786  15.0338
    16.2220  16.3457  16.6688  16.9078  17.2709  17.8930  18.0939  18.1195
    18.3785  18.6285  19.3452  20.4858  20.7243  20.9011

     occupation numbers 
     1.0000   1.0000   1.0000   1.0000   1.0000   1.0000   1.0000   1.0000
     1.0000   1.0000   1.0000   1.0000   1.0000   1.0000   1.0000   1.0000
     1.0000   1.0000   1.0000   1.0000   1.0000   1.0000   1.0000   1.0000
     1.0000   1.0000   1.0000   1.0000   1.0000   1.0000   1.0000   1.0000
     1.0000   1.0000   1.0000   1.0000   1.0000   1.0000   1.0000  -0.0000
    -0.0000  -0.0000  -0.0000  -0.0000  -0.0000  -0.0000  -0.0000  -0.0000
    -0.0000  -0.0000  -0.0000  -0.0000  -0.0000  -0.0000  -0.0000  -0.0000
    -0.0000  -0.0000  -0.0000  -0.0000  -0.0000  -0.0000

          k =-0.0014 0.8203 0.0212 ( 11897 PWs)   bands (ev):

   -27.8888 -27.8888 -27.8881 -27.8876 -27.8833 -27.8829 -27.8812 -27.8802
   -27.8792 -27.8786 -27.7313 -27.7242 -27.7241 -27.6951 -27.6947 -14.4216
   -14.4206 -14.4139 -14.4137 -14.4110 -14.4108 -14.4082 -14.4076 -14.4059
   -14.4049  -3.6338  -3.1659  -1.9685  -0.8019  -0.4038   4.8843   5.1551
     5.5594   6.0941   6.2169   6.6252   7.6109   8.0763   8.1474   9.7245
    10.0193  10.5090  11.2804  12.0682  12.2619  13.2052  13.2985  14.7633
    15.2949  16.1976  16.3380  16.4819  16.9536  17.1933  17.4085  18.0890
    18.7733  19.1221  19.5786  20.1460  20.4114  20.7854

     occupation numbers 
     1.0000   1.0000   1.0000   1.0000   1.0000   1.0000   1.0000   1.0000
     1.0000   1.0000   1.0000   1.0000   1.0000   1.0000   1.0000   1.0000
     1.0000   1.0000   1.0000   1.0000   1.0000   1.0000   1.0000   1.0000
     1.0000   1.0000   1.0000   1.0000   1.0000   1.0000   1.0000   1.0000
     1.0000   1.0000   1.0000   1.0000   1.0000   1.0000   1.0000  -0.0000
    -0.0000  -0.0000  -0.0000  -0.0000  -0.0000  -0.0000  -0.0000  -0.0000
    -0.0000  -0.0000  -0.0000  -0.0000  -0.0000  -0.0000  -0.0000  -0.0000
    -0.0000  -0.0000  -0.0000  -0.0000  -0.0000  -0.0000

          k =-0.0018 0.8202 0.4880 ( 11884 PWs)   bands (ev):

   -27.8889 -27.8885 -27.8881 -27.8874 -27.8833 -27.8831 -27.8813 -27.8802
   -27.8791 -27.8786 -27.7312 -27.7243 -27.7241 -27.6951 -27.6945 -14.4242
   -14.4225 -14.4128 -14.4124 -14.4110 -14.4108 -14.4074 -14.4060 -14.4055
   -14.4044  -3.4264  -3.0020  -1.9578  -0.9034  -0.6549   4.2073   5.3235
     5.7877   5.9745   6.6164   6.7128   7.1574   7.2728   7.5115  10.1978
    10.6184  11.1051  11.2187  11.3437  12.1841  12.3366  14.3939  15.3624
    15.4298  16.1310  16.2617  17.0122  17.1674  17.6580  17.8822  18.7696
    18.9469  19.2705  19.7341  20.8676  21.0228  21.5228

     occupation numbers 
     1.0000   1.0000   1.0000   1.0000   1.0000   1.0000   1.0000   1.0000
     1.0000   1.0000   1.0000   1.0000   1.0000   1.0000   1.0000   1.0000
     1.0000   1.0000   1.0000   1.0000   1.0000   1.0000   1.0000   1.0000
     1.0000   1.0000   1.0000   1.0000   1.0000   1.0000   1.0000   1.0000
     1.0000   1.0000   1.0000   1.0000   1.0000   1.0000   1.0000  -0.0000
    -0.0000  -0.0000  -0.0000  -0.0000  -0.0000  -0.0000  -0.0000  -0.0000
    -0.0000  -0.0000  -0.0000  -0.0000  -0.0000  -0.0000  -0.0000  -0.0000
    -0.0000  -0.0000  -0.0000  -0.0000  -0.0000  -0.0000

          k = 0.0005 0.8207-1.8459 ( 11912 PWs)   bands (ev):

   -27.8888 -27.8883 -27.8879 -27.8873 -27.8836 -27.8828 -27.8817 -27.8801
   -27.8788 -27.8785 -27.7311 -27.7243 -27.7242 -27.6950 -27.6944 -14.4234
   -14.4219 -14.4139 -14.4124 -14.4118 -14.4108 -14.4074 -14.4065 -14.4038
   -14.4028  -2.8496  -2.5695  -1.8973  -1.3949  -1.1579   4.1823   5.0011
     5.1774   5.4116   5.6709   6.0141   7.4325   8.0386   8.1953   9.7004
     9.9854  10.4099  11.9314  12.3908  12.7988  12.8819  14.5967  15.1894
    15.3956  15.8292  16.8088  17.8304  17.9041  18.2032  18.8852  19.3349
    19.3546  19.7830  20.1366  20.6400  20.7702  21.2290

     occupation numbers 
     1.0000   1.0000   1.0000   1.0000   1.0000   1.0000   1.0000   1.0000
     1.0000   1.0000   1.0000   1.0000   1.0000   1.0000   1.0000   1.0000
     1.0000   1.0000   1.0000   1.0000   1.0000   1.0000   1.0000   1.0000
     1.0000   1.0000   1.0000   1.0000   1.0000   1.0000   1.0000   1.0000
     1.0000   1.0000   1.0000   1.0000   1.0000   1.0000   1.0000  -0.0000
    -0.0000  -0.0000  -0.0000  -0.0000  -0.0000  -0.0000  -0.0000  -0.0000
    -0.0000  -0.0000  -0.0000  -0.0000  -0.0000  -0.0000  -0.0000  -0.0000
    -0.0000  -0.0000  -0.0000  -0.0000  -0.0000  -0.0000

          k =-0.0000 0.8206-1.3791 ( 11913 PWs)   bands (ev):

   -27.8888 -27.8880 -27.8879 -27.8873 -27.8839 -27.8823 -27.8822 -27.8800
   -27.8787 -27.8786 -27.7311 -27.7243 -27.7243 -27.6946 -27.6946 -14.4196
   -14.4195 -14.4174 -14.4139 -14.4095 -14.4091 -14.4089 -14.4084 -14.4037
   -14.4035  -2.1649  -2.1540  -1.8534  -1.8527  -1.7994   4.2552   4.6088
     4.8128   5.1133   5.9419   5.9475   7.1426   7.4628   8.0805   9.9299
    10.7903  10.8159  12.1744  12.3895  12.8220  14.2620  14.7269  14.7366
    15.1082  15.3436  16.6108  16.9193  18.1024  18.1846  18.5314  18.8430
    19.2163  19.9778  20.5322  20.8712  20.9246  22.0688

     occupation numbers 
     1.0000   1.0000   1.0000   1.0000   1.0000   1.0000   1.0000   1.0000
     1.0000   1.0000   1.0000   1.0000   1.0000   1.0000   1.0000   1.0000
     1.0000   1.0000   1.0000   1.0000   1.0000   1.0000   1.0000   1.0000
     1.0000   1.0000   1.0000   1.0000   1.0000   1.0000   1.0000   1.0000
     1.0000   1.0000   1.0000   1.0000   1.0000   1.0000   1.0000  -0.0000
    -0.0000  -0.0000  -0.0000  -0.0000  -0.0000  -0.0000  -0.0000  -0.0000
    -0.0000  -0.0000  -0.0000  -0.0000  -0.0000  -0.0000  -0.0000  -0.0000
    -0.0000  -0.0000  -0.0000  -0.0000  -0.0000  -0.0000

          k =-0.0005 0.8205-0.9123 ( 11920 PWs)   bands (ev):

   -27.8888 -27.8884 -27.8879 -27.8873 -27.8836 -27.8828 -27.8817 -27.8801
   -27.8788 -27.8785 -27.7311 -27.7243 -27.7242 -27.6950 -27.6944 -14.4234
   -14.4219 -14.4138 -14.4124 -14.4118 -14.4108 -14.4074 -14.4065 -14.4038
   -14.4028  -2.8563  -2.5727  -1.8166  -1.5184  -1.1053   4.0521   4.8014
     5.2270   5.7688   6.0918   6.3461   6.8205   7.4828   7.6680  10.3787
    10.5265  11.2161  11.5994  12.0898  12.2573  12.8323  14.0303  14.7465
    16.1547  16.7788  17.1360  17.3351  17.8616  18.0798  18.6637  19.0691
    19.2896  19.7160  19.9862  20.1790  20.5893  21.0015

     occupation numbers 
     1.0000   1.0000   1.0000   1.0000   1.0000   1.0000   1.0000   1.0000
     1.0000   1.0000   1.0000   1.0000   1.0000   1.0000   1.0000   1.0000
     1.0000   1.0000   1.0000   1.0000   1.0000   1.0000   1.0000   1.0000
     1.0000   1.0000   1.0000   1.0000   1.0000   1.0000   1.0000   1.0000
     1.0000   1.0000   1.0000   1.0000   1.0000   1.0000   1.0000  -0.0000
    -0.0000  -0.0000  -0.0000  -0.0000  -0.0000  -0.0000  -0.0000  -0.0000
    -0.0000  -0.0000  -0.0000  -0.0000  -0.0000  -0.0000  -0.0000  -0.0000
    -0.0000  -0.0000  -0.0000  -0.0000  -0.0000  -0.0000

          k = 0.0014-1.2306 0.6683 ( 11896 PWs)   bands (ev):

   -27.8889 -27.8883 -27.8881 -27.8871 -27.8834 -27.8832 -27.8815 -27.8801
   -27.8788 -27.8785 -27.7311 -27.7243 -27.7241 -27.6951 -27.6943 -14.4264
   -14.4245 -14.4140 -14.4121 -14.4120 -14.4096 -14.4054 -14.4047 -14.4036
   -14.4024  -2.6670  -2.6370  -2.1280  -1.3751  -1.0861   3.7925   5.5204
     5.5657   5.7147   5.8149   6.0330   6.6291   7.8423   8.1592   9.3500
     9.9560  11.3493  11.5239  12.2016  12.2137  12.2327  13.6969  16.8863
    17.0843  17.3847  17.5331  17.7634  18.0402  18.1454  18.6536  19.0170
    19.0507  19.1319  19.6921  20.2089  20.2906  20.6584

     occupation numbers 
     1.0000   1.0000   1.0000   1.0000   1.0000   1.0000   1.0000   1.0000
     1.0000   1.0000   1.0000   1.0000   1.0000   1.0000   1.0000   1.0000
     1.0000   1.0000   1.0000   1.0000   1.0000   1.0000   1.0000   1.0000
     1.0000   1.0000   1.0000   1.0000   1.0000   1.0000   1.0000   1.0000
     1.0000   1.0000   1.0000   1.0000   1.0000   1.0000   1.0000  -0.0000
    -0.0000  -0.0000  -0.0000  -0.0000  -0.0000  -0.0000  -0.0000  -0.0000
    -0.0000  -0.0000  -0.0000  -0.0000  -0.0000  -0.0000  -0.0000  -0.0000
    -0.0000  -0.0000  -0.0000  -0.0000  -0.0000  -0.0000

          k = 0.0009-1.2307 1.1351 ( 11914 PWs)   bands (ev):

   -27.8888 -27.8883 -27.8879 -27.8873 -27.8836 -27.8828 -27.8817 -27.8801
   -27.8788 -27.8785 -27.7311 -27.7243 -27.7242 -27.6950 -27.6944 -14.4234
   -14.4219 -14.4138 -14.4124 -14.4118 -14.4108 -14.4074 -14.4065 -14.4038
   -14.4028  -2.8291  -2.6168  -1.8037  -1.4926  -1.1271   4.1445   4.7573
     5.1580   5.3847   6.3149   6.6825   7.1003   7.2233   7.4932  10.5629
    10.7191  10.8095  11.4286  11.8426  12.7327  12.9923  13.6148  14.7384
    16.6607  16.7268  17.1567  17.8063  17.9609  18.1914  18.3216  18.9609
    19.2943  19.3766  19.6734  19.8546  20.4837  21.1823

     occupation numbers 
     1.0000   1.0000   1.0000   1.0000   1.0000   1.0000   1.0000   1.0000
     1.0000   1.0000   1.0000   1.0000   1.0000   1.0000   1.0000   1.0000
     1.0000   1.0000   1.0000   1.0000   1.0000   1.0000   1.0000   1.0000
     1.0000   1.0000   1.0000   1.0000   1.0000   1.0000   1.0000   1.0000
     1.0000   1.0000   1.0000   1.0000   1.0000   1.0000   1.0000  -0.0000
    -0.0000  -0.0000  -0.0000  -0.0000  -0.0000  -0.0000  -0.0000  -0.0000
    -0.0000  -0.0000  -0.0000  -0.0000  -0.0000  -0.0000  -0.0000  -0.0000
    -0.0000  -0.0000  -0.0000  -0.0000  -0.0000  -0.0000

          k = 0.0005-1.2308 1.6019 ( 11912 PWs)   bands (ev):

   -27.8888 -27.8883 -27.8879 -27.8873 -27.8836 -27.8828 -27.8817 -27.8801
   -27.8788 -27.8785 -27.7311 -27.7243 -27.7242 -27.6950 -27.6944 -14.4234
   -14.4219 -14.4139 -14.4124 -14.4118 -14.4108 -14.4074 -14.4065 -14.4038
   -14.4028  -2.8496  -2.5695  -1.8973  -1.3949  -1.1579   4.1823   5.0011
     5.1774   5.4116   5.6709   6.0141   7.4325   8.0386   8.1953   9.7004
     9.9854  10.4099  11.9314  12.3908  12.7988  12.8819  14.5967  15.1894
    15.3956  15.8292  16.8088  17.8304  17.9041  18.2032  18.8852  19.3349
    19.3546  19.7830  20.1366  20.6400  20.7702  21.2271

     occupation numbers 
     1.0000   1.0000   1.0000   1.0000   1.0000   1.0000   1.0000   1.0000
     1.0000   1.0000   1.0000   1.0000   1.0000   1.0000   1.0000   1.0000
     1.0000   1.0000   1.0000   1.0000   1.0000   1.0000   1.0000   1.0000
     1.0000   1.0000   1.0000   1.0000   1.0000   1.0000   1.0000   1.0000
     1.0000   1.0000   1.0000   1.0000   1.0000   1.0000   1.0000  -0.0000
    -0.0000  -0.0000  -0.0000  -0.0000  -0.0000  -0.0000  -0.0000  -0.0000
    -0.0000  -0.0000  -0.0000  -0.0000  -0.0000  -0.0000  -0.0000  -0.0000
    -0.0000  -0.0000  -0.0000  -0.0000  -0.0000  -0.0000

          k = 0.0027-1.2303-0.7320 ( 11906 PWs)   bands (ev):

   -27.8889 -27.8883 -27.8881 -27.8871 -27.8834 -27.8832 -27.8815 -27.8801
   -27.8788 -27.8785 -27.7311 -27.7244 -27.7241 -27.6951 -27.6943 -14.4263
   -14.4245 -14.4140 -14.4121 -14.4120 -14.4096 -14.4054 -14.4047 -14.4036
   -14.4024  -2.6693  -2.6502  -2.0183  -1.6127  -0.9343   4.1072   4.7041
     5.1372   5.5492   6.4220   6.9146   6.9606   7.3921   7.7703   9.7732
    10.1482  10.7218  11.3326  11.5102  12.0755  13.5088  14.4772  14.8484
    17.1927  17.2633  17.8545  17.9290  18.2115  18.2817  19.1588  19.2680
    19.3714  19.5180  19.6419  19.7859  20.3313  20.8152

     occupation numbers 
     1.0000   1.0000   1.0000   1.0000   1.0000   1.0000   1.0000   1.0000
     1.0000   1.0000   1.0000   1.0000   1.0000   1.0000   1.0000   1.0000
     1.0000   1.0000   1.0000   1.0000   1.0000   1.0000   1.0000   1.0000
     1.0000   1.0000   1.0000   1.0000   1.0000   1.0000   1.0000   1.0000
     1.0000   1.0000   1.0000   1.0000   1.0000   1.0000   1.0000  -0.0000
    -0.0000  -0.0000  -0.0000  -0.0000  -0.0000  -0.0000  -0.0000  -0.0000
    -0.0000  -0.0000  -0.0000  -0.0000  -0.0000  -0.0000  -0.0000  -0.0000
    -0.0000  -0.0000  -0.0000  -0.0000  -0.0000  -0.0000

          k = 0.0023-1.2304-0.2652 ( 11912 PWs)   bands (ev):

   -27.8888 -27.8883 -27.8879 -27.8873 -27.8836 -27.8828 -27.8817 -27.8801
   -27.8788 -27.8785 -27.7311 -27.7243 -27.7242 -27.6950 -27.6944 -14.4234
   -14.4219 -14.4139 -14.4124 -14.4118 -14.4108 -14.4074 -14.4065 -14.4038
   -14.4028  -2.8496  -2.5695  -1.8973  -1.3949  -1.1579   4.1823   5.0011
     5.1774   5.4116   5.6709   6.0141   7.4325   8.0386   8.1953   9.7004
     9.9854  10.4099  11.9314  12.3908  12.7988  12.8819  14.5967  15.1894
    15.3956  15.8292  16.8088  17.8304  17.9041  18.2032  18.8852  19.3349
    19.3546  19.7830  20.1366  20.6400  20.7702  21.2290

     occupation numbers 
     1.0000   1.0000   1.0000   1.0000   1.0000   1.0000   1.0000   1.0000
     1.0000   1.0000   1.0000   1.0000   1.0000   1.0000   1.0000   1.0000
     1.0000   1.0000   1.0000   1.0000   1.0000   1.0000   1.0000   1.0000
     1.0000   1.0000   1.0000   1.0000   1.0000   1.0000   1.0000   1.0000
     1.0000   1.0000   1.0000   1.0000   1.0000   1.0000   1.0000  -0.0000
    -0.0000  -0.0000  -0.0000  -0.0000  -0.0000  -0.0000  -0.0000  -0.0000
    -0.0000  -0.0000  -0.0000  -0.0000  -0.0000  -0.0000  -0.0000  -0.0000
    -0.0000  -0.0000  -0.0000  -0.0000  -0.0000  -0.0000

          k = 0.0018-1.2305 0.2016 ( 11914 PWs)   bands (ev):

   -27.8888 -27.8883 -27.8879 -27.8873 -27.8836 -27.8828 -27.8817 -27.8801
   -27.8788 -27.8785 -27.7311 -27.7243 -27.7242 -27.6950 -27.6944 -14.4234
   -14.4219 -14.4138 -14.4124 -14.4118 -14.4108 -14.4074 -14.4065 -14.4038
   -14.4028  -2.8291  -2.6168  -1.8037  -1.4926  -1.1271   4.1445   4.7573
     5.1580   5.3847   6.3149   6.6825   7.1003   7.2233   7.4932  10.5629
    10.7191  10.8095  11.4286  11.8426  12.7327  12.9923  13.6148  14.7384
    16.6607  16.7268  17.1567  17.8063  17.9609  18.1914  18.3216  18.9609
    19.2943  19.3766  19.6734  19.8546  20.4837  21.1823

     occupation numbers 
     1.0000   1.0000   1.0000   1.0000   1.0000   1.0000   1.0000   1.0000
     1.0000   1.0000   1.0000   1.0000   1.0000   1.0000   1.0000   1.0000
     1.0000   1.0000   1.0000   1.0000   1.0000   1.0000   1.0000   1.0000
     1.0000   1.0000   1.0000   1.0000   1.0000   1.0000   1.0000   1.0000
     1.0000   1.0000   1.0000   1.0000   1.0000   1.0000   1.0000  -0.0000
    -0.0000  -0.0000  -0.0000  -0.0000  -0.0000  -0.0000  -0.0000  -0.0000
    -0.0000  -0.0000  -0.0000  -0.0000  -0.0000  -0.0000  -0.0000  -0.0000
    -0.0000  -0.0000  -0.0000  -0.0000  -0.0000  -0.0000

          k = 0.0009-0.8204 0.4456 ( 11906 PWs)   bands (ev):

   -27.8889 -27.8885 -27.8881 -27.8874 -27.8833 -27.8831 -27.8813 -27.8802
   -27.8791 -27.8786 -27.7313 -27.7243 -27.7241 -27.6951 -27.6945 -14.4242
   -14.4225 -14.4128 -14.4124 -14.4110 -14.4108 -14.4074 -14.4060 -14.4055
   -14.4044  -3.4315  -3.0019  -1.8947  -1.1069  -0.5078   4.3657   5.3199
     5.5618   5.9090   6.3094   6.3612   7.4560   7.8493   8.0789   9.5901
    10.1062  10.5361  11.4243  11.7446  12.4249  12.7183  14.0786  15.0338
    16.2220  16.3457  16.6688  16.9078  17.2709  17.8930  18.0939  18.1195
    18.3785  18.6285  19.3452  20.4858  20.7242  20.9011

     occupation numbers 
     1.0000   1.0000   1.0000   1.0000   1.0000   1.0000   1.0000   1.0000
     1.0000   1.0000   1.0000   1.0000   1.0000   1.0000   1.0000   1.0000
     1.0000   1.0000   1.0000   1.0000   1.0000   1.0000   1.0000   1.0000
     1.0000   1.0000   1.0000   1.0000   1.0000   1.0000   1.0000   1.0000
     1.0000   1.0000   1.0000   1.0000   1.0000   1.0000   1.0000  -0.0000
    -0.0000  -0.0000  -0.0000  -0.0000  -0.0000  -0.0000  -0.0000  -0.0000
    -0.0000  -0.0000  -0.0000  -0.0000  -0.0000  -0.0000  -0.0000  -0.0000
    -0.0000  -0.0000  -0.0000  -0.0000  -0.0000  -0.0000

          k = 0.0005-0.8205 0.9123 ( 11920 PWs)   bands (ev):

   -27.8888 -27.8884 -27.8879 -27.8873 -27.8836 -27.8828 -27.8817 -27.8801
   -27.8788 -27.8785 -27.7311 -27.7243 -27.7242 -27.6950 -27.6944 -14.4234
   -14.4219 -14.4138 -14.4124 -14.4118 -14.4108 -14.4074 -14.4065 -14.4038
   -14.4028  -2.8563  -2.5727  -1.8166  -1.5184  -1.1053   4.0521   4.8014
     5.2270   5.7688   6.0918   6.3461   6.8205   7.4828   7.6680  10.3787
    10.5265  11.2161  11.5994  12.0898  12.2573  12.8323  14.0303  14.7465
    16.1547  16.7788  17.1360  17.3351  17.8616  18.0798  18.6637  19.0691
    19.2896  19.7160  19.9862  20.1790  20.5893  21.0015

     occupation numbers 
     1.0000   1.0000   1.0000   1.0000   1.0000   1.0000   1.0000   1.0000
     1.0000   1.0000   1.0000   1.0000   1.0000   1.0000   1.0000   1.0000
     1.0000   1.0000   1.0000   1.0000   1.0000   1.0000   1.0000   1.0000
     1.0000   1.0000   1.0000   1.0000   1.0000   1.0000   1.0000   1.0000
     1.0000   1.0000   1.0000   1.0000   1.0000   1.0000   1.0000  -0.0000
    -0.0000  -0.0000  -0.0000  -0.0000  -0.0000  -0.0000  -0.0000  -0.0000
    -0.0000  -0.0000  -0.0000  -0.0000  -0.0000  -0.0000  -0.0000  -0.0000
    -0.0000  -0.0000  -0.0000  -0.0000  -0.0000  -0.0000

          k = 0.0000-0.8206 1.3791 ( 11913 PWs)   bands (ev):

   -27.8888 -27.8880 -27.8879 -27.8873 -27.8839 -27.8823 -27.8822 -27.8800
   -27.8787 -27.8786 -27.7311 -27.7243 -27.7243 -27.6946 -27.6946 -14.4196
   -14.4195 -14.4174 -14.4139 -14.4095 -14.4091 -14.4089 -14.4084 -14.4037
   -14.4035  -2.1649  -2.1540  -1.8534  -1.8527  -1.7994   4.2552   4.6088
     4.8128   5.1133   5.9419   5.9475   7.1426   7.4628   8.0805   9.9299
    10.7903  10.8159  12.1744  12.3895  12.8220  14.2620  14.7269  14.7366
    15.1082  15.3436  16.6108  16.9193  18.1024  18.1846  18.5314  18.8430
    19.2163  19.9778  20.5322  20.8712  20.9246  22.0688

     occupation numbers 
     1.0000   1.0000   1.0000   1.0000   1.0000   1.0000   1.0000   1.0000
     1.0000   1.0000   1.0000   1.0000   1.0000   1.0000   1.0000   1.0000
     1.0000   1.0000   1.0000   1.0000   1.0000   1.0000   1.0000   1.0000
     1.0000   1.0000   1.0000   1.0000   1.0000   1.0000   1.0000   1.0000
     1.0000   1.0000   1.0000   1.0000   1.0000   1.0000   1.0000  -0.0000
    -0.0000  -0.0000  -0.0000  -0.0000  -0.0000  -0.0000  -0.0000  -0.0000
    -0.0000  -0.0000  -0.0000  -0.0000  -0.0000  -0.0000  -0.0000  -0.0000
    -0.0000  -0.0000  -0.0000  -0.0000  -0.0000  -0.0000

          k = 0.0023-0.8201-0.9548 ( 11912 PWs)   bands (ev):

   -27.8888 -27.8883 -27.8879 -27.8873 -27.8836 -27.8828 -27.8817 -27.8801
   -27.8788 -27.8785 -27.7311 -27.7243 -27.7242 -27.6950 -27.6944 -14.4234
   -14.4219 -14.4139 -14.4124 -14.4118 -14.4108 -14.4074 -14.4065 -14.4038
   -14.4028  -2.8496  -2.5695  -1.8973  -1.3949  -1.1579   4.1823   5.0011
     5.1774   5.4116   5.6709   6.0141   7.4325   8.0386   8.1953   9.7004
     9.9854  10.4099  11.9314  12.3908  12.7988  12.8819  14.5967  15.1894
    15.3956  15.8292  16.8088  17.8304  17.9041  18.2032  18.8852  19.3349
    19.3546  19.7830  20.1366  20.6400  20.7702  21.2285

     occupation numbers 
     1.0000   1.0000   1.0000   1.0000   1.0000   1.0000   1.0000   1.0000
     1.0000   1.0000   1.0000   1.0000   1.0000   1.0000   1.0000   1.0000
     1.0000   1.0000   1.0000   1.0000   1.0000   1.0000   1.0000   1.0000
     1.0000   1.0000   1.0000   1.0000   1.0000   1.0000   1.0000   1.0000
     1.0000   1.0000   1.0000   1.0000   1.0000   1.0000   1.0000  -0.0000
    -0.0000  -0.0000  -0.0000  -0.0000  -0.0000  -0.0000  -0.0000  -0.0000
    -0.0000  -0.0000  -0.0000  -0.0000  -0.0000  -0.0000  -0.0000  -0.0000
    -0.0000  -0.0000  -0.0000  -0.0000  -0.0000  -0.0000

          k = 0.0018-0.8202-0.4880 ( 11884 PWs)   bands (ev):

   -27.8889 -27.8885 -27.8881 -27.8874 -27.8833 -27.8831 -27.8813 -27.8802
   -27.8791 -27.8786 -27.7312 -27.7243 -27.7241 -27.6951 -27.6945 -14.4242
   -14.4225 -14.4128 -14.4124 -14.4110 -14.4108 -14.4074 -14.4060 -14.4055
   -14.4044  -3.4264  -3.0020  -1.9578  -0.9034  -0.6549   4.2073   5.3235
     5.7877   5.9745   6.6164   6.7128   7.1574   7.2728   7.5115  10.1978
    10.6184  11.1051  11.2187  11.3437  12.1841  12.3366  14.3939  15.3624
    15.4298  16.1310  16.2617  17.0122  17.1674  17.6580  17.8822  18.7696
    18.9469  19.2705  19.7341  20.8676  21.0228  21.5228

     occupation numbers 
     1.0000   1.0000   1.0000   1.0000   1.0000   1.0000   1.0000   1.0000
     1.0000   1.0000   1.0000   1.0000   1.0000   1.0000   1.0000   1.0000
     1.0000   1.0000   1.0000   1.0000   1.0000   1.0000   1.0000   1.0000
     1.0000   1.0000   1.0000   1.0000   1.0000   1.0000   1.0000   1.0000
     1.0000   1.0000   1.0000   1.0000   1.0000   1.0000   1.0000  -0.0000
    -0.0000  -0.0000  -0.0000  -0.0000  -0.0000  -0.0000  -0.0000  -0.0000
    -0.0000  -0.0000  -0.0000  -0.0000  -0.0000  -0.0000  -0.0000  -0.0000
    -0.0000  -0.0000  -0.0000  -0.0000  -0.0000  -0.0000

          k = 0.0014-0.8203-0.0212 ( 11897 PWs)   bands (ev):

   -27.8888 -27.8888 -27.8881 -27.8876 -27.8833 -27.8829 -27.8812 -27.8802
   -27.8792 -27.8786 -27.7313 -27.7242 -27.7241 -27.6951 -27.6947 -14.4216
   -14.4206 -14.4139 -14.4137 -14.4110 -14.4108 -14.4082 -14.4076 -14.4059
   -14.4049  -3.6338  -3.1659  -1.9685  -0.8019  -0.4038   4.8843   5.1551
     5.5594   6.0941   6.2169   6.6252   7.6109   8.0763   8.1474   9.7245
    10.0193  10.5090  11.2804  12.0682  12.2619  13.2052  13.2985  14.7633
    15.2949  16.1976  16.3380  16.4819  16.9536  17.1933  17.4085  18.0890
    18.7733  19.1221  19.5786  20.1460  20.4114  20.7853

     occupation numbers 
     1.0000   1.0000   1.0000   1.0000   1.0000   1.0000   1.0000   1.0000
     1.0000   1.0000   1.0000   1.0000   1.0000   1.0000   1.0000   1.0000
     1.0000   1.0000   1.0000   1.0000   1.0000   1.0000   1.0000   1.0000
     1.0000   1.0000   1.0000   1.0000   1.0000   1.0000   1.0000   1.0000
     1.0000   1.0000   1.0000   1.0000   1.0000   1.0000   1.0000  -0.0000
    -0.0000  -0.0000  -0.0000  -0.0000  -0.0000  -0.0000  -0.0000  -0.0000
    -0.0000  -0.0000  -0.0000  -0.0000  -0.0000  -0.0000  -0.0000  -0.0000
    -0.0000  -0.0000  -0.0000  -0.0000  -0.0000  -0.0000

          k = 0.0005-0.4102 0.2228 ( 11897 PWs)   bands (ev):

   -27.8890 -27.8889 -27.8882 -27.8880 -27.8830 -27.8829 -27.8808 -27.8804
   -27.8796 -27.8789 -27.7315 -27.7241 -27.7241 -27.6951 -27.6949 -14.4205
   -14.4192 -14.4165 -14.4154 -14.4101 -14.4092 -14.4084 -14.4082 -14.4077
   -14.4066  -4.0864  -3.5077  -2.2251  -0.3897   0.0993   5.6519   5.7322
     6.3437   6.4481   7.0220   7.4195   7.7529   7.7668   8.1655   9.8938
    10.0152  10.1981  10.7097  10.8005  11.5302  13.0996  13.9142  14.9596
    15.0632  15.5121  15.6292  15.8381  16.3148  17.0391  17.1578  17.6614
    17.9094  18.0253  18.1193  18.7336  18.8269  19.2334

     occupation numbers 
     1.0000   1.0000   1.0000   1.0000   1.0000   1.0000   1.0000   1.0000
     1.0000   1.0000   1.0000   1.0000   1.0000   1.0000   1.0000   1.0000
     1.0000   1.0000   1.0000   1.0000   1.0000   1.0000   1.0000   1.0000
     1.0000   1.0000   1.0000   1.0000   1.0000   1.0000   1.0000   1.0000
     1.0000   1.0000   1.0000   1.0000   1.0000   1.0000   1.0000  -0.0000
    -0.0000  -0.0000  -0.0000  -0.0000  -0.0000  -0.0000  -0.0000  -0.0000
    -0.0000  -0.0000  -0.0000  -0.0000  -0.0000  -0.0000  -0.0000  -0.0000
    -0.0000  -0.0000  -0.0000  -0.0000  -0.0000  -0.0000

          k = 0.0000-0.4103 0.6896 ( 11899 PWs)   bands (ev):

   -27.8888 -27.8888 -27.8881 -27.8876 -27.8833 -27.8829 -27.8812 -27.8802
   -27.8792 -27.8786 -27.7313 -27.7242 -27.7241 -27.6951 -27.6947 -14.4216
   -14.4206 -14.4139 -14.4137 -14.4110 -14.4108 -14.4082 -14.4076 -14.4059
   -14.4049  -3.6510  -3.1250  -2.0247  -0.7067  -0.4665   4.9791   5.1138
     5.6646   5.8214   6.3120   6.4650   7.9268   7.9809   8.2765   9.5850
    10.1036  10.1656  11.3612  12.2575  12.2899  13.1434  13.2709  15.3337
    15.5740  15.9175  16.0195  16.1985  16.8276  16.9446  17.3846  17.8037
    19.0737  19.5715  19.7031  20.2099  20.4225  20.6273

     occupation numbers 
     1.0000   1.0000   1.0000   1.0000   1.0000   1.0000   1.0000   1.0000
     1.0000   1.0000   1.0000   1.0000   1.0000   1.0000   1.0000   1.0000
     1.0000   1.0000   1.0000   1.0000   1.0000   1.0000   1.0000   1.0000
     1.0000   1.0000   1.0000   1.0000   1.0000   1.0000   1.0000   1.0000
     1.0000   1.0000   1.0000   1.0000   1.0000   1.0000   1.0000  -0.0000
    -0.0000  -0.0000  -0.0000  -0.0000  -0.0000  -0.0000  -0.0000  -0.0000
    -0.0000  -0.0000  -0.0000  -0.0000  -0.0000  -0.0000  -0.0000  -0.0000
    -0.0000  -0.0000  -0.0000  -0.0000  -0.0000  -0.0000

          k =-0.0005-0.4104 1.1563 ( 11920 PWs)   bands (ev):

   -27.8888 -27.8884 -27.8879 -27.8873 -27.8836 -27.8828 -27.8817 -27.8801
   -27.8788 -27.8785 -27.7311 -27.7243 -27.7242 -27.6950 -27.6944 -14.4234
   -14.4219 -14.4138 -14.4124 -14.4118 -14.4108 -14.4074 -14.4065 -14.4038
   -14.4028  -2.8563  -2.5727  -1.8166  -1.5183  -1.1053   4.0521   4.8014
     5.2270   5.7688   6.0918   6.3461   6.8205   7.4828   7.6680  10.3787
    10.5265  11.2161  11.5994  12.0898  12.2573  12.8323  14.0303  14.7465
    16.1547  16.7788  17.1360  17.3351  17.8616  18.0798  18.6637  19.0691
    19.2896  19.7160  19.9862  20.1790  20.5893  21.0015

     occupation numbers 
     1.0000   1.0000   1.0000   1.0000   1.0000   1.0000   1.0000   1.0000
     1.0000   1.0000   1.0000   1.0000   1.0000   1.0000   1.0000   1.0000
     1.0000   1.0000   1.0000   1.0000   1.0000   1.0000   1.0000   1.0000
     1.0000   1.0000   1.0000   1.0000   1.0000   1.0000   1.0000   1.0000
     1.0000   1.0000   1.0000   1.0000   1.0000   1.0000   1.0000  -0.0000
    -0.0000  -0.0000  -0.0000  -0.0000  -0.0000  -0.0000  -0.0000  -0.0000
    -0.0000  -0.0000  -0.0000  -0.0000  -0.0000  -0.0000  -0.0000  -0.0000
    -0.0000  -0.0000  -0.0000  -0.0000  -0.0000  -0.0000

          k = 0.0018-0.4099-1.1776 ( 11914 PWs)   bands (ev):

   -27.8888 -27.8883 -27.8879 -27.8873 -27.8836 -27.8828 -27.8817 -27.8801
   -27.8788 -27.8785 -27.7311 -27.7243 -27.7242 -27.6950 -27.6944 -14.4234
   -14.4219 -14.4138 -14.4124 -14.4118 -14.4108 -14.4074 -14.4065 -14.4038
   -14.4028  -2.8291  -2.6168  -1.8037  -1.4926  -1.1271   4.1445   4.7573
     5.1580   5.3847   6.3149   6.6825   7.1003   7.2233   7.4932  10.5629
    10.7191  10.8095  11.4286  11.8426  12.7327  12.9923  13.6148  14.7384
    16.6607  16.7268  17.1567  17.8063  17.9609  18.1914  18.3216  18.9609
    19.2943  19.3766  19.6734  19.8546  20.4837  21.1827

     occupation numbers 
     1.0000   1.0000   1.0000   1.0000   1.0000   1.0000   1.0000   1.0000
     1.0000   1.0000   1.0000   1.0000   1.0000   1.0000   1.0000   1.0000
     1.0000   1.0000   1.0000   1.0000   1.0000   1.0000   1.0000   1.0000
     1.0000   1.0000   1.0000   1.0000   1.0000   1.0000   1.0000   1.0000
     1.0000   1.0000   1.0000   1.0000   1.0000   1.0000   1.0000  -0.0000
    -0.0000  -0.0000  -0.0000  -0.0000  -0.0000  -0.0000  -0.0000  -0.0000
    -0.0000  -0.0000  -0.0000  -0.0000  -0.0000  -0.0000  -0.0000  -0.0000
    -0.0000  -0.0000  -0.0000  -0.0000  -0.0000  -0.0000

          k = 0.0014-0.4100-0.7108 ( 11897 PWs)   bands (ev):

   -27.8888 -27.8888 -27.8881 -27.8876 -27.8833 -27.8829 -27.8812 -27.8802
   -27.8792 -27.8786 -27.7313 -27.7242 -27.7241 -27.6951 -27.6947 -14.4216
   -14.4206 -14.4139 -14.4137 -14.4110 -14.4108 -14.4082 -14.4076 -14.4059
   -14.4049  -3.6338  -3.1659  -1.9685  -0.8019  -0.4038   4.8843   5.1551
     5.5594   6.0941   6.2169   6.6252   7.6109   8.0763   8.1474   9.7245
    10.0193  10.5090  11.2804  12.0682  12.2619  13.2052  13.2985  14.7633
    15.2949  16.1976  16.3380  16.4819  16.9536  17.1933  17.4085  18.0890
    18.7733  19.1221  19.5786  20.1460  20.4114  20.7856

     occupation numbers 
     1.0000   1.0000   1.0000   1.0000   1.0000   1.0000   1.0000   1.0000
     1.0000   1.0000   1.0000   1.0000   1.0000   1.0000   1.0000   1.0000
     1.0000   1.0000   1.0000   1.0000   1.0000   1.0000   1.0000   1.0000
     1.0000   1.0000   1.0000   1.0000   1.0000   1.0000   1.0000   1.0000
     1.0000   1.0000   1.0000   1.0000   1.0000   1.0000   1.0000  -0.0000
    -0.0000  -0.0000  -0.0000  -0.0000  -0.0000  -0.0000  -0.0000  -0.0000
    -0.0000  -0.0000  -0.0000  -0.0000  -0.0000  -0.0000  -0.0000  -0.0000
    -0.0000  -0.0000  -0.0000  -0.0000  -0.0000  -0.0000

          k = 0.0009-0.4101-0.2440 ( 11889 PWs)   bands (ev):

   -27.8890 -27.8889 -27.8882 -27.8880 -27.8830 -27.8829 -27.8808 -27.8803
   -27.8796 -27.8789 -27.7315 -27.7241 -27.7241 -27.6951 -27.6949 -14.4205
   -14.4192 -14.4165 -14.4154 -14.4101 -14.4092 -14.4084 -14.4082 -14.4077
   -14.4066  -4.0809  -3.5213  -2.2081  -0.4059   0.1023   5.5702   5.9320
     6.2933   6.4211   7.0952   7.2432   7.7213   7.8026   8.2401   9.7769
     9.9736  10.0702  10.8136  10.9689  11.6444  13.1953  13.8540  14.8450
    14.9031  15.5069  15.8711  16.1278  16.1388  16.7561  16.7946  17.2469
    17.4502  18.2128  18.6476  18.7618  19.4090  19.6882

     occupation numbers 
     1.0000   1.0000   1.0000   1.0000   1.0000   1.0000   1.0000   1.0000
     1.0000   1.0000   1.0000   1.0000   1.0000   1.0000   1.0000   1.0000
     1.0000   1.0000   1.0000   1.0000   1.0000   1.0000   1.0000   1.0000
     1.0000   1.0000   1.0000   1.0000   1.0000   1.0000   1.0000   1.0000
     1.0000   1.0000   1.0000   1.0000   1.0000   1.0000   1.0000  -0.0000
    -0.0000  -0.0000  -0.0000  -0.0000  -0.0000  -0.0000  -0.0000  -0.0000
    -0.0000  -0.0000  -0.0000  -0.0000  -0.0000  -0.0000  -0.0000  -0.0000
    -0.0000  -0.0000  -0.0000  -0.0000  -0.0000  -0.0000

          k = 0.1675-0.3744-0.2228 ( 11897 PWs)   bands (ev):

   -27.8890 -27.8889 -27.8882 -27.8880 -27.8830 -27.8829 -27.8808 -27.8804
   -27.8796 -27.8789 -27.7315 -27.7241 -27.7241 -27.6951 -27.6949 -14.4205
   -14.4192 -14.4165 -14.4154 -14.4101 -14.4092 -14.4084 -14.4082 -14.4077
   -14.4066  -4.0864  -3.5077  -2.2251  -0.3897   0.0993   5.6519   5.7322
     6.3437   6.4481   7.0220   7.4195   7.7529   7.7667   8.1655   9.8938
    10.0152  10.1981  10.7097  10.8005  11.5302  13.0996  13.9142  14.9596
    15.0632  15.5121  15.6292  15.8381  16.3148  17.0391  17.1578  17.6614
    17.9094  18.0253  18.1193  18.7336  18.8269  19.2334

     occupation numbers 
     1.0000   1.0000   1.0000   1.0000   1.0000   1.0000   1.0000   1.0000
     1.0000   1.0000   1.0000   1.0000   1.0000   1.0000   1.0000   1.0000
     1.0000   1.0000   1.0000   1.0000   1.0000   1.0000   1.0000   1.0000
     1.0000   1.0000   1.0000   1.0000   1.0000   1.0000   1.0000   1.0000
     1.0000   1.0000   1.0000   1.0000   1.0000   1.0000   1.0000  -0.0000
    -0.0000  -0.0000  -0.0000  -0.0000  -0.0000  -0.0000  -0.0000  -0.0000
    -0.0000  -0.0000  -0.0000  -0.0000  -0.0000  -0.0000  -0.0000  -0.0000
    -0.0000  -0.0000  -0.0000  -0.0000  -0.0000  -0.0000

          k = 0.1670-0.3745 0.2440 ( 11889 PWs)   bands (ev):

   -27.8890 -27.8889 -27.8882 -27.8880 -27.8830 -27.8829 -27.8808 -27.8803
   -27.8796 -27.8789 -27.7315 -27.7241 -27.7241 -27.6951 -27.6949 -14.4205
   -14.4192 -14.4165 -14.4154 -14.4101 -14.4092 -14.4084 -14.4082 -14.4077
   -14.4066  -4.0809  -3.5213  -2.2081  -0.4059   0.1023   5.5702   5.9320
     6.2933   6.4211   7.0952   7.2432   7.7213   7.8026   8.2401   9.7769
     9.9736  10.0702  10.8136  10.9689  11.6444  13.1953  13.8540  14.8450
    14.9031  15.5069  15.8711  16.1278  16.1388  16.7561  16.7946  17.2469
    17.4502  18.2128  18.6476  18.7618  19.4090  19.6882

     occupation numbers 
     1.0000   1.0000   1.0000   1.0000   1.0000   1.0000   1.0000   1.0000
     1.0000   1.0000   1.0000   1.0000   1.0000   1.0000   1.0000   1.0000
     1.0000   1.0000   1.0000   1.0000   1.0000   1.0000   1.0000   1.0000
     1.0000   1.0000   1.0000   1.0000   1.0000   1.0000   1.0000   1.0000
     1.0000   1.0000   1.0000   1.0000   1.0000   1.0000   1.0000  -0.0000
    -0.0000  -0.0000  -0.0000  -0.0000  -0.0000  -0.0000  -0.0000  -0.0000
    -0.0000  -0.0000  -0.0000  -0.0000  -0.0000  -0.0000  -0.0000  -0.0000
    -0.0000  -0.0000  -0.0000  -0.0000  -0.0000  -0.0000

          k = 0.1666-0.3746 0.7108 ( 11897 PWs)   bands (ev):

   -27.8888 -27.8888 -27.8881 -27.8876 -27.8833 -27.8829 -27.8812 -27.8802
   -27.8792 -27.8786 -27.7313 -27.7242 -27.7241 -27.6951 -27.6947 -14.4216
   -14.4206 -14.4139 -14.4137 -14.4110 -14.4108 -14.4082 -14.4076 -14.4059
   -14.4049  -3.6338  -3.1659  -1.9685  -0.8019  -0.4038   4.8843   5.1551
     5.5594   6.0941   6.2169   6.6252   7.6109   8.0763   8.1474   9.7245
    10.0193  10.5090  11.2804  12.0682  12.2619  13.2052  13.2985  14.7633
    15.2949  16.1976  16.3380  16.4819  16.9536  17.1933  17.4085  18.0890
    18.7733  19.1221  19.5785  20.1460  20.4114  20.7852

     occupation numbers 
     1.0000   1.0000   1.0000   1.0000   1.0000   1.0000   1.0000   1.0000
     1.0000   1.0000   1.0000   1.0000   1.0000   1.0000   1.0000   1.0000
     1.0000   1.0000   1.0000   1.0000   1.0000   1.0000   1.0000   1.0000
     1.0000   1.0000   1.0000   1.0000   1.0000   1.0000   1.0000   1.0000
     1.0000   1.0000   1.0000   1.0000   1.0000   1.0000   1.0000  -0.0000
    -0.0000  -0.0000  -0.0000  -0.0000  -0.0000  -0.0000  -0.0000  -0.0000
    -0.0000  -0.0000  -0.0000  -0.0000  -0.0000  -0.0000  -0.0000  -0.0000
    -0.0000  -0.0000  -0.0000  -0.0000  -0.0000  -0.0000

          k = 0.1689-0.3741-1.6231 ( 11914 PWs)   bands (ev):

   -27.8888 -27.8883 -27.8879 -27.8873 -27.8836 -27.8828 -27.8817 -27.8801
   -27.8788 -27.8785 -27.7311 -27.7243 -27.7242 -27.6950 -27.6944 -14.4234
   -14.4219 -14.4138 -14.4124 -14.4118 -14.4108 -14.4074 -14.4065 -14.4038
   -14.4028  -2.8291  -2.6168  -1.8037  -1.4926  -1.1271   4.1445   4.7573
     5.1580   5.3847   6.3149   6.6825   7.1003   7.2233   7.4932  10.5629
    10.7191  10.8095  11.4286  11.8426  12.7327  12.9923  13.6148  14.7384
    16.6608  16.7268  17.1567  17.8063  17.9609  18.1914  18.3216  18.9609
    19.2943  19.3766  19.6734  19.8546  20.4837  21.1826

     occupation numbers 
     1.0000   1.0000   1.0000   1.0000   1.0000   1.0000   1.0000   1.0000
     1.0000   1.0000   1.0000   1.0000   1.0000   1.0000   1.0000   1.0000
     1.0000   1.0000   1.0000   1.0000   1.0000   1.0000   1.0000   1.0000
     1.0000   1.0000   1.0000   1.0000   1.0000   1.0000   1.0000   1.0000
     1.0000   1.0000   1.0000   1.0000   1.0000   1.0000   1.0000  -0.0000
    -0.0000  -0.0000  -0.0000  -0.0000  -0.0000  -0.0000  -0.0000  -0.0000
    -0.0000  -0.0000  -0.0000  -0.0000  -0.0000  -0.0000  -0.0000  -0.0000
    -0.0000  -0.0000  -0.0000  -0.0000  -0.0000  -0.0000

          k = 0.1684-0.3742-1.1563 ( 11920 PWs)   bands (ev):

   -27.8888 -27.8884 -27.8879 -27.8873 -27.8836 -27.8828 -27.8817 -27.8801
   -27.8788 -27.8785 -27.7311 -27.7243 -27.7242 -27.6950 -27.6944 -14.4234
   -14.4219 -14.4138 -14.4124 -14.4118 -14.4108 -14.4074 -14.4065 -14.4038
   -14.4028  -2.8563  -2.5727  -1.8166  -1.5183  -1.1053   4.0521   4.8014
     5.2270   5.7688   6.0918   6.3461   6.8205   7.4828   7.6680  10.3787
    10.5265  11.2161  11.5994  12.0898  12.2573  12.8323  14.0303  14.7465
    16.1547  16.7788  17.1360  17.3351  17.8616  18.0798  18.6637  19.0691
    19.2896  19.7160  19.9862  20.1790  20.5893  21.0015

     occupation numbers 
     1.0000   1.0000   1.0000   1.0000   1.0000   1.0000   1.0000   1.0000
     1.0000   1.0000   1.0000   1.0000   1.0000   1.0000   1.0000   1.0000
     1.0000   1.0000   1.0000   1.0000   1.0000   1.0000   1.0000   1.0000
     1.0000   1.0000   1.0000   1.0000   1.0000   1.0000   1.0000   1.0000
     1.0000   1.0000   1.0000   1.0000   1.0000   1.0000   1.0000  -0.0000
    -0.0000  -0.0000  -0.0000  -0.0000  -0.0000  -0.0000  -0.0000  -0.0000
    -0.0000  -0.0000  -0.0000  -0.0000  -0.0000  -0.0000  -0.0000  -0.0000
    -0.0000  -0.0000  -0.0000  -0.0000  -0.0000  -0.0000

          k = 0.1679-0.3743-0.6896 ( 11899 PWs)   bands (ev):

   -27.8888 -27.8888 -27.8881 -27.8876 -27.8833 -27.8829 -27.8812 -27.8802
   -27.8792 -27.8786 -27.7313 -27.7242 -27.7241 -27.6951 -27.6947 -14.4216
   -14.4206 -14.4139 -14.4137 -14.4110 -14.4108 -14.4082 -14.4076 -14.4059
   -14.4049  -3.6510  -3.1250  -2.0247  -0.7067  -0.4665   4.9791   5.1138
     5.6646   5.8214   6.3120   6.4650   7.9268   7.9809   8.2765   9.5850
    10.1036  10.1656  11.3612  12.2575  12.2899  13.1434  13.2709  15.3337
    15.5740  15.9175  16.0195  16.1985  16.8276  16.9446  17.3846  17.8037
    19.0737  19.5715  19.7031  20.2099  20.4225  20.6272

     occupation numbers 
     1.0000   1.0000   1.0000   1.0000   1.0000   1.0000   1.0000   1.0000
     1.0000   1.0000   1.0000   1.0000   1.0000   1.0000   1.0000   1.0000
     1.0000   1.0000   1.0000   1.0000   1.0000   1.0000   1.0000   1.0000
     1.0000   1.0000   1.0000   1.0000   1.0000   1.0000   1.0000   1.0000
     1.0000   1.0000   1.0000   1.0000   1.0000   1.0000   1.0000  -0.0000
    -0.0000  -0.0000  -0.0000  -0.0000  -0.0000  -0.0000  -0.0000  -0.0000
    -0.0000  -0.0000  -0.0000  -0.0000  -0.0000  -0.0000  -0.0000  -0.0000
    -0.0000  -0.0000  -0.0000  -0.0000  -0.0000  -0.0000

          k = 0.1670 0.0358-0.4456 ( 11889 PWs)   bands (ev):

   -27.8890 -27.8889 -27.8882 -27.8880 -27.8830 -27.8829 -27.8808 -27.8803
   -27.8796 -27.8789 -27.7315 -27.7241 -27.7241 -27.6951 -27.6949 -14.4205
   -14.4192 -14.4165 -14.4154 -14.4101 -14.4092 -14.4084 -14.4082 -14.4077
   -14.4066  -4.0809  -3.5213  -2.2081  -0.4059   0.1023   5.5702   5.9320
     6.2933   6.4211   7.0952   7.2432   7.7213   7.8026   8.2401   9.7769
     9.9736  10.0702  10.8136  10.9689  11.6444  13.1953  13.8540  14.8450
    14.9031  15.5069  15.8711  16.1278  16.1388  16.7561  16.7946  17.2469
    17.4502  18.2128  18.6476  18.7618  19.4090  19.6882

     occupation numbers 
     1.0000   1.0000   1.0000   1.0000   1.0000   1.0000   1.0000   1.0000
     1.0000   1.0000   1.0000   1.0000   1.0000   1.0000   1.0000   1.0000
     1.0000   1.0000   1.0000   1.0000   1.0000   1.0000   1.0000   1.0000
     1.0000   1.0000   1.0000   1.0000   1.0000   1.0000   1.0000   1.0000
     1.0000   1.0000   1.0000   1.0000   1.0000   1.0000   1.0000  -0.0000
    -0.0000  -0.0000  -0.0000  -0.0000  -0.0000  -0.0000  -0.0000  -0.0000
    -0.0000  -0.0000  -0.0000  -0.0000  -0.0000  -0.0000  -0.0000  -0.0000
    -0.0000  -0.0000  -0.0000  -0.0000  -0.0000  -0.0000

          k = 0.1666 0.0357 0.0212 ( 11900 PWs)   bands (ev):

   -27.8891 -27.8891 -27.8883 -27.8883 -27.8828 -27.8828 -27.8804 -27.8804
   -27.8798 -27.8791 -27.7316 -27.7240 -27.7240 -27.6952 -27.6952 -14.4192
   -14.4192 -14.4181 -14.4181 -14.4111 -14.4100 -14.4076 -14.4076 -14.4067
   -14.4067  -4.2959  -3.7526  -2.2924  -0.3861   0.4999   6.4035   6.9139
     7.0400   7.0400   7.2046   7.2046   7.8563   7.8563   8.5235   9.1271
     9.5567   9.5567  10.5682  10.7201  10.7201  13.7219  14.3057  14.6179
    14.6179  15.2493  15.4802  15.4802  16.1793  16.1793  16.2019  16.7244
    17.7207  17.9198  17.9198  18.3580  18.8979  18.8980

     occupation numbers 
     1.0000   1.0000   1.0000   1.0000   1.0000   1.0000   1.0000   1.0000
     1.0000   1.0000   1.0000   1.0000   1.0000   1.0000   1.0000   1.0000
     1.0000   1.0000   1.0000   1.0000   1.0000   1.0000   1.0000   1.0000
     1.0000   1.0000   1.0000   1.0000   1.0000   1.0000   1.0000   1.0000
     1.0000   1.0000   1.0000   1.0000   1.0000   1.0000   1.0038  -0.0036
    -0.0000  -0.0000  -0.0000  -0.0000  -0.0000  -0.0000  -0.0000  -0.0000
    -0.0000  -0.0000  -0.0000  -0.0000  -0.0000  -0.0000  -0.0000  -0.0000
    -0.0000  -0.0000  -0.0000  -0.0000  -0.0000  -0.0000

          k = 0.1661 0.0356 0.4880 ( 11906 PWs)   bands (ev):

   -27.8890 -27.8889 -27.8882 -27.8880 -27.8830 -27.8829 -27.8808 -27.8803
   -27.8796 -27.8789 -27.7315 -27.7241 -27.7241 -27.6951 -27.6949 -14.4205
   -14.4192 -14.4165 -14.4154 -14.4101 -14.4092 -14.4085 -14.4082 -14.4077
   -14.4066  -4.0554  -3.5813  -2.1101  -0.6143   0.2576   5.5058   5.8723
     6.4418   6.5138   6.8678   7.2455   7.8167   7.9028   8.1485   9.6813
    10.0634  10.3622  10.7477  10.8779  11.3756  13.1366  14.0901  14.6548
    15.0443  15.1522  15.5428  16.1625  16.5430  17.1923  17.4555  17.5708
    17.7750  17.7806  18.1542  18.8657  19.0084  19.5637

     occupation numbers 
     1.0000   1.0000   1.0000   1.0000   1.0000   1.0000   1.0000   1.0000
     1.0000   1.0000   1.0000   1.0000   1.0000   1.0000   1.0000   1.0000
     1.0000   1.0000   1.0000   1.0000   1.0000   1.0000   1.0000   1.0000
     1.0000   1.0000   1.0000   1.0000   1.0000   1.0000   1.0000   1.0000
     1.0000   1.0000   1.0000   1.0000   1.0000   1.0000   1.0000  -0.0000
    -0.0000  -0.0000  -0.0000  -0.0000  -0.0000  -0.0000  -0.0000  -0.0000
    -0.0000  -0.0000  -0.0000  -0.0000  -0.0000  -0.0000  -0.0000  -0.0000
    -0.0000  -0.0000  -0.0000  -0.0000  -0.0000  -0.0000

          k = 0.1684 0.0360-1.8459 ( 11904 PWs)   bands (ev):

   -27.8889 -27.8885 -27.8882 -27.8874 -27.8833 -27.8831 -27.8813 -27.8802
   -27.8791 -27.8786 -27.7313 -27.7243 -27.7241 -27.6951 -27.6945 -14.4242
   -14.4225 -14.4128 -14.4124 -14.4110 -14.4108 -14.4074 -14.4060 -14.4055
   -14.4044  -3.3923  -3.0773  -1.7977  -1.1746  -0.5048   4.5314   4.9778
     5.7637   5.9430   6.1218   6.2504   7.8611   7.9175   8.2484   9.4047
     9.9736  10.0696  11.5000  11.8849  12.5008  12.9930  13.7824  15.1413
    16.1792  16.3085  16.7023  16.8141  17.4290  17.7227  18.0322  18.2488
    18.8183  19.1417  19.7813  19.8970  20.2683  20.7031

     occupation numbers 
     1.0000   1.0000   1.0000   1.0000   1.0000   1.0000   1.0000   1.0000
     1.0000   1.0000   1.0000   1.0000   1.0000   1.0000   1.0000   1.0000
     1.0000   1.0000   1.0000   1.0000   1.0000   1.0000   1.0000   1.0000
     1.0000   1.0000   1.0000   1.0000   1.0000   1.0000   1.0000   1.0000
     1.0000   1.0000   1.0000   1.0000   1.0000   1.0000   1.0000  -0.0000
    -0.0000  -0.0000  -0.0000  -0.0000  -0.0000  -0.0000  -0.0000  -0.0000
    -0.0000  -0.0000  -0.0000  -0.0000  -0.0000  -0.0000  -0.0000  -0.0000
    -0.0000  -0.0000  -0.0000  -0.0000  -0.0000  -0.0000

          k = 0.1679 0.0360-1.3791 ( 11935 PWs)   bands (ev):

   -27.8889 -27.8884 -27.8881 -27.8871 -27.8834 -27.8832 -27.8815 -27.8802
   -27.8788 -27.8786 -27.7311 -27.7244 -27.7241 -27.6951 -27.6943 -14.4264
   -14.4245 -14.4140 -14.4121 -14.4120 -14.4096 -14.4054 -14.4047 -14.4036
   -14.4024  -2.6676  -2.6405  -2.1050  -1.4433  -1.0347   3.8468   5.3092
     5.3589   5.6543   6.0601   6.1379   6.9413   7.7325   7.9108   9.5850
    10.1131  10.8242  11.4569  12.0698  12.2511  12.7032  13.7392  16.3717
    17.1374  17.3488  17.4991  17.9194  18.1315  18.1730  18.9502  18.9957
    19.0167  19.5185  19.6081  20.1180  20.2264  20.7376

     occupation numbers 
     1.0000   1.0000   1.0000   1.0000   1.0000   1.0000   1.0000   1.0000
     1.0000   1.0000   1.0000   1.0000   1.0000   1.0000   1.0000   1.0000
     1.0000   1.0000   1.0000   1.0000   1.0000   1.0000   1.0000   1.0000
     1.0000   1.0000   1.0000   1.0000   1.0000   1.0000   1.0000   1.0000
     1.0000   1.0000   1.0000   1.0000   1.0000   1.0000   1.0000  -0.0000
    -0.0000  -0.0000  -0.0000  -0.0000  -0.0000  -0.0000  -0.0000  -0.0000
    -0.0000  -0.0000  -0.0000  -0.0000  -0.0000  -0.0000  -0.0000  -0.0000
    -0.0000  -0.0000  -0.0000  -0.0000  -0.0000  -0.0000

          k = 0.1675 0.0359-0.9123 ( 11916 PWs)   bands (ev):

   -27.8889 -27.8885 -27.8881 -27.8874 -27.8833 -27.8831 -27.8813 -27.8802
   -27.8791 -27.8786 -27.7313 -27.7243 -27.7241 -27.6951 -27.6945 -14.4242
   -14.4225 -14.4128 -14.4124 -14.4110 -14.4108 -14.4074 -14.4060 -14.4055
   -14.4044  -3.4449  -2.9657  -1.9710  -0.9900  -0.5700   4.2372   5.3879
     5.7971   5.8286   6.4865   6.6053   7.0809   7.6369   7.6540   9.9729
    10.4198  11.0877  11.3108  11.4850  12.2308  12.3422  14.5618  14.9684
    15.5935  16.2110  16.6111  17.0546  17.6418  17.6823  17.7078  18.5061
    18.5286  18.6362  19.1658  21.1135  21.1651  21.5079

     occupation numbers 
     1.0000   1.0000   1.0000   1.0000   1.0000   1.0000   1.0000   1.0000
     1.0000   1.0000   1.0000   1.0000   1.0000   1.0000   1.0000   1.0000
     1.0000   1.0000   1.0000   1.0000   1.0000   1.0000   1.0000   1.0000
     1.0000   1.0000   1.0000   1.0000   1.0000   1.0000   1.0000   1.0000
     1.0000   1.0000   1.0000   1.0000   1.0000   1.0000   1.0000  -0.0000
    -0.0000  -0.0000  -0.0000  -0.0000  -0.0000  -0.0000  -0.0000  -0.0000
    -0.0000  -0.0000  -0.0000  -0.0000  -0.0000  -0.0000  -0.0000  -0.0000
    -0.0000  -0.0000  -0.0000  -0.0000  -0.0000  -0.0000

          k = 0.1666 0.4459-0.6683 ( 11897 PWs)   bands (ev):

   -27.8888 -27.8888 -27.8881 -27.8876 -27.8833 -27.8829 -27.8812 -27.8802
   -27.8792 -27.8786 -27.7313 -27.7242 -27.7241 -27.6951 -27.6947 -14.4216
   -14.4206 -14.4139 -14.4137 -14.4110 -14.4108 -14.4082 -14.4076 -14.4059
   -14.4049  -3.6338  -3.1659  -1.9685  -0.8019  -0.4038   4.8843   5.1551
     5.5594   6.0941   6.2169   6.6252   7.6109   8.0763   8.1474   9.7245
    10.0193  10.5090  11.2804  12.0682  12.2619  13.2052  13.2985  14.7633
    15.2949  16.1976  16.3380  16.4819  16.9536  17.1933  17.4085  18.0890
    18.7733  19.1221  19.5785  20.1460  20.4114  20.7854

     occupation numbers 
     1.0000   1.0000   1.0000   1.0000   1.0000   1.0000   1.0000   1.0000
     1.0000   1.0000   1.0000   1.0000   1.0000   1.0000   1.0000   1.0000
     1.0000   1.0000   1.0000   1.0000   1.0000   1.0000   1.0000   1.0000
     1.0000   1.0000   1.0000   1.0000   1.0000   1.0000   1.0000   1.0000
     1.0000   1.0000   1.0000   1.0000   1.0000   1.0000   1.0000  -0.0000
    -0.0000  -0.0000  -0.0000  -0.0000  -0.0000  -0.0000  -0.0000  -0.0000
    -0.0000  -0.0000  -0.0000  -0.0000  -0.0000  -0.0000  -0.0000  -0.0000
    -0.0000  -0.0000  -0.0000  -0.0000  -0.0000  -0.0000

          k = 0.1661 0.4458-0.2016 ( 11906 PWs)   bands (ev):

   -27.8890 -27.8889 -27.8882 -27.8880 -27.8830 -27.8829 -27.8808 -27.8803
   -27.8796 -27.8789 -27.7315 -27.7241 -27.7241 -27.6951 -27.6949 -14.4205
   -14.4192 -14.4165 -14.4154 -14.4101 -14.4092 -14.4085 -14.4082 -14.4077
   -14.4066  -4.0554  -3.5813  -2.1101  -0.6143   0.2576   5.5058   5.8723
     6.4418   6.5138   6.8678   7.2455   7.8167   7.9028   8.1485   9.6813
    10.0634  10.3622  10.7477  10.8779  11.3756  13.1366  14.0901  14.6548
    15.0443  15.1522  15.5428  16.1625  16.5430  17.1923  17.4555  17.5708
    17.7750  17.7806  18.1542  18.8657  19.0083  19.5641

     occupation numbers 
     1.0000   1.0000   1.0000   1.0000   1.0000   1.0000   1.0000   1.0000
     1.0000   1.0000   1.0000   1.0000   1.0000   1.0000   1.0000   1.0000
     1.0000   1.0000   1.0000   1.0000   1.0000   1.0000   1.0000   1.0000
     1.0000   1.0000   1.0000   1.0000   1.0000   1.0000   1.0000   1.0000
     1.0000   1.0000   1.0000   1.0000   1.0000   1.0000   1.0000  -0.0000
    -0.0000  -0.0000  -0.0000  -0.0000  -0.0000  -0.0000  -0.0000  -0.0000
    -0.0000  -0.0000  -0.0000  -0.0000  -0.0000  -0.0000  -0.0000  -0.0000
    -0.0000  -0.0000  -0.0000  -0.0000  -0.0000  -0.0000

          k = 0.1657 0.4457 0.2652 ( 11898 PWs)   bands (ev):

   -27.8890 -27.8889 -27.8882 -27.8880 -27.8830 -27.8829 -27.8808 -27.8803
   -27.8796 -27.8789 -27.7315 -27.7241 -27.7241 -27.6951 -27.6949 -14.4205
   -14.4192 -14.4165 -14.4154 -14.4101 -14.4092 -14.4085 -14.4082 -14.4077
   -14.4066  -4.0412  -3.6095  -2.0745  -0.6436   0.2570   5.4701   6.2263
     6.3232   6.4414   6.8855   7.0083   7.8369   7.9514   8.1890   9.5746
     9.8825  10.1404  10.9550  11.1398  11.6362  13.3621  13.8868  14.4696
    14.8412  15.5175  15.6868  16.2539  16.2543  16.4573  16.5958  17.2836
    17.6469  18.0515  19.0388  19.2501  19.5169  20.0604

     occupation numbers 
     1.0000   1.0000   1.0000   1.0000   1.0000   1.0000   1.0000   1.0000
     1.0000   1.0000   1.0000   1.0000   1.0000   1.0000   1.0000   1.0000
     1.0000   1.0000   1.0000   1.0000   1.0000   1.0000   1.0000   1.0000
     1.0000   1.0000   1.0000   1.0000   1.0000   1.0000   1.0000   1.0000
     1.0000   1.0000   1.0000   1.0000   1.0000   1.0000   1.0000  -0.0000
    -0.0000  -0.0000  -0.0000  -0.0000  -0.0000  -0.0000  -0.0000  -0.0000
    -0.0000  -0.0000  -0.0000  -0.0000  -0.0000  -0.0000  -0.0000  -0.0000
    -0.0000  -0.0000  -0.0000  -0.0000  -0.0000  -0.0000

          k = 0.1679 0.4462-2.0687 ( 11894 PWs)   bands (ev):

   -27.8888 -27.8888 -27.8881 -27.8876 -27.8833 -27.8829 -27.8812 -27.8802
   -27.8792 -27.8787 -27.7313 -27.7242 -27.7241 -27.6951 -27.6947 -14.4216
   -14.4206 -14.4139 -14.4137 -14.4110 -14.4108 -14.4082 -14.4076 -14.4059
   -14.4049  -3.5907  -3.2515  -1.8488  -0.9546  -0.3284   4.7915   5.0742
     5.6580   6.1538   6.4094   6.8590   7.3847   7.8162   7.8774  10.0626
    10.2508  10.8519  11.0720  11.7648  12.0719  13.3763  13.3909  14.1941
    14.7788  16.5093  16.7255  16.8544  17.2377  17.6245  17.9514  18.2553
    18.6315  18.6836  18.9691  19.7583  20.2011  20.4532

     occupation numbers 
     1.0000   1.0000   1.0000   1.0000   1.0000   1.0000   1.0000   1.0000
     1.0000   1.0000   1.0000   1.0000   1.0000   1.0000   1.0000   1.0000
     1.0000   1.0000   1.0000   1.0000   1.0000   1.0000   1.0000   1.0000
     1.0000   1.0000   1.0000   1.0000   1.0000   1.0000   1.0000   1.0000
     1.0000   1.0000   1.0000   1.0000   1.0000   1.0000   1.0000  -0.0000
    -0.0000  -0.0000  -0.0000  -0.0000  -0.0000  -0.0000  -0.0000  -0.0000
    -0.0000  -0.0000  -0.0000  -0.0000  -0.0000  -0.0000  -0.0000  -0.0000
    -0.0000  -0.0000  -0.0000  -0.0000  -0.0000  -0.0000

          k = 0.1675 0.4461-1.6019 ( 11918 PWs)   bands (ev):

   -27.8888 -27.8883 -27.8879 -27.8873 -27.8836 -27.8828 -27.8817 -27.8801
   -27.8788 -27.8785 -27.7311 -27.7243 -27.7242 -27.6950 -27.6944 -14.4234
   -14.4219 -14.4139 -14.4124 -14.4118 -14.4108 -14.4074 -14.4065 -14.4038
   -14.4028  -2.8059  -2.6438  -1.8408  -1.4072  -1.1715   4.3059   4.8033
     4.9969   5.1735   6.1283   6.5637   7.3431   7.5466   7.8120   9.9842
    10.4357  10.6624  11.6028  11.9620  12.9218  13.1431  13.7237  14.8060
    16.1986  16.9068  17.1017  17.8118  17.9632  18.1940  18.6453  18.7726
    19.2997  19.6348  19.8094  19.9796  20.3383  21.1016

     occupation numbers 
     1.0000   1.0000   1.0000   1.0000   1.0000   1.0000   1.0000   1.0000
     1.0000   1.0000   1.0000   1.0000   1.0000   1.0000   1.0000   1.0000
     1.0000   1.0000   1.0000   1.0000   1.0000   1.0000   1.0000   1.0000
     1.0000   1.0000   1.0000   1.0000   1.0000   1.0000   1.0000   1.0000
     1.0000   1.0000   1.0000   1.0000   1.0000   1.0000   1.0000  -0.0000
    -0.0000  -0.0000  -0.0000  -0.0000  -0.0000  -0.0000  -0.0000  -0.0000
    -0.0000  -0.0000  -0.0000  -0.0000  -0.0000  -0.0000  -0.0000  -0.0000
    -0.0000  -0.0000  -0.0000  -0.0000  -0.0000  -0.0000

          k = 0.1670 0.4460-1.1351 ( 11915 PWs)   bands (ev):

   -27.8888 -27.8883 -27.8879 -27.8873 -27.8836 -27.8828 -27.8817 -27.8801
   -27.8788 -27.8785 -27.7311 -27.7243 -27.7242 -27.6950 -27.6944 -14.4234
   -14.4219 -14.4139 -14.4124 -14.4118 -14.4108 -14.4074 -14.4065 -14.4038
   -14.4028  -2.8642  -2.5506  -1.8694  -1.4687  -1.1163   4.0649   4.9131
     5.3311   5.7093   5.7255   6.1037   6.9302   7.8779   8.0163   9.9149
    10.1747  11.0278  11.8365  12.3078  12.4173  12.7837  14.6318  14.7733
    15.6547  16.1418  16.8898  17.7922  17.8192  18.0496  18.5900  19.2897
    19.3721  19.8422  20.4203  20.6761  20.9044  21.1990

     occupation numbers 
     1.0000   1.0000   1.0000   1.0000   1.0000   1.0000   1.0000   1.0000
     1.0000   1.0000   1.0000   1.0000   1.0000   1.0000   1.0000   1.0000
     1.0000   1.0000   1.0000   1.0000   1.0000   1.0000   1.0000   1.0000
     1.0000   1.0000   1.0000   1.0000   1.0000   1.0000   1.0000   1.0000
     1.0000   1.0000   1.0000   1.0000   1.0000   1.0000   1.0000  -0.0000
    -0.0000  -0.0000  -0.0000  -0.0000  -0.0000  -0.0000  -0.0000  -0.0000
    -0.0000  -0.0000  -0.0000  -0.0000  -0.0000  -0.0000  -0.0000  -0.0000
    -0.0000  -0.0000  -0.0000  -0.0000  -0.0000  -0.0000

          k = 0.1689-1.6050 0.4456 ( 11914 PWs)   bands (ev):

   -27.8888 -27.8883 -27.8879 -27.8873 -27.8836 -27.8828 -27.8817 -27.8801
   -27.8788 -27.8785 -27.7311 -27.7243 -27.7242 -27.6950 -27.6944 -14.4234
   -14.4219 -14.4138 -14.4124 -14.4118 -14.4108 -14.4074 -14.4065 -14.4038
   -14.4028  -2.8291  -2.6168  -1.8037  -1.4926  -1.1271   4.1445   4.7573
     5.1580   5.3847   6.3149   6.6825   7.1003   7.2233   7.4932  10.5629
    10.7191  10.8095  11.4286  11.8426  12.7327  12.9923  13.6148  14.7384
    16.6608  16.7268  17.1567  17.8063  17.9609  18.1914  18.3216  18.9609
    19.2943  19.3766  19.6734  19.8546  20.4837  21.1824

     occupation numbers 
     1.0000   1.0000   1.0000   1.0000   1.0000   1.0000   1.0000   1.0000
     1.0000   1.0000   1.0000   1.0000   1.0000   1.0000   1.0000   1.0000
     1.0000   1.0000   1.0000   1.0000   1.0000   1.0000   1.0000   1.0000
     1.0000   1.0000   1.0000   1.0000   1.0000   1.0000   1.0000   1.0000
     1.0000   1.0000   1.0000   1.0000   1.0000   1.0000   1.0000  -0.0000
    -0.0000  -0.0000  -0.0000  -0.0000  -0.0000  -0.0000  -0.0000  -0.0000
    -0.0000  -0.0000  -0.0000  -0.0000  -0.0000  -0.0000  -0.0000  -0.0000
    -0.0000  -0.0000  -0.0000  -0.0000  -0.0000  -0.0000

          k = 0.1684-1.6051 0.9123 ( 11904 PWs)   bands (ev):

   -27.8889 -27.8885 -27.8882 -27.8874 -27.8833 -27.8831 -27.8813 -27.8802
   -27.8791 -27.8786 -27.7313 -27.7243 -27.7241 -27.6951 -27.6945 -14.4242
   -14.4225 -14.4128 -14.4124 -14.4110 -14.4108 -14.4074 -14.4060 -14.4055
   -14.4044  -3.3923  -3.0773  -1.7977  -1.1746  -0.5048   4.5314   4.9778
     5.7637   5.9430   6.1218   6.2504   7.8611   7.9175   8.2484   9.4047
     9.9736  10.0696  11.5000  11.8849  12.5008  12.9930  13.7824  15.1413
    16.1792  16.3085  16.7023  16.8141  17.4290  17.7227  18.0322  18.2488
    18.8183  19.1417  19.7813  19.8970  20.2683  20.7031

     occupation numbers 
     1.0000   1.0000   1.0000   1.0000   1.0000   1.0000   1.0000   1.0000
     1.0000   1.0000   1.0000   1.0000   1.0000   1.0000   1.0000   1.0000
     1.0000   1.0000   1.0000   1.0000   1.0000   1.0000   1.0000   1.0000
     1.0000   1.0000   1.0000   1.0000   1.0000   1.0000   1.0000   1.0000
     1.0000   1.0000   1.0000   1.0000   1.0000   1.0000   1.0000  -0.0000
    -0.0000  -0.0000  -0.0000  -0.0000  -0.0000  -0.0000  -0.0000  -0.0000
    -0.0000  -0.0000  -0.0000  -0.0000  -0.0000  -0.0000  -0.0000  -0.0000
    -0.0000  -0.0000  -0.0000  -0.0000  -0.0000  -0.0000

          k = 0.1680-1.6052 1.3791 ( 11894 PWs)   bands (ev):

   -27.8888 -27.8888 -27.8881 -27.8876 -27.8833 -27.8829 -27.8812 -27.8802
   -27.8792 -27.8787 -27.7313 -27.7242 -27.7241 -27.6951 -27.6947 -14.4216
   -14.4206 -14.4139 -14.4137 -14.4110 -14.4108 -14.4082 -14.4076 -14.4059
   -14.4049  -3.5907  -3.2515  -1.8488  -0.9546  -0.3284   4.7915   5.0742
     5.6580   6.1538   6.4094   6.8590   7.3847   7.8162   7.8774  10.0626
    10.2508  10.8519  11.0720  11.7648  12.0719  13.3763  13.3909  14.1941
    14.7788  16.5093  16.7255  16.8544  17.2377  17.6245  17.9514  18.2553
    18.6315  18.6836  18.9691  19.7583  20.2011  20.4532

     occupation numbers 
     1.0000   1.0000   1.0000   1.0000   1.0000   1.0000   1.0000   1.0000
     1.0000   1.0000   1.0000   1.0000   1.0000   1.0000   1.0000   1.0000
     1.0000   1.0000   1.0000   1.0000   1.0000   1.0000   1.0000   1.0000
     1.0000   1.0000   1.0000   1.0000   1.0000   1.0000   1.0000   1.0000
     1.0000   1.0000   1.0000   1.0000   1.0000   1.0000   1.0000  -0.0000
    -0.0000  -0.0000  -0.0000  -0.0000  -0.0000  -0.0000  -0.0000  -0.0000
    -0.0000  -0.0000  -0.0000  -0.0000  -0.0000  -0.0000  -0.0000  -0.0000
    -0.0000  -0.0000  -0.0000  -0.0000  -0.0000  -0.0000

          k = 0.1702-1.6047-0.9548 ( 11898 PWs)   bands (ev):

   -27.8889 -27.8885 -27.8881 -27.8874 -27.8833 -27.8831 -27.8813 -27.8802
   -27.8791 -27.8786 -27.7312 -27.7243 -27.7241 -27.6951 -27.6945 -14.4242
   -14.4225 -14.4128 -14.4124 -14.4110 -14.4108 -14.4074 -14.4060 -14.4055
   -14.4044  -3.3857  -3.0800  -1.8749  -0.9744  -0.6337   4.2878   5.2374
     5.7933   5.8019   6.5596   6.6144   7.2964   7.5866   7.6647  10.0441
    10.4044  10.5278  11.3047  11.5739  12.4669  12.6184  13.9016  15.4675
    15.7455  16.2754  16.3562  16.7406  16.7635  17.4927  18.4762  19.0471
    19.4608  19.5218  19.8279  20.3972  20.5234  21.3358

     occupation numbers 
     1.0000   1.0000   1.0000   1.0000   1.0000   1.0000   1.0000   1.0000
     1.0000   1.0000   1.0000   1.0000   1.0000   1.0000   1.0000   1.0000
     1.0000   1.0000   1.0000   1.0000   1.0000   1.0000   1.0000   1.0000
     1.0000   1.0000   1.0000   1.0000   1.0000   1.0000   1.0000   1.0000
     1.0000   1.0000   1.0000   1.0000   1.0000   1.0000   1.0000  -0.0000
    -0.0000  -0.0000  -0.0000  -0.0000  -0.0000  -0.0000  -0.0000  -0.0000
    -0.0000  -0.0000  -0.0000  -0.0000  -0.0000  -0.0000  -0.0000  -0.0000
    -0.0000  -0.0000  -0.0000  -0.0000  -0.0000  -0.0000

          k = 0.1698-1.6048-0.4880 ( 11915 PWs)   bands (ev):

   -27.8888 -27.8883 -27.8879 -27.8873 -27.8836 -27.8828 -27.8817 -27.8801
   -27.8788 -27.8785 -27.7311 -27.7243 -27.7242 -27.6950 -27.6944 -14.4234
   -14.4219 -14.4139 -14.4124 -14.4118 -14.4108 -14.4074 -14.4065 -14.4038
   -14.4028  -2.8207  -2.6163  -1.8821  -1.3517  -1.1984   4.3447   4.9010
     4.9293   5.2570   5.8401   6.2229   7.7467   7.8384   8.0364   9.7607
    10.0779  10.2595  11.8540  12.2417  12.8137  13.1866  14.1629  14.9703
    15.8378  16.2157  16.9342  17.8317  18.0120  18.2681  18.8380  19.0013
    19.3927  19.8471  19.9259  20.3733  20.6257  20.9461

     occupation numbers 
     1.0000   1.0000   1.0000   1.0000   1.0000   1.0000   1.0000   1.0000
     1.0000   1.0000   1.0000   1.0000   1.0000   1.0000   1.0000   1.0000
     1.0000   1.0000   1.0000   1.0000   1.0000   1.0000   1.0000   1.0000
     1.0000   1.0000   1.0000   1.0000   1.0000   1.0000   1.0000   1.0000
     1.0000   1.0000   1.0000   1.0000   1.0000   1.0000   1.0000  -0.0000
    -0.0000  -0.0000  -0.0000  -0.0000  -0.0000  -0.0000  -0.0000  -0.0000
    -0.0000  -0.0000  -0.0000  -0.0000  -0.0000  -0.0000  -0.0000  -0.0000
    -0.0000  -0.0000  -0.0000  -0.0000  -0.0000  -0.0000

          k = 0.1693-1.6049-0.0212 ( 11936 PWs)   bands (ev):

   -27.8888 -27.8880 -27.8879 -27.8873 -27.8839 -27.8823 -27.8822 -27.8801
   -27.8787 -27.8786 -27.7311 -27.7243 -27.7243 -27.6946 -27.6946 -14.4196
   -14.4195 -14.4174 -14.4139 -14.4095 -14.4091 -14.4089 -14.4084 -14.4037
   -14.4035  -2.1649  -2.1540  -1.8534  -1.8527  -1.7994   4.2530   4.6787
     4.7033   5.1992   5.7102   6.1891   6.9611   7.7395   7.9138  10.0822
    10.3862  11.1606  11.9592  12.6670  12.6839  14.2631  14.6534  14.8869
    14.9791  15.4139  16.4601  17.3175  17.4948  18.5171  18.5973  18.9425
    19.1972  19.8349  20.1252  21.1706  21.5383  21.8081

     occupation numbers 
     1.0000   1.0000   1.0000   1.0000   1.0000   1.0000   1.0000   1.0000
     1.0000   1.0000   1.0000   1.0000   1.0000   1.0000   1.0000   1.0000
     1.0000   1.0000   1.0000   1.0000   1.0000   1.0000   1.0000   1.0000
     1.0000   1.0000   1.0000   1.0000   1.0000   1.0000   1.0000   1.0000
     1.0000   1.0000   1.0000   1.0000   1.0000   1.0000   1.0000  -0.0000
    -0.0000  -0.0000  -0.0000  -0.0000  -0.0000  -0.0000  -0.0000  -0.0000
    -0.0000  -0.0000  -0.0000  -0.0000  -0.0000  -0.0000  -0.0000  -0.0000
    -0.0000  -0.0000  -0.0000  -0.0000  -0.0000  -0.0000

          k = 0.1684-1.1948 0.2228 ( 11920 PWs)   bands (ev):

   -27.8888 -27.8884 -27.8879 -27.8873 -27.8836 -27.8828 -27.8817 -27.8801
   -27.8788 -27.8785 -27.7311 -27.7243 -27.7242 -27.6950 -27.6944 -14.4234
   -14.4219 -14.4138 -14.4124 -14.4118 -14.4108 -14.4074 -14.4065 -14.4038
   -14.4028  -2.8563  -2.5727  -1.8166  -1.5184  -1.1053   4.0521   4.8014
     5.2270   5.7688   6.0918   6.3461   6.8205   7.4828   7.6680  10.3787
    10.5265  11.2161  11.5994  12.0898  12.2573  12.8323  14.0303  14.7465
    16.1547  16.7788  17.1360  17.3351  17.8616  18.0798  18.6637  19.0691
    19.2896  19.7160  19.9862  20.1790  20.5893  21.0015

     occupation numbers 
     1.0000   1.0000   1.0000   1.0000   1.0000   1.0000   1.0000   1.0000
     1.0000   1.0000   1.0000   1.0000   1.0000   1.0000   1.0000   1.0000
     1.0000   1.0000   1.0000   1.0000   1.0000   1.0000   1.0000   1.0000
     1.0000   1.0000   1.0000   1.0000   1.0000   1.0000   1.0000   1.0000
     1.0000   1.0000   1.0000   1.0000   1.0000   1.0000   1.0000  -0.0000
    -0.0000  -0.0000  -0.0000  -0.0000  -0.0000  -0.0000  -0.0000  -0.0000
    -0.0000  -0.0000  -0.0000  -0.0000  -0.0000  -0.0000  -0.0000  -0.0000
    -0.0000  -0.0000  -0.0000  -0.0000  -0.0000  -0.0000

          k = 0.1680-1.1949 0.6896 ( 11935 PWs)   bands (ev):

   -27.8889 -27.8884 -27.8881 -27.8871 -27.8834 -27.8832 -27.8815 -27.8802
   -27.8788 -27.8786 -27.7311 -27.7244 -27.7241 -27.6951 -27.6943 -14.4264
   -14.4245 -14.4140 -14.4121 -14.4120 -14.4096 -14.4054 -14.4047 -14.4036
   -14.4024  -2.6676  -2.6405  -2.1050  -1.4433  -1.0347   3.8468   5.3092
     5.3589   5.6543   6.0601   6.1379   6.9413   7.7325   7.9108   9.5850
    10.1131  10.8242  11.4569  12.0698  12.2511  12.7032  13.7392  16.3717
    17.1374  17.3488  17.4991  17.9194  18.1315  18.1730  18.9502  18.9957
    19.0167  19.5185  19.6081  20.1180  20.2263  20.7375

     occupation numbers 
     1.0000   1.0000   1.0000   1.0000   1.0000   1.0000   1.0000   1.0000
     1.0000   1.0000   1.0000   1.0000   1.0000   1.0000   1.0000   1.0000
     1.0000   1.0000   1.0000   1.0000   1.0000   1.0000   1.0000   1.0000
     1.0000   1.0000   1.0000   1.0000   1.0000   1.0000   1.0000   1.0000
     1.0000   1.0000   1.0000   1.0000   1.0000   1.0000   1.0000  -0.0000
    -0.0000  -0.0000  -0.0000  -0.0000  -0.0000  -0.0000  -0.0000  -0.0000
    -0.0000  -0.0000  -0.0000  -0.0000  -0.0000  -0.0000  -0.0000  -0.0000
    -0.0000  -0.0000  -0.0000  -0.0000  -0.0000  -0.0000

          k = 0.1675-1.1950 1.1563 ( 11918 PWs)   bands (ev):

   -27.8888 -27.8883 -27.8879 -27.8873 -27.8836 -27.8828 -27.8817 -27.8801
   -27.8788 -27.8785 -27.7311 -27.7243 -27.7242 -27.6950 -27.6944 -14.4234
   -14.4219 -14.4139 -14.4124 -14.4118 -14.4108 -14.4074 -14.4065 -14.4038
   -14.4028  -2.8059  -2.6438  -1.8408  -1.4072  -1.1715   4.3059   4.8033
     4.9969   5.1735   6.1283   6.5637   7.3431   7.5466   7.8120   9.9842
    10.4357  10.6624  11.6028  11.9620  12.9218  13.1431  13.7237  14.8060
    16.1986  16.9068  17.1017  17.8118  17.9632  18.1940  18.6453  18.7726
    19.2997  19.6348  19.8094  19.9796  20.3384  21.1016

     occupation numbers 
     1.0000   1.0000   1.0000   1.0000   1.0000   1.0000   1.0000   1.0000
     1.0000   1.0000   1.0000   1.0000   1.0000   1.0000   1.0000   1.0000
     1.0000   1.0000   1.0000   1.0000   1.0000   1.0000   1.0000   1.0000
     1.0000   1.0000   1.0000   1.0000   1.0000   1.0000   1.0000   1.0000
     1.0000   1.0000   1.0000   1.0000   1.0000   1.0000   1.0000  -0.0000
    -0.0000  -0.0000  -0.0000  -0.0000  -0.0000  -0.0000  -0.0000  -0.0000
    -0.0000  -0.0000  -0.0000  -0.0000  -0.0000  -0.0000  -0.0000  -0.0000
    -0.0000  -0.0000  -0.0000  -0.0000  -0.0000  -0.0000

          k = 0.1698-1.1945-1.1776 ( 11915 PWs)   bands (ev):

   -27.8888 -27.8883 -27.8879 -27.8873 -27.8836 -27.8828 -27.8817 -27.8801
   -27.8788 -27.8785 -27.7311 -27.7243 -27.7242 -27.6950 -27.6944 -14.4234
   -14.4219 -14.4139 -14.4124 -14.4118 -14.4108 -14.4074 -14.4065 -14.4038
   -14.4028  -2.8207  -2.6163  -1.8821  -1.3517  -1.1984   4.3447   4.9010
     4.9293   5.2570   5.8401   6.2229   7.7467   7.8384   8.0364   9.7607
    10.0779  10.2595  11.8540  12.2417  12.8137  13.1866  14.1629  14.9703
    15.8378  16.2157  16.9342  17.8317  18.0120  18.2681  18.8380  19.0013
    19.3927  19.8471  19.9259  20.3733  20.6258  20.9460

     occupation numbers 
     1.0000   1.0000   1.0000   1.0000   1.0000   1.0000   1.0000   1.0000
     1.0000   1.0000   1.0000   1.0000   1.0000   1.0000   1.0000   1.0000
     1.0000   1.0000   1.0000   1.0000   1.0000   1.0000   1.0000   1.0000
     1.0000   1.0000   1.0000   1.0000   1.0000   1.0000   1.0000   1.0000
     1.0000   1.0000   1.0000   1.0000   1.0000   1.0000   1.0000  -0.0000
    -0.0000  -0.0000  -0.0000  -0.0000  -0.0000  -0.0000  -0.0000  -0.0000
    -0.0000  -0.0000  -0.0000  -0.0000  -0.0000  -0.0000  -0.0000  -0.0000
    -0.0000  -0.0000  -0.0000  -0.0000  -0.0000  -0.0000

          k = 0.1693-1.1946-0.7108 ( 11906 PWs)   bands (ev):

   -27.8889 -27.8883 -27.8881 -27.8871 -27.8834 -27.8832 -27.8815 -27.8801
   -27.8788 -27.8786 -27.7311 -27.7244 -27.7241 -27.6951 -27.6943 -14.4264
   -14.4245 -14.4140 -14.4121 -14.4120 -14.4096 -14.4054 -14.4047 -14.4036
   -14.4024  -2.6687  -2.6471  -2.0515  -1.5567  -0.9629   3.9918   4.9135
     5.1953   5.5779   6.3228   6.4695   7.4195   7.4945   7.5119   9.9684
    10.1206  10.4711  11.3568  11.7479  12.1788  13.2744  14.0248  15.5003
    17.2077  17.2642  17.7351  17.9268  18.2063  18.2415  19.0608  19.0798
    19.3001  19.5609  19.7955  19.9549  20.3223  20.7949

     occupation numbers 
     1.0000   1.0000   1.0000   1.0000   1.0000   1.0000   1.0000   1.0000
     1.0000   1.0000   1.0000   1.0000   1.0000   1.0000   1.0000   1.0000
     1.0000   1.0000   1.0000   1.0000   1.0000   1.0000   1.0000   1.0000
     1.0000   1.0000   1.0000   1.0000   1.0000   1.0000   1.0000   1.0000
     1.0000   1.0000   1.0000   1.0000   1.0000   1.0000   1.0000  -0.0000
    -0.0000  -0.0000  -0.0000  -0.0000  -0.0000  -0.0000  -0.0000  -0.0000
    -0.0000  -0.0000  -0.0000  -0.0000  -0.0000  -0.0000  -0.0000  -0.0000
    -0.0000  -0.0000  -0.0000  -0.0000  -0.0000  -0.0000

          k = 0.1689-1.1947-0.2440 ( 11915 PWs)   bands (ev):

   -27.8888 -27.8883 -27.8879 -27.8873 -27.8836 -27.8828 -27.8817 -27.8801
   -27.8788 -27.8785 -27.7311 -27.7243 -27.7242 -27.6950 -27.6944 -14.4234
   -14.4219 -14.4139 -14.4124 -14.4118 -14.4108 -14.4074 -14.4065 -14.4038
   -14.4028  -2.8642  -2.5506  -1.8694  -1.4687  -1.1163   4.0649   4.9131
     5.3311   5.7093   5.7255   6.1037   6.9302   7.8779   8.0163   9.9149
    10.1747  11.0278  11.8365  12.3078  12.4173  12.7837  14.6318  14.7733
    15.6547  16.1418  16.8898  17.7922  17.8192  18.0496  18.5900  19.2897
    19.3721  19.8422  20.4203  20.6761  20.9044  21.2000

     occupation numbers 
     1.0000   1.0000   1.0000   1.0000   1.0000   1.0000   1.0000   1.0000
     1.0000   1.0000   1.0000   1.0000   1.0000   1.0000   1.0000   1.0000
     1.0000   1.0000   1.0000   1.0000   1.0000   1.0000   1.0000   1.0000
     1.0000   1.0000   1.0000   1.0000   1.0000   1.0000   1.0000   1.0000
     1.0000   1.0000   1.0000   1.0000   1.0000   1.0000   1.0000  -0.0000
    -0.0000  -0.0000  -0.0000  -0.0000  -0.0000  -0.0000  -0.0000  -0.0000
    -0.0000  -0.0000  -0.0000  -0.0000  -0.0000  -0.0000  -0.0000  -0.0000
    -0.0000  -0.0000  -0.0000  -0.0000  -0.0000  -0.0000

          k = 0.1679-0.7846-0.0000 ( 11899 PWs)   bands (ev):

   -27.8888 -27.8888 -27.8881 -27.8876 -27.8833 -27.8829 -27.8812 -27.8802
   -27.8792 -27.8786 -27.7313 -27.7242 -27.7241 -27.6951 -27.6947 -14.4216
   -14.4206 -14.4139 -14.4137 -14.4110 -14.4108 -14.4082 -14.4076 -14.4059
   -14.4049  -3.6510  -3.1250  -2.0247  -0.7067  -0.4665   4.9791   5.1138
     5.6646   5.8214   6.3120   6.4650   7.9268   7.9809   8.2765   9.5850
    10.1036  10.1656  11.3612  12.2575  12.2899  13.1434  13.2709  15.3337
    15.5740  15.9175  16.0195  16.1985  16.8276  16.9446  17.3846  17.8037
    19.0737  19.5715  19.7031  20.2099  20.4225  20.6272

     occupation numbers 
     1.0000   1.0000   1.0000   1.0000   1.0000   1.0000   1.0000   1.0000
     1.0000   1.0000   1.0000   1.0000   1.0000   1.0000   1.0000   1.0000
     1.0000   1.0000   1.0000   1.0000   1.0000   1.0000   1.0000   1.0000
     1.0000   1.0000   1.0000   1.0000   1.0000   1.0000   1.0000   1.0000
     1.0000   1.0000   1.0000   1.0000   1.0000   1.0000   1.0000  -0.0000
    -0.0000  -0.0000  -0.0000  -0.0000  -0.0000  -0.0000  -0.0000  -0.0000
    -0.0000  -0.0000  -0.0000  -0.0000  -0.0000  -0.0000  -0.0000  -0.0000
    -0.0000  -0.0000  -0.0000  -0.0000  -0.0000  -0.0000

          k = 0.1675-0.7847 0.4668 ( 11916 PWs)   bands (ev):

   -27.8889 -27.8885 -27.8881 -27.8874 -27.8833 -27.8831 -27.8813 -27.8802
   -27.8791 -27.8786 -27.7313 -27.7243 -27.7241 -27.6951 -27.6945 -14.4242
   -14.4225 -14.4128 -14.4124 -14.4110 -14.4108 -14.4074 -14.4060 -14.4055
   -14.4044  -3.4449  -2.9657  -1.9710  -0.9900  -0.5700   4.2372   5.3879
     5.7971   5.8286   6.4865   6.6053   7.0809   7.6369   7.6540   9.9729
    10.4198  11.0877  11.3108  11.4850  12.2308  12.3422  14.5618  14.9684
    15.5935  16.2110  16.6111  17.0546  17.6418  17.6823  17.7078  18.5061
    18.5286  18.6362  19.1658  21.1136  21.1652  21.5080

     occupation numbers 
     1.0000   1.0000   1.0000   1.0000   1.0000   1.0000   1.0000   1.0000
     1.0000   1.0000   1.0000   1.0000   1.0000   1.0000   1.0000   1.0000
     1.0000   1.0000   1.0000   1.0000   1.0000   1.0000   1.0000   1.0000
     1.0000   1.0000   1.0000   1.0000   1.0000   1.0000   1.0000   1.0000
     1.0000   1.0000   1.0000   1.0000   1.0000   1.0000   1.0000  -0.0000
    -0.0000  -0.0000  -0.0000  -0.0000  -0.0000  -0.0000  -0.0000  -0.0000
    -0.0000  -0.0000  -0.0000  -0.0000  -0.0000  -0.0000  -0.0000  -0.0000
    -0.0000  -0.0000  -0.0000  -0.0000  -0.0000  -0.0000

          k = 0.1670-0.7848 0.9336 ( 11915 PWs)   bands (ev):

   -27.8888 -27.8883 -27.8879 -27.8873 -27.8836 -27.8828 -27.8817 -27.8801
   -27.8788 -27.8785 -27.7311 -27.7243 -27.7242 -27.6950 -27.6944 -14.4234
   -14.4219 -14.4139 -14.4124 -14.4118 -14.4108 -14.4074 -14.4065 -14.4038
   -14.4028  -2.8642  -2.5506  -1.8694  -1.4687  -1.1163   4.0649   4.9131
     5.3311   5.7093   5.7255   6.1037   6.9302   7.8779   8.0163   9.9149
    10.1747  11.0278  11.8365  12.3078  12.4173  12.7837  14.6318  14.7733
    15.6547  16.1418  16.8898  17.7922  17.8192  18.0496  18.5900  19.2897
    19.3721  19.8422  20.4203  20.6761  20.9044  21.1991

     occupation numbers 
     1.0000   1.0000   1.0000   1.0000   1.0000   1.0000   1.0000   1.0000
     1.0000   1.0000   1.0000   1.0000   1.0000   1.0000   1.0000   1.0000
     1.0000   1.0000   1.0000   1.0000   1.0000   1.0000   1.0000   1.0000
     1.0000   1.0000   1.0000   1.0000   1.0000   1.0000   1.0000   1.0000
     1.0000   1.0000   1.0000   1.0000   1.0000   1.0000   1.0000  -0.0000
    -0.0000  -0.0000  -0.0000  -0.0000  -0.0000  -0.0000  -0.0000  -0.0000
    -0.0000  -0.0000  -0.0000  -0.0000  -0.0000  -0.0000  -0.0000  -0.0000
    -0.0000  -0.0000  -0.0000  -0.0000  -0.0000  -0.0000

          k = 0.1693-0.7843-1.4003 ( 11936 PWs)   bands (ev):

   -27.8888 -27.8880 -27.8879 -27.8873 -27.8839 -27.8823 -27.8822 -27.8801
   -27.8787 -27.8786 -27.7311 -27.7243 -27.7243 -27.6946 -27.6946 -14.4196
   -14.4195 -14.4174 -14.4139 -14.4095 -14.4091 -14.4089 -14.4084 -14.4037
   -14.4035  -2.1649  -2.1540  -1.8534  -1.8527  -1.7994   4.2530   4.6787
     4.7033   5.1992   5.7102   6.1891   6.9611   7.7395   7.9138  10.0822
    10.3862  11.1606  11.9592  12.6670  12.6839  14.2631  14.6534  14.8869
    14.9791  15.4139  16.4601  17.3175  17.4948  18.5171  18.5973  18.9425
    19.1972  19.8349  20.1252  21.1706  21.5383  21.8079

     occupation numbers 
     1.0000   1.0000   1.0000   1.0000   1.0000   1.0000   1.0000   1.0000
     1.0000   1.0000   1.0000   1.0000   1.0000   1.0000   1.0000   1.0000
     1.0000   1.0000   1.0000   1.0000   1.0000   1.0000   1.0000   1.0000
     1.0000   1.0000   1.0000   1.0000   1.0000   1.0000   1.0000   1.0000
     1.0000   1.0000   1.0000   1.0000   1.0000   1.0000   1.0000  -0.0000
    -0.0000  -0.0000  -0.0000  -0.0000  -0.0000  -0.0000  -0.0000  -0.0000
    -0.0000  -0.0000  -0.0000  -0.0000  -0.0000  -0.0000  -0.0000  -0.0000
    -0.0000  -0.0000  -0.0000  -0.0000  -0.0000  -0.0000

          k = 0.1689-0.7844-0.9336 ( 11915 PWs)   bands (ev):

   -27.8888 -27.8883 -27.8879 -27.8873 -27.8836 -27.8828 -27.8817 -27.8801
   -27.8788 -27.8785 -27.7311 -27.7243 -27.7242 -27.6950 -27.6944 -14.4234
   -14.4219 -14.4139 -14.4124 -14.4118 -14.4108 -14.4074 -14.4065 -14.4038
   -14.4028  -2.8642  -2.5506  -1.8694  -1.4687  -1.1163   4.0649   4.9131
     5.3311   5.7093   5.7255   6.1037   6.9302   7.8779   8.0163   9.9149
    10.1747  11.0278  11.8365  12.3078  12.4173  12.7837  14.6318  14.7733
    15.6547  16.1418  16.8898  17.7922  17.8192  18.0496  18.5900  19.2897
    19.3721  19.8422  20.4203  20.6761  20.9044  21.1992

     occupation numbers 
     1.0000   1.0000   1.0000   1.0000   1.0000   1.0000   1.0000   1.0000
     1.0000   1.0000   1.0000   1.0000   1.0000   1.0000   1.0000   1.0000
     1.0000   1.0000   1.0000   1.0000   1.0000   1.0000   1.0000   1.0000
     1.0000   1.0000   1.0000   1.0000   1.0000   1.0000   1.0000   1.0000
     1.0000   1.0000   1.0000   1.0000   1.0000   1.0000   1.0000  -0.0000
    -0.0000  -0.0000  -0.0000  -0.0000  -0.0000  -0.0000  -0.0000  -0.0000
    -0.0000  -0.0000  -0.0000  -0.0000  -0.0000  -0.0000  -0.0000  -0.0000
    -0.0000  -0.0000  -0.0000  -0.0000  -0.0000  -0.0000

          k = 0.1684-0.7845-0.4668 ( 11916 PWs)   bands (ev):

   -27.8889 -27.8885 -27.8881 -27.8874 -27.8833 -27.8831 -27.8813 -27.8802
   -27.8791 -27.8786 -27.7313 -27.7243 -27.7241 -27.6951 -27.6945 -14.4242
   -14.4225 -14.4128 -14.4124 -14.4110 -14.4108 -14.4074 -14.4060 -14.4055
   -14.4044  -3.4449  -2.9657  -1.9710  -0.9900  -0.5700   4.2372   5.3879
     5.7971   5.8286   6.4865   6.6053   7.0809   7.6369   7.6540   9.9729
    10.4198  11.0877  11.3108  11.4850  12.2308  12.3422  14.5618  14.9684
    15.5935  16.2110  16.6111  17.0546  17.6418  17.6823  17.7078  18.5061
    18.5286  18.6362  19.1658  21.1135  21.1651  21.5081

     occupation numbers 
     1.0000   1.0000   1.0000   1.0000   1.0000   1.0000   1.0000   1.0000
     1.0000   1.0000   1.0000   1.0000   1.0000   1.0000   1.0000   1.0000
     1.0000   1.0000   1.0000   1.0000   1.0000   1.0000   1.0000   1.0000
     1.0000   1.0000   1.0000   1.0000   1.0000   1.0000   1.0000   1.0000
     1.0000   1.0000   1.0000   1.0000   1.0000   1.0000   1.0000  -0.0000
    -0.0000  -0.0000  -0.0000  -0.0000  -0.0000  -0.0000  -0.0000  -0.0000
    -0.0000  -0.0000  -0.0000  -0.0000  -0.0000  -0.0000  -0.0000  -0.0000
    -0.0000  -0.0000  -0.0000  -0.0000  -0.0000  -0.0000

          k = 0.3350-0.7489-0.4456 ( 11906 PWs)   bands (ev):

   -27.8889 -27.8885 -27.8881 -27.8874 -27.8833 -27.8831 -27.8813 -27.8802
   -27.8791 -27.8786 -27.7313 -27.7243 -27.7241 -27.6951 -27.6945 -14.4242
   -14.4225 -14.4128 -14.4124 -14.4110 -14.4108 -14.4074 -14.4060 -14.4055
   -14.4044  -3.4315  -3.0019  -1.8947  -1.1069  -0.5078   4.3657   5.3199
     5.5618   5.9090   6.3094   6.3612   7.4560   7.8493   8.0789   9.5901
    10.1062  10.5361  11.4243  11.7446  12.4249  12.7183  14.0786  15.0338
    16.2220  16.3457  16.6688  16.9078  17.2709  17.8930  18.0939  18.1195
    18.3785  18.6285  19.3452  20.4858  20.7242  20.9011

     occupation numbers 
     1.0000   1.0000   1.0000   1.0000   1.0000   1.0000   1.0000   1.0000
     1.0000   1.0000   1.0000   1.0000   1.0000   1.0000   1.0000   1.0000
     1.0000   1.0000   1.0000   1.0000   1.0000   1.0000   1.0000   1.0000
     1.0000   1.0000   1.0000   1.0000   1.0000   1.0000   1.0000   1.0000
     1.0000   1.0000   1.0000   1.0000   1.0000   1.0000   1.0000  -0.0000
    -0.0000  -0.0000  -0.0000  -0.0000  -0.0000  -0.0000  -0.0000  -0.0000
    -0.0000  -0.0000  -0.0000  -0.0000  -0.0000  -0.0000  -0.0000  -0.0000
    -0.0000  -0.0000  -0.0000  -0.0000  -0.0000  -0.0000

          k = 0.3345-0.7490 0.0212 ( 11897 PWs)   bands (ev):

   -27.8888 -27.8888 -27.8881 -27.8876 -27.8833 -27.8829 -27.8812 -27.8802
   -27.8792 -27.8786 -27.7313 -27.7242 -27.7241 -27.6951 -27.6947 -14.4216
   -14.4206 -14.4139 -14.4137 -14.4110 -14.4108 -14.4082 -14.4076 -14.4059
   -14.4049  -3.6338  -3.1659  -1.9685  -0.8019  -0.4038   4.8843   5.1551
     5.5594   6.0941   6.2169   6.6252   7.6109   8.0763   8.1474   9.7245
    10.0193  10.5090  11.2804  12.0682  12.2619  13.2052  13.2985  14.7633
    15.2949  16.1976  16.3380  16.4819  16.9536  17.1933  17.4085  18.0890
    18.7733  19.1221  19.5786  20.1460  20.4114  20.7854

     occupation numbers 
     1.0000   1.0000   1.0000   1.0000   1.0000   1.0000   1.0000   1.0000
     1.0000   1.0000   1.0000   1.0000   1.0000   1.0000   1.0000   1.0000
     1.0000   1.0000   1.0000   1.0000   1.0000   1.0000   1.0000   1.0000
     1.0000   1.0000   1.0000   1.0000   1.0000   1.0000   1.0000   1.0000
     1.0000   1.0000   1.0000   1.0000   1.0000   1.0000   1.0000  -0.0000
    -0.0000  -0.0000  -0.0000  -0.0000  -0.0000  -0.0000  -0.0000  -0.0000
    -0.0000  -0.0000  -0.0000  -0.0000  -0.0000  -0.0000  -0.0000  -0.0000
    -0.0000  -0.0000  -0.0000  -0.0000  -0.0000  -0.0000

          k = 0.3341-0.7491 0.4880 ( 11884 PWs)   bands (ev):

   -27.8889 -27.8885 -27.8881 -27.8874 -27.8833 -27.8831 -27.8813 -27.8802
   -27.8791 -27.8786 -27.7312 -27.7243 -27.7241 -27.6951 -27.6945 -14.4242
   -14.4225 -14.4128 -14.4124 -14.4110 -14.4108 -14.4074 -14.4060 -14.4055
   -14.4044  -3.4264  -3.0020  -1.9578  -0.9034  -0.6549   4.2073   5.3235
     5.7877   5.9745   6.6164   6.7128   7.1574   7.2728   7.5115  10.1978
    10.6184  11.1051  11.2187  11.3437  12.1841  12.3366  14.3939  15.3624
    15.4298  16.1310  16.2617  17.0122  17.1674  17.6580  17.8822  18.7696
    18.9469  19.2705  19.7341  20.8676  21.0228  21.5228

     occupation numbers 
     1.0000   1.0000   1.0000   1.0000   1.0000   1.0000   1.0000   1.0000
     1.0000   1.0000   1.0000   1.0000   1.0000   1.0000   1.0000   1.0000
     1.0000   1.0000   1.0000   1.0000   1.0000   1.0000   1.0000   1.0000
     1.0000   1.0000   1.0000   1.0000   1.0000   1.0000   1.0000   1.0000
     1.0000   1.0000   1.0000   1.0000   1.0000   1.0000   1.0000  -0.0000
    -0.0000  -0.0000  -0.0000  -0.0000  -0.0000  -0.0000  -0.0000  -0.0000
    -0.0000  -0.0000  -0.0000  -0.0000  -0.0000  -0.0000  -0.0000  -0.0000
    -0.0000  -0.0000  -0.0000  -0.0000  -0.0000  -0.0000

          k = 0.3364-0.7486-1.8459 ( 11912 PWs)   bands (ev):

   -27.8888 -27.8883 -27.8879 -27.8873 -27.8836 -27.8828 -27.8817 -27.8801
   -27.8788 -27.8785 -27.7311 -27.7243 -27.7242 -27.6950 -27.6944 -14.4234
   -14.4219 -14.4139 -14.4124 -14.4118 -14.4108 -14.4074 -14.4065 -14.4038
   -14.4028  -2.8496  -2.5695  -1.8973  -1.3949  -1.1579   4.1823   5.0011
     5.1774   5.4116   5.6709   6.0141   7.4325   8.0386   8.1953   9.7004
     9.9854  10.4099  11.9314  12.3908  12.7988  12.8819  14.5967  15.1894
    15.3956  15.8292  16.8088  17.8304  17.9041  18.2032  18.8852  19.3349
    19.3546  19.7830  20.1366  20.6400  20.7702  21.2272

     occupation numbers 
     1.0000   1.0000   1.0000   1.0000   1.0000   1.0000   1.0000   1.0000
     1.0000   1.0000   1.0000   1.0000   1.0000   1.0000   1.0000   1.0000
     1.0000   1.0000   1.0000   1.0000   1.0000   1.0000   1.0000   1.0000
     1.0000   1.0000   1.0000   1.0000   1.0000   1.0000   1.0000   1.0000
     1.0000   1.0000   1.0000   1.0000   1.0000   1.0000   1.0000  -0.0000
    -0.0000  -0.0000  -0.0000  -0.0000  -0.0000  -0.0000  -0.0000  -0.0000
    -0.0000  -0.0000  -0.0000  -0.0000  -0.0000  -0.0000  -0.0000  -0.0000
    -0.0000  -0.0000  -0.0000  -0.0000  -0.0000  -0.0000

          k = 0.3359-0.7487-1.3791 ( 11913 PWs)   bands (ev):

   -27.8888 -27.8880 -27.8879 -27.8873 -27.8839 -27.8823 -27.8822 -27.8800
   -27.8787 -27.8786 -27.7311 -27.7243 -27.7243 -27.6946 -27.6946 -14.4196
   -14.4195 -14.4174 -14.4139 -14.4095 -14.4091 -14.4089 -14.4084 -14.4037
   -14.4035  -2.1649  -2.1540  -1.8534  -1.8527  -1.7994   4.2552   4.6088
     4.8128   5.1133   5.9419   5.9475   7.1426   7.4628   8.0805   9.9299
    10.7903  10.8159  12.1744  12.3895  12.8220  14.2620  14.7269  14.7366
    15.1082  15.3436  16.6108  16.9193  18.1024  18.1846  18.5314  18.8430
    19.2163  19.9778  20.5322  20.8712  20.9246  22.0691

     occupation numbers 
     1.0000   1.0000   1.0000   1.0000   1.0000   1.0000   1.0000   1.0000
     1.0000   1.0000   1.0000   1.0000   1.0000   1.0000   1.0000   1.0000
     1.0000   1.0000   1.0000   1.0000   1.0000   1.0000   1.0000   1.0000
     1.0000   1.0000   1.0000   1.0000   1.0000   1.0000   1.0000   1.0000
     1.0000   1.0000   1.0000   1.0000   1.0000   1.0000   1.0000  -0.0000
    -0.0000  -0.0000  -0.0000  -0.0000  -0.0000  -0.0000  -0.0000  -0.0000
    -0.0000  -0.0000  -0.0000  -0.0000  -0.0000  -0.0000  -0.0000  -0.0000
    -0.0000  -0.0000  -0.0000  -0.0000  -0.0000  -0.0000

          k = 0.3354-0.7488-0.9123 ( 11920 PWs)   bands (ev):

   -27.8888 -27.8884 -27.8879 -27.8873 -27.8836 -27.8828 -27.8817 -27.8801
   -27.8788 -27.8785 -27.7311 -27.7243 -27.7242 -27.6950 -27.6944 -14.4234
   -14.4219 -14.4138 -14.4124 -14.4118 -14.4108 -14.4074 -14.4065 -14.4038
   -14.4028  -2.8563  -2.5727  -1.8166  -1.5183  -1.1053   4.0521   4.8014
     5.2270   5.7688   6.0918   6.3461   6.8205   7.4828   7.6680  10.3787
    10.5265  11.2161  11.5994  12.0898  12.2573  12.8323  14.0303  14.7465
    16.1547  16.7788  17.1360  17.3351  17.8616  18.0798  18.6637  19.0691
    19.2896  19.7160  19.9862  20.1790  20.5893  21.0015

     occupation numbers 
     1.0000   1.0000   1.0000   1.0000   1.0000   1.0000   1.0000   1.0000
     1.0000   1.0000   1.0000   1.0000   1.0000   1.0000   1.0000   1.0000
     1.0000   1.0000   1.0000   1.0000   1.0000   1.0000   1.0000   1.0000
     1.0000   1.0000   1.0000   1.0000   1.0000   1.0000   1.0000   1.0000
     1.0000   1.0000   1.0000   1.0000   1.0000   1.0000   1.0000  -0.0000
    -0.0000  -0.0000  -0.0000  -0.0000  -0.0000  -0.0000  -0.0000  -0.0000
    -0.0000  -0.0000  -0.0000  -0.0000  -0.0000  -0.0000  -0.0000  -0.0000
    -0.0000  -0.0000  -0.0000  -0.0000  -0.0000  -0.0000

          k = 0.3345-0.3387-0.6683 ( 11897 PWs)   bands (ev):

   -27.8888 -27.8888 -27.8881 -27.8876 -27.8833 -27.8829 -27.8812 -27.8802
   -27.8792 -27.8786 -27.7313 -27.7242 -27.7241 -27.6951 -27.6947 -14.4216
   -14.4206 -14.4139 -14.4137 -14.4110 -14.4108 -14.4082 -14.4076 -14.4059
   -14.4049  -3.6338  -3.1659  -1.9685  -0.8019  -0.4038   4.8843   5.1551
     5.5594   6.0941   6.2169   6.6252   7.6109   8.0763   8.1474   9.7245
    10.0193  10.5090  11.2804  12.0682  12.2619  13.2052  13.2985  14.7633
    15.2949  16.1976  16.3380  16.4819  16.9536  17.1933  17.4085  18.0890
    18.7733  19.1221  19.5785  20.1460  20.4114  20.7852

     occupation numbers 
     1.0000   1.0000   1.0000   1.0000   1.0000   1.0000   1.0000   1.0000
     1.0000   1.0000   1.0000   1.0000   1.0000   1.0000   1.0000   1.0000
     1.0000   1.0000   1.0000   1.0000   1.0000   1.0000   1.0000   1.0000
     1.0000   1.0000   1.0000   1.0000   1.0000   1.0000   1.0000   1.0000
     1.0000   1.0000   1.0000   1.0000   1.0000   1.0000   1.0000  -0.0000
    -0.0000  -0.0000  -0.0000  -0.0000  -0.0000  -0.0000  -0.0000  -0.0000
    -0.0000  -0.0000  -0.0000  -0.0000  -0.0000  -0.0000  -0.0000  -0.0000
    -0.0000  -0.0000  -0.0000  -0.0000  -0.0000  -0.0000

          k = 0.3341-0.3388-0.2016 ( 11906 PWs)   bands (ev):

   -27.8890 -27.8889 -27.8882 -27.8880 -27.8830 -27.8829 -27.8808 -27.8803
   -27.8796 -27.8789 -27.7315 -27.7241 -27.7241 -27.6951 -27.6949 -14.4205
   -14.4192 -14.4165 -14.4154 -14.4101 -14.4092 -14.4085 -14.4082 -14.4077
   -14.4066  -4.0554  -3.5813  -2.1101  -0.6143   0.2576   5.5058   5.8723
     6.4418   6.5137   6.8678   7.2455   7.8167   7.9028   8.1485   9.6813
    10.0634  10.3622  10.7477  10.8779  11.3756  13.1366  14.0901  14.6548
    15.0443  15.1522  15.5428  16.1625  16.5430  17.1923  17.4555  17.5708
    17.7750  17.7806  18.1542  18.8657  19.0083  19.5630

     occupation numbers 
     1.0000   1.0000   1.0000   1.0000   1.0000   1.0000   1.0000   1.0000
     1.0000   1.0000   1.0000   1.0000   1.0000   1.0000   1.0000   1.0000
     1.0000   1.0000   1.0000   1.0000   1.0000   1.0000   1.0000   1.0000
     1.0000   1.0000   1.0000   1.0000   1.0000   1.0000   1.0000   1.0000
     1.0000   1.0000   1.0000   1.0000   1.0000   1.0000   1.0000  -0.0000
    -0.0000  -0.0000  -0.0000  -0.0000  -0.0000  -0.0000  -0.0000  -0.0000
    -0.0000  -0.0000  -0.0000  -0.0000  -0.0000  -0.0000  -0.0000  -0.0000
    -0.0000  -0.0000  -0.0000  -0.0000  -0.0000  -0.0000

          k = 0.3336-0.3389 0.2652 ( 11898 PWs)   bands (ev):

   -27.8890 -27.8889 -27.8882 -27.8880 -27.8830 -27.8829 -27.8808 -27.8803
   -27.8796 -27.8789 -27.7315 -27.7241 -27.7241 -27.6951 -27.6949 -14.4205
   -14.4192 -14.4165 -14.4154 -14.4101 -14.4092 -14.4085 -14.4082 -14.4077
   -14.4066  -4.0412  -3.6095  -2.0745  -0.6436   0.2570   5.4701   6.2263
     6.3232   6.4414   6.8855   7.0083   7.8369   7.9514   8.1890   9.5746
     9.8825  10.1404  10.9550  11.1398  11.6362  13.3621  13.8868  14.4696
    14.8412  15.5175  15.6868  16.2539  16.2543  16.4573  16.5958  17.2836
    17.6469  18.0515  19.0388  19.2501  19.5170  20.0580

     occupation numbers 
     1.0000   1.0000   1.0000   1.0000   1.0000   1.0000   1.0000   1.0000
     1.0000   1.0000   1.0000   1.0000   1.0000   1.0000   1.0000   1.0000
     1.0000   1.0000   1.0000   1.0000   1.0000   1.0000   1.0000   1.0000
     1.0000   1.0000   1.0000   1.0000   1.0000   1.0000   1.0000   1.0000
     1.0000   1.0000   1.0000   1.0000   1.0000   1.0000   1.0000  -0.0000
    -0.0000  -0.0000  -0.0000  -0.0000  -0.0000  -0.0000  -0.0000  -0.0000
    -0.0000  -0.0000  -0.0000  -0.0000  -0.0000  -0.0000  -0.0000  -0.0000
    -0.0000  -0.0000  -0.0000  -0.0000  -0.0000  -0.0000

          k = 0.3359-0.3384-2.0687 ( 11894 PWs)   bands (ev):

   -27.8888 -27.8888 -27.8881 -27.8876 -27.8833 -27.8829 -27.8812 -27.8802
   -27.8792 -27.8787 -27.7313 -27.7242 -27.7241 -27.6951 -27.6947 -14.4216
   -14.4206 -14.4139 -14.4137 -14.4110 -14.4108 -14.4082 -14.4076 -14.4059
   -14.4049  -3.5907  -3.2515  -1.8488  -0.9546  -0.3284   4.7915   5.0742
     5.6580   6.1538   6.4094   6.8590   7.3847   7.8162   7.8774  10.0626
    10.2508  10.8519  11.0720  11.7648  12.0719  13.3763  13.3910  14.1941
    14.7788  16.5093  16.7255  16.8543  17.2377  17.6245  17.9514  18.2553
    18.6315  18.6836  18.9691  19.7583  20.2011  20.4533

     occupation numbers 
     1.0000   1.0000   1.0000   1.0000   1.0000   1.0000   1.0000   1.0000
     1.0000   1.0000   1.0000   1.0000   1.0000   1.0000   1.0000   1.0000
     1.0000   1.0000   1.0000   1.0000   1.0000   1.0000   1.0000   1.0000
     1.0000   1.0000   1.0000   1.0000   1.0000   1.0000   1.0000   1.0000
     1.0000   1.0000   1.0000   1.0000   1.0000   1.0000   1.0000  -0.0000
    -0.0000  -0.0000  -0.0000  -0.0000  -0.0000  -0.0000  -0.0000  -0.0000
    -0.0000  -0.0000  -0.0000  -0.0000  -0.0000  -0.0000  -0.0000  -0.0000
    -0.0000  -0.0000  -0.0000  -0.0000  -0.0000  -0.0000

          k = 0.3354-0.3385-1.6019 ( 11918 PWs)   bands (ev):

   -27.8888 -27.8883 -27.8879 -27.8873 -27.8836 -27.8828 -27.8817 -27.8801
   -27.8788 -27.8785 -27.7311 -27.7243 -27.7242 -27.6950 -27.6944 -14.4234
   -14.4219 -14.4139 -14.4124 -14.4118 -14.4108 -14.4074 -14.4065 -14.4038
   -14.4028  -2.8059  -2.6438  -1.8408  -1.4072  -1.1715   4.3059   4.8033
     4.9969   5.1735   6.1283   6.5637   7.3431   7.5466   7.8120   9.9842
    10.4357  10.6624  11.6028  11.9620  12.9218  13.1431  13.7237  14.8060
    16.1986  16.9068  17.1017  17.8118  17.9631  18.1940  18.6453  18.7726
    19.2997  19.6348  19.8094  19.9796  20.3383  21.1016

     occupation numbers 
     1.0000   1.0000   1.0000   1.0000   1.0000   1.0000   1.0000   1.0000
     1.0000   1.0000   1.0000   1.0000   1.0000   1.0000   1.0000   1.0000
     1.0000   1.0000   1.0000   1.0000   1.0000   1.0000   1.0000   1.0000
     1.0000   1.0000   1.0000   1.0000   1.0000   1.0000   1.0000   1.0000
     1.0000   1.0000   1.0000   1.0000   1.0000   1.0000   1.0000  -0.0000
    -0.0000  -0.0000  -0.0000  -0.0000  -0.0000  -0.0000  -0.0000  -0.0000
    -0.0000  -0.0000  -0.0000  -0.0000  -0.0000  -0.0000  -0.0000  -0.0000
    -0.0000  -0.0000  -0.0000  -0.0000  -0.0000  -0.0000

          k = 0.3350-0.3386-1.1351 ( 11915 PWs)   bands (ev):

   -27.8888 -27.8883 -27.8879 -27.8873 -27.8836 -27.8828 -27.8817 -27.8801
   -27.8788 -27.8785 -27.7311 -27.7243 -27.7242 -27.6950 -27.6944 -14.4234
   -14.4219 -14.4139 -14.4124 -14.4118 -14.4108 -14.4074 -14.4065 -14.4038
   -14.4028  -2.8642  -2.5506  -1.8694  -1.4687  -1.1163   4.0649   4.9131
     5.3311   5.7093   5.7255   6.1037   6.9302   7.8779   8.0163   9.9149
    10.1747  11.0278  11.8365  12.3078  12.4173  12.7837  14.6318  14.7733
    15.6547  16.1418  16.8898  17.7922  17.8192  18.0496  18.5900  19.2897
    19.3721  19.8422  20.4203  20.6761  20.9044  21.1990

     occupation numbers 
     1.0000   1.0000   1.0000   1.0000   1.0000   1.0000   1.0000   1.0000
     1.0000   1.0000   1.0000   1.0000   1.0000   1.0000   1.0000   1.0000
     1.0000   1.0000   1.0000   1.0000   1.0000   1.0000   1.0000   1.0000
     1.0000   1.0000   1.0000   1.0000   1.0000   1.0000   1.0000   1.0000
     1.0000   1.0000   1.0000   1.0000   1.0000   1.0000   1.0000  -0.0000
    -0.0000  -0.0000  -0.0000  -0.0000  -0.0000  -0.0000  -0.0000  -0.0000
    -0.0000  -0.0000  -0.0000  -0.0000  -0.0000  -0.0000  -0.0000  -0.0000
    -0.0000  -0.0000  -0.0000  -0.0000  -0.0000  -0.0000

          k = 0.3341 0.0715-0.8911 ( 11884 PWs)   bands (ev):

   -27.8889 -27.8885 -27.8881 -27.8874 -27.8833 -27.8831 -27.8813 -27.8802
   -27.8791 -27.8786 -27.7312 -27.7243 -27.7241 -27.6951 -27.6945 -14.4242
   -14.4225 -14.4128 -14.4124 -14.4110 -14.4108 -14.4074 -14.4060 -14.4055
   -14.4044  -3.4264  -3.0020  -1.9578  -0.9034  -0.6549   4.2073   5.3235
     5.7877   5.9745   6.6164   6.7128   7.1574   7.2728   7.5115  10.1978
    10.6184  11.1051  11.2187  11.3437  12.1841  12.3366  14.3939  15.3624
    15.4298  16.1310  16.2617  17.0122  17.1674  17.6580  17.8822  18.7696
    18.9469  19.2705  19.7342  20.8676  21.0228  21.5233

     occupation numbers 
     1.0000   1.0000   1.0000   1.0000   1.0000   1.0000   1.0000   1.0000
     1.0000   1.0000   1.0000   1.0000   1.0000   1.0000   1.0000   1.0000
     1.0000   1.0000   1.0000   1.0000   1.0000   1.0000   1.0000   1.0000
     1.0000   1.0000   1.0000   1.0000   1.0000   1.0000   1.0000   1.0000
     1.0000   1.0000   1.0000   1.0000   1.0000   1.0000   1.0000  -0.0000
    -0.0000  -0.0000  -0.0000  -0.0000  -0.0000  -0.0000  -0.0000  -0.0000
    -0.0000  -0.0000  -0.0000  -0.0000  -0.0000  -0.0000  -0.0000  -0.0000
    -0.0000  -0.0000  -0.0000  -0.0000  -0.0000  -0.0000

          k = 0.3336 0.0714-0.4243 ( 11898 PWs)   bands (ev):

   -27.8890 -27.8889 -27.8882 -27.8880 -27.8830 -27.8829 -27.8808 -27.8803
   -27.8796 -27.8789 -27.7315 -27.7241 -27.7241 -27.6951 -27.6949 -14.4205
   -14.4192 -14.4165 -14.4154 -14.4101 -14.4092 -14.4085 -14.4082 -14.4077
   -14.4066  -4.0412  -3.6095  -2.0745  -0.6436   0.2570   5.4701   6.2263
     6.3232   6.4414   6.8855   7.0083   7.8369   7.9514   8.1890   9.5746
     9.8825  10.1404  10.9550  11.1398  11.6362  13.3621  13.8868  14.4696
    14.8412  15.5175  15.6868  16.2539  16.2543  16.4573  16.5958  17.2836
    17.6469  18.0515  19.0388  19.2501  19.5169  20.0606

     occupation numbers 
     1.0000   1.0000   1.0000   1.0000   1.0000   1.0000   1.0000   1.0000
     1.0000   1.0000   1.0000   1.0000   1.0000   1.0000   1.0000   1.0000
     1.0000   1.0000   1.0000   1.0000   1.0000   1.0000   1.0000   1.0000
     1.0000   1.0000   1.0000   1.0000   1.0000   1.0000   1.0000   1.0000
     1.0000   1.0000   1.0000   1.0000   1.0000   1.0000   1.0000  -0.0000
    -0.0000  -0.0000  -0.0000  -0.0000  -0.0000  -0.0000  -0.0000  -0.0000
    -0.0000  -0.0000  -0.0000  -0.0000  -0.0000  -0.0000  -0.0000  -0.0000
    -0.0000  -0.0000  -0.0000  -0.0000  -0.0000  -0.0000

          k = 0.3332 0.0713 0.0424 ( 11956 PWs)   bands (ev):

   -27.8891 -27.8891 -27.8883 -27.8883 -27.8828 -27.8828 -27.8804 -27.8804
   -27.8798 -27.8791 -27.7316 -27.7241 -27.7241 -27.6952 -27.6952 -14.4192
   -14.4192 -14.4181 -14.4181 -14.4111 -14.4101 -14.4076 -14.4076 -14.4067
   -14.4067  -4.2470  -3.8543  -2.1275  -0.6759   0.7022   6.2341   7.0044
     7.0044   7.0981   7.2947   7.2947   7.7599   7.7599   8.3639   9.3268
     9.7297   9.7297  10.4666  10.5505  10.5505  13.6720  14.4388  14.4748
    14.4748  15.6245  15.8145  15.9119  15.9119  16.4293  16.6029  16.6029
    17.2292  17.2292  17.5190  18.1079  18.1079  18.9672

     occupation numbers 
     1.0000   1.0000   1.0000   1.0000   1.0000   1.0000   1.0000   1.0000
     1.0000   1.0000   1.0000   1.0000   1.0000   1.0000   1.0000   1.0000
     1.0000   1.0000   1.0000   1.0000   1.0000   1.0000   1.0000   1.0000
     1.0000   1.0000   1.0000   1.0000   1.0000   1.0000   1.0000   1.0000
     1.0000   1.0000   1.0000   1.0000   1.0000   1.0000   1.0000  -0.0000
    -0.0000  -0.0000  -0.0000  -0.0000  -0.0000  -0.0000  -0.0000  -0.0000
    -0.0000  -0.0000  -0.0000  -0.0000  -0.0000  -0.0000  -0.0000  -0.0000
    -0.0000  -0.0000  -0.0000  -0.0000  -0.0000  -0.0000

          k = 0.3354 0.0718-2.2915 ( 11903 PWs)   bands (ev):

   -27.8890 -27.8889 -27.8882 -27.8880 -27.8830 -27.8829 -27.8808 -27.8804
   -27.8795 -27.8789 -27.7315 -27.7241 -27.7241 -27.6951 -27.6949 -14.4205
   -14.4192 -14.4165 -14.4154 -14.4101 -14.4092 -14.4085 -14.4082 -14.4077
   -14.4066  -4.0055  -3.6754  -1.9636  -0.8183   0.3613   5.4222   6.0833
     6.4757   6.5636   6.7765   7.0864   7.5836   7.9984   8.4156   9.4222
     9.8574  10.5726  10.8649  11.0601  11.3299  13.2881  14.2056  14.3748
    14.7567  15.1209  15.6420  16.0808  16.5644  16.9553  17.1933  17.4529
    18.0497  18.0618  18.1942  18.6024  19.6717  20.0439

     occupation numbers 
     1.0000   1.0000   1.0000   1.0000   1.0000   1.0000   1.0000   1.0000
     1.0000   1.0000   1.0000   1.0000   1.0000   1.0000   1.0000   1.0000
     1.0000   1.0000   1.0000   1.0000   1.0000   1.0000   1.0000   1.0000
     1.0000   1.0000   1.0000   1.0000   1.0000   1.0000   1.0000   1.0000
     1.0000   1.0000   1.0000   1.0000   1.0000   1.0000   1.0001  -0.0000
    -0.0000  -0.0000  -0.0000  -0.0000  -0.0000  -0.0000  -0.0000  -0.0000
    -0.0000  -0.0000  -0.0000  -0.0000  -0.0000  -0.0000  -0.0000  -0.0000
    -0.0000  -0.0000  -0.0000  -0.0000  -0.0000  -0.0000

          k = 0.3350 0.0717-1.8247 ( 11918 PWs)   bands (ev):

   -27.8889 -27.8885 -27.8882 -27.8874 -27.8833 -27.8831 -27.8813 -27.8802
   -27.8791 -27.8786 -27.7313 -27.7243 -27.7241 -27.6951 -27.6945 -14.4242
   -14.4225 -14.4128 -14.4124 -14.4110 -14.4108 -14.4074 -14.4060 -14.4055
   -14.4044  -3.3615  -3.1230  -1.7922  -1.1178  -0.5553   4.4607   5.0189
     5.7968   5.8673   6.2320   6.3857   7.7903   7.7964   8.0256   9.6562
    10.0719  10.1091  11.4491  11.8213  12.5425  12.9448  13.6906  15.3361
    15.8251  16.4660  16.5329  16.5920  17.2217  17.5018  18.5385  18.7883
    19.1534  19.5065  19.8370  19.8482  20.2773  20.9865

     occupation numbers 
     1.0000   1.0000   1.0000   1.0000   1.0000   1.0000   1.0000   1.0000
     1.0000   1.0000   1.0000   1.0000   1.0000   1.0000   1.0000   1.0000
     1.0000   1.0000   1.0000   1.0000   1.0000   1.0000   1.0000   1.0000
     1.0000   1.0000   1.0000   1.0000   1.0000   1.0000   1.0000   1.0000
     1.0000   1.0000   1.0000   1.0000   1.0000   1.0000   1.0000  -0.0000
    -0.0000  -0.0000  -0.0000  -0.0000  -0.0000  -0.0000  -0.0000  -0.0000
    -0.0000  -0.0000  -0.0000  -0.0000  -0.0000  -0.0000  -0.0000  -0.0000
    -0.0000  -0.0000  -0.0000  -0.0000  -0.0000  -0.0000

          k = 0.3345 0.0716-1.3579 ( 11906 PWs)   bands (ev):

   -27.8889 -27.8883 -27.8881 -27.8871 -27.8834 -27.8832 -27.8815 -27.8801
   -27.8788 -27.8786 -27.7311 -27.7244 -27.7241 -27.6951 -27.6943 -14.4264
   -14.4245 -14.4140 -14.4121 -14.4120 -14.4096 -14.4054 -14.4047 -14.4036
   -14.4024  -2.6687  -2.6471  -2.0515  -1.5567  -0.9629   3.9918   4.9135
     5.1953   5.5779   6.3228   6.4695   7.4195   7.4945   7.5119   9.9684
    10.1206  10.4711  11.3568  11.7479  12.1788  13.2744  14.0248  15.5003
    17.2077  17.2642  17.7351  17.9268  18.2063  18.2415  19.0608  19.0798
    19.3001  19.5609  19.7955  19.9549  20.3223  20.7955

     occupation numbers 
     1.0000   1.0000   1.0000   1.0000   1.0000   1.0000   1.0000   1.0000
     1.0000   1.0000   1.0000   1.0000   1.0000   1.0000   1.0000   1.0000
     1.0000   1.0000   1.0000   1.0000   1.0000   1.0000   1.0000   1.0000
     1.0000   1.0000   1.0000   1.0000   1.0000   1.0000   1.0000   1.0000
     1.0000   1.0000   1.0000   1.0000   1.0000   1.0000   1.0000  -0.0000
    -0.0000  -0.0000  -0.0000  -0.0000  -0.0000  -0.0000  -0.0000  -0.0000
    -0.0000  -0.0000  -0.0000  -0.0000  -0.0000  -0.0000  -0.0000  -0.0000
    -0.0000  -0.0000  -0.0000  -0.0000  -0.0000  -0.0000

          k = 0.3364-1.9794 0.2228 ( 11912 PWs)   bands (ev):

   -27.8888 -27.8883 -27.8879 -27.8873 -27.8836 -27.8828 -27.8817 -27.8801
   -27.8788 -27.8785 -27.7311 -27.7243 -27.7242 -27.6950 -27.6944 -14.4234
   -14.4219 -14.4139 -14.4124 -14.4118 -14.4108 -14.4074 -14.4065 -14.4038
   -14.4028  -2.8496  -2.5695  -1.8973  -1.3949  -1.1579   4.1823   5.0011
     5.1774   5.4116   5.6709   6.0141   7.4325   8.0386   8.1953   9.7004
     9.9854  10.4099  11.9314  12.3908  12.7988  12.8819  14.5967  15.1894
    15.3956  15.8292  16.8088  17.8304  17.9041  18.2032  18.8852  19.3349
    19.3546  19.7830  20.1366  20.6400  20.7703  21.2287

     occupation numbers 
     1.0000   1.0000   1.0000   1.0000   1.0000   1.0000   1.0000   1.0000
     1.0000   1.0000   1.0000   1.0000   1.0000   1.0000   1.0000   1.0000
     1.0000   1.0000   1.0000   1.0000   1.0000   1.0000   1.0000   1.0000
     1.0000   1.0000   1.0000   1.0000   1.0000   1.0000   1.0000   1.0000
     1.0000   1.0000   1.0000   1.0000   1.0000   1.0000   1.0000  -0.0000
    -0.0000  -0.0000  -0.0000  -0.0000  -0.0000  -0.0000  -0.0000  -0.0000
    -0.0000  -0.0000  -0.0000  -0.0000  -0.0000  -0.0000  -0.0000  -0.0000
    -0.0000  -0.0000  -0.0000  -0.0000  -0.0000  -0.0000

          k = 0.3359-1.9795 0.6896 ( 11894 PWs)   bands (ev):

   -27.8888 -27.8888 -27.8881 -27.8876 -27.8833 -27.8829 -27.8812 -27.8802
   -27.8792 -27.8787 -27.7313 -27.7242 -27.7241 -27.6951 -27.6947 -14.4216
   -14.4206 -14.4139 -14.4137 -14.4110 -14.4108 -14.4082 -14.4076 -14.4059
   -14.4049  -3.5907  -3.2515  -1.8488  -0.9546  -0.3284   4.7915   5.0742
     5.6580   6.1538   6.4094   6.8590   7.3847   7.8162   7.8774  10.0626
    10.2508  10.8519  11.0720  11.7648  12.0719  13.3763  13.3910  14.1941
    14.7788  16.5093  16.7255  16.8543  17.2377  17.6245  17.9514  18.2553
    18.6315  18.6836  18.9691  19.7583  20.2011  20.4532

     occupation numbers 
     1.0000   1.0000   1.0000   1.0000   1.0000   1.0000   1.0000   1.0000
     1.0000   1.0000   1.0000   1.0000   1.0000   1.0000   1.0000   1.0000
     1.0000   1.0000   1.0000   1.0000   1.0000   1.0000   1.0000   1.0000
     1.0000   1.0000   1.0000   1.0000   1.0000   1.0000   1.0000   1.0000
     1.0000   1.0000   1.0000   1.0000   1.0000   1.0000   1.0000  -0.0000
    -0.0000  -0.0000  -0.0000  -0.0000  -0.0000  -0.0000  -0.0000  -0.0000
    -0.0000  -0.0000  -0.0000  -0.0000  -0.0000  -0.0000  -0.0000  -0.0000
    -0.0000  -0.0000  -0.0000  -0.0000  -0.0000  -0.0000

          k = 0.3354-1.9796 1.1563 ( 11903 PWs)   bands (ev):

   -27.8890 -27.8889 -27.8882 -27.8880 -27.8830 -27.8829 -27.8808 -27.8804
   -27.8795 -27.8789 -27.7315 -27.7241 -27.7241 -27.6951 -27.6949 -14.4205
   -14.4192 -14.4165 -14.4154 -14.4101 -14.4092 -14.4085 -14.4082 -14.4077
   -14.4066  -4.0055  -3.6754  -1.9636  -0.8183   0.3613   5.4222   6.0833
     6.4757   6.5636   6.7765   7.0864   7.5836   7.9984   8.4156   9.4222
     9.8574  10.5726  10.8649  11.0601  11.3299  13.2881  14.2056  14.3748
    14.7567  15.1209  15.6420  16.0808  16.5644  16.9553  17.1933  17.4529
    18.0497  18.0618  18.1942  18.6024  19.6719  20.0438

     occupation numbers 
     1.0000   1.0000   1.0000   1.0000   1.0000   1.0000   1.0000   1.0000
     1.0000   1.0000   1.0000   1.0000   1.0000   1.0000   1.0000   1.0000
     1.0000   1.0000   1.0000   1.0000   1.0000   1.0000   1.0000   1.0000
     1.0000   1.0000   1.0000   1.0000   1.0000   1.0000   1.0000   1.0000
     1.0000   1.0000   1.0000   1.0000   1.0000   1.0000   1.0001  -0.0000
    -0.0000  -0.0000  -0.0000  -0.0000  -0.0000  -0.0000  -0.0000  -0.0000
    -0.0000  -0.0000  -0.0000  -0.0000  -0.0000  -0.0000  -0.0000  -0.0000
    -0.0000  -0.0000  -0.0000  -0.0000  -0.0000  -0.0000

          k = 0.3377-1.9791-1.1776 ( 11888 PWs)   bands (ev):

   -27.8890 -27.8889 -27.8882 -27.8880 -27.8830 -27.8829 -27.8808 -27.8803
   -27.8795 -27.8789 -27.7315 -27.7241 -27.7241 -27.6951 -27.6949 -14.4205
   -14.4192 -14.4165 -14.4154 -14.4101 -14.4092 -14.4085 -14.4082 -14.4077
   -14.4066  -3.9950  -3.6922  -1.9434  -0.8352   0.3600   5.4143   6.3128
     6.4063   6.5047   6.8183   6.8632   7.7033   7.9722   8.4140   9.3852
     9.7861  10.4033  10.9928  11.1719  11.4850  13.4306  13.9937  14.2905
    14.9434  15.1115  15.6744  16.0749  16.3747  16.4891  16.8507  17.7540
    17.7791  18.1695  18.4466  19.2056  19.7009  19.9023

     occupation numbers 
     1.0000   1.0000   1.0000   1.0000   1.0000   1.0000   1.0000   1.0000
     1.0000   1.0000   1.0000   1.0000   1.0000   1.0000   1.0000   1.0000
     1.0000   1.0000   1.0000   1.0000   1.0000   1.0000   1.0000   1.0000
     1.0000   1.0000   1.0000   1.0000   1.0000   1.0000   1.0000   1.0000
     1.0000   1.0000   1.0000   1.0000   1.0000   1.0000   1.0001  -0.0000
    -0.0000  -0.0000  -0.0000  -0.0000  -0.0000  -0.0000  -0.0000  -0.0000
    -0.0000  -0.0000  -0.0000  -0.0000  -0.0000  -0.0000  -0.0000  -0.0000
    -0.0000  -0.0000  -0.0000  -0.0000  -0.0000  -0.0000

          k = 0.3373-1.9792-0.7108 ( 11900 PWs)   bands (ev):

   -27.8888 -27.8888 -27.8881 -27.8876 -27.8833 -27.8829 -27.8812 -27.8802
   -27.8792 -27.8787 -27.7313 -27.7242 -27.7241 -27.6951 -27.6947 -14.4216
   -14.4206 -14.4139 -14.4137 -14.4110 -14.4108 -14.4082 -14.4076 -14.4059
   -14.4049  -3.5608  -3.3006  -1.7812  -1.0311  -0.3003   4.7594   5.0242
     5.7216   6.2704   6.3466   7.2304   7.2423   7.6320   7.6343  10.2423
    10.6703  10.7345  10.9234  11.7692  11.8316  13.4616  13.5665  13.8660
    14.5608  16.5365  16.8920  17.2258  17.4518  17.7229  18.0663  18.4513
    18.5233  18.5628  19.0359  19.3690  19.8657  20.2323

     occupation numbers 
     1.0000   1.0000   1.0000   1.0000   1.0000   1.0000   1.0000   1.0000
     1.0000   1.0000   1.0000   1.0000   1.0000   1.0000   1.0000   1.0000
     1.0000   1.0000   1.0000   1.0000   1.0000   1.0000   1.0000   1.0000
     1.0000   1.0000   1.0000   1.0000   1.0000   1.0000   1.0000   1.0000
     1.0000   1.0000   1.0000   1.0000   1.0000   1.0000   1.0000  -0.0000
    -0.0000  -0.0000  -0.0000  -0.0000  -0.0000  -0.0000  -0.0000  -0.0000
    -0.0000  -0.0000  -0.0000  -0.0000  -0.0000  -0.0000  -0.0000  -0.0000
    -0.0000  -0.0000  -0.0000  -0.0000  -0.0000  -0.0000

          k = 0.3368-1.9793-0.2440 ( 11915 PWs)   bands (ev):

   -27.8888 -27.8883 -27.8879 -27.8873 -27.8836 -27.8828 -27.8817 -27.8801
   -27.8788 -27.8785 -27.7311 -27.7243 -27.7242 -27.6950 -27.6944 -14.4234
   -14.4219 -14.4139 -14.4124 -14.4118 -14.4108 -14.4074 -14.4065 -14.4038
   -14.4028  -2.8207  -2.6163  -1.8821  -1.3517  -1.1984   4.3447   4.9010
     4.9293   5.2570   5.8401   6.2229   7.7467   7.8384   8.0364   9.7607
    10.0779  10.2595  11.8540  12.2417  12.8137  13.1866  14.1629  14.9703
    15.8378  16.2157  16.9342  17.8317  18.0120  18.2681  18.8380  19.0013
    19.3927  19.8471  19.9259  20.3733  20.6258  20.9463

     occupation numbers 
     1.0000   1.0000   1.0000   1.0000   1.0000   1.0000   1.0000   1.0000
     1.0000   1.0000   1.0000   1.0000   1.0000   1.0000   1.0000   1.0000
     1.0000   1.0000   1.0000   1.0000   1.0000   1.0000   1.0000   1.0000
     1.0000   1.0000   1.0000   1.0000   1.0000   1.0000   1.0000   1.0000
     1.0000   1.0000   1.0000   1.0000   1.0000   1.0000   1.0000  -0.0000
    -0.0000  -0.0000  -0.0000  -0.0000  -0.0000  -0.0000  -0.0000  -0.0000
    -0.0000  -0.0000  -0.0000  -0.0000  -0.0000  -0.0000  -0.0000  -0.0000
    -0.0000  -0.0000  -0.0000  -0.0000  -0.0000  -0.0000

          k = 0.3359-1.5692-0.0000 ( 11913 PWs)   bands (ev):

   -27.8888 -27.8880 -27.8879 -27.8873 -27.8839 -27.8823 -27.8822 -27.8800
   -27.8787 -27.8786 -27.7311 -27.7243 -27.7243 -27.6946 -27.6946 -14.4196
   -14.4195 -14.4174 -14.4139 -14.4095 -14.4091 -14.4089 -14.4084 -14.4037
   -14.4035  -2.1649  -2.1540  -1.8534  -1.8527  -1.7994   4.2552   4.6088
     4.8128   5.1133   5.9419   5.9475   7.1426   7.4628   8.0805   9.9299
    10.7903  10.8159  12.1744  12.3895  12.8220  14.2620  14.7269  14.7366
    15.1082  15.3436  16.6108  16.9193  18.1024  18.1846  18.5314  18.8430
    19.2163  19.9779  20.5322  20.8712  20.9246  22.0689

     occupation numbers 
     1.0000   1.0000   1.0000   1.0000   1.0000   1.0000   1.0000   1.0000
     1.0000   1.0000   1.0000   1.0000   1.0000   1.0000   1.0000   1.0000
     1.0000   1.0000   1.0000   1.0000   1.0000   1.0000   1.0000   1.0000
     1.0000   1.0000   1.0000   1.0000   1.0000   1.0000   1.0000   1.0000
     1.0000   1.0000   1.0000   1.0000   1.0000   1.0000   1.0000  -0.0000
    -0.0000  -0.0000  -0.0000  -0.0000  -0.0000  -0.0000  -0.0000  -0.0000
    -0.0000  -0.0000  -0.0000  -0.0000  -0.0000  -0.0000  -0.0000  -0.0000
    -0.0000  -0.0000  -0.0000  -0.0000  -0.0000  -0.0000

          k = 0.3354-1.5693 0.4668 ( 11918 PWs)   bands (ev):

   -27.8888 -27.8883 -27.8879 -27.8873 -27.8836 -27.8828 -27.8817 -27.8801
   -27.8788 -27.8785 -27.7311 -27.7243 -27.7242 -27.6950 -27.6944 -14.4234
   -14.4219 -14.4139 -14.4124 -14.4118 -14.4108 -14.4074 -14.4065 -14.4038
   -14.4028  -2.8059  -2.6438  -1.8408  -1.4072  -1.1715   4.3059   4.8033
     4.9969   5.1735   6.1283   6.5637   7.3431   7.5466   7.8120   9.9842
    10.4357  10.6624  11.6028  11.9620  12.9218  13.1431  13.7237  14.8060
    16.1986  16.9068  17.1017  17.8118  17.9631  18.1940  18.6453  18.7726
    19.2997  19.6348  19.8094  19.9796  20.3383  21.1015

     occupation numbers 
     1.0000   1.0000   1.0000   1.0000   1.0000   1.0000   1.0000   1.0000
     1.0000   1.0000   1.0000   1.0000   1.0000   1.0000   1.0000   1.0000
     1.0000   1.0000   1.0000   1.0000   1.0000   1.0000   1.0000   1.0000
     1.0000   1.0000   1.0000   1.0000   1.0000   1.0000   1.0000   1.0000
     1.0000   1.0000   1.0000   1.0000   1.0000   1.0000   1.0000  -0.0000
    -0.0000  -0.0000  -0.0000  -0.0000  -0.0000  -0.0000  -0.0000  -0.0000
    -0.0000  -0.0000  -0.0000  -0.0000  -0.0000  -0.0000  -0.0000  -0.0000
    -0.0000  -0.0000  -0.0000  -0.0000  -0.0000  -0.0000

          k = 0.3350-1.5694 0.9336 ( 11918 PWs)   bands (ev):

   -27.8889 -27.8885 -27.8882 -27.8874 -27.8833 -27.8831 -27.8813 -27.8802
   -27.8791 -27.8786 -27.7313 -27.7243 -27.7241 -27.6951 -27.6945 -14.4242
   -14.4225 -14.4128 -14.4124 -14.4110 -14.4108 -14.4074 -14.4060 -14.4055
   -14.4044  -3.3615  -3.1230  -1.7922  -1.1178  -0.5553   4.4607   5.0189
     5.7968   5.8673   6.2320   6.3857   7.7903   7.7964   8.0256   9.6562
    10.0719  10.1091  11.4491  11.8213  12.5425  12.9448  13.6906  15.3361
    15.8251  16.4660  16.5329  16.5920  17.2217  17.5018  18.5385  18.7883
    19.1534  19.5065  19.8370  19.8482  20.2773  20.9859

     occupation numbers 
     1.0000   1.0000   1.0000   1.0000   1.0000   1.0000   1.0000   1.0000
     1.0000   1.0000   1.0000   1.0000   1.0000   1.0000   1.0000   1.0000
     1.0000   1.0000   1.0000   1.0000   1.0000   1.0000   1.0000   1.0000
     1.0000   1.0000   1.0000   1.0000   1.0000   1.0000   1.0000   1.0000
     1.0000   1.0000   1.0000   1.0000   1.0000   1.0000   1.0000  -0.0000
    -0.0000  -0.0000  -0.0000  -0.0000  -0.0000  -0.0000  -0.0000  -0.0000
    -0.0000  -0.0000  -0.0000  -0.0000  -0.0000  -0.0000  -0.0000  -0.0000
    -0.0000  -0.0000  -0.0000  -0.0000  -0.0000  -0.0000

          k = 0.3373-1.5689-1.4003 ( 11900 PWs)   bands (ev):

   -27.8888 -27.8888 -27.8881 -27.8876 -27.8833 -27.8829 -27.8812 -27.8802
   -27.8792 -27.8787 -27.7313 -27.7242 -27.7241 -27.6951 -27.6947 -14.4216
   -14.4206 -14.4139 -14.4137 -14.4110 -14.4108 -14.4082 -14.4076 -14.4059
   -14.4049  -3.5608  -3.3006  -1.7812  -1.0311  -0.3003   4.7594   5.0242
     5.7216   6.2704   6.3466   7.2304   7.2423   7.6320   7.6343  10.2423
    10.6703  10.7345  10.9234  11.7692  11.8316  13.4616  13.5665  13.8660
    14.5608  16.5365  16.8920  17.2258  17.4518  17.7229  18.0663  18.4513
    18.5233  18.5628  19.0359  19.3690  19.8657  20.2323

     occupation numbers 
     1.0000   1.0000   1.0000   1.0000   1.0000   1.0000   1.0000   1.0000
     1.0000   1.0000   1.0000   1.0000   1.0000   1.0000   1.0000   1.0000
     1.0000   1.0000   1.0000   1.0000   1.0000   1.0000   1.0000   1.0000
     1.0000   1.0000   1.0000   1.0000   1.0000   1.0000   1.0000   1.0000
     1.0000   1.0000   1.0000   1.0000   1.0000   1.0000   1.0000  -0.0000
    -0.0000  -0.0000  -0.0000  -0.0000  -0.0000  -0.0000  -0.0000  -0.0000
    -0.0000  -0.0000  -0.0000  -0.0000  -0.0000  -0.0000  -0.0000  -0.0000
    -0.0000  -0.0000  -0.0000  -0.0000  -0.0000  -0.0000

          k = 0.3368-1.5690-0.9336 ( 11918 PWs)   bands (ev):

   -27.8889 -27.8885 -27.8882 -27.8874 -27.8833 -27.8831 -27.8813 -27.8802
   -27.8791 -27.8786 -27.7313 -27.7243 -27.7241 -27.6951 -27.6945 -14.4242
   -14.4225 -14.4128 -14.4124 -14.4110 -14.4108 -14.4074 -14.4060 -14.4055
   -14.4044  -3.3615  -3.1230  -1.7922  -1.1178  -0.5553   4.4607   5.0189
     5.7968   5.8673   6.2320   6.3857   7.7903   7.7964   8.0256   9.6562
    10.0719  10.1091  11.4491  11.8213  12.5425  12.9448  13.6906  15.3361
    15.8251  16.4660  16.5329  16.5920  17.2217  17.5018  18.5385  18.7883
    19.1534  19.5065  19.8370  19.8482  20.2773  20.9857

     occupation numbers 
     1.0000   1.0000   1.0000   1.0000   1.0000   1.0000   1.0000   1.0000
     1.0000   1.0000   1.0000   1.0000   1.0000   1.0000   1.0000   1.0000
     1.0000   1.0000   1.0000   1.0000   1.0000   1.0000   1.0000   1.0000
     1.0000   1.0000   1.0000   1.0000   1.0000   1.0000   1.0000   1.0000
     1.0000   1.0000   1.0000   1.0000   1.0000   1.0000   1.0000  -0.0000
    -0.0000  -0.0000  -0.0000  -0.0000  -0.0000  -0.0000  -0.0000  -0.0000
    -0.0000  -0.0000  -0.0000  -0.0000  -0.0000  -0.0000  -0.0000  -0.0000
    -0.0000  -0.0000  -0.0000  -0.0000  -0.0000  -0.0000

          k = 0.3364-1.5691-0.4668 ( 11918 PWs)   bands (ev):

   -27.8888 -27.8883 -27.8879 -27.8873 -27.8836 -27.8828 -27.8817 -27.8801
   -27.8788 -27.8785 -27.7311 -27.7243 -27.7242 -27.6950 -27.6944 -14.4234
   -14.4219 -14.4139 -14.4124 -14.4118 -14.4108 -14.4074 -14.4065 -14.4038
   -14.4028  -2.8059  -2.6438  -1.8408  -1.4072  -1.1715   4.3059   4.8033
     4.9969   5.1735   6.1283   6.5637   7.3431   7.5466   7.8120   9.9842
    10.4357  10.6624  11.6028  11.9620  12.9218  13.1431  13.7237  14.8060
    16.1986  16.9068  17.1017  17.8118  17.9632  18.1940  18.6453  18.7726
    19.2997  19.6348  19.8094  19.9796  20.3383  21.1015

     occupation numbers 
     1.0000   1.0000   1.0000   1.0000   1.0000   1.0000   1.0000   1.0000
     1.0000   1.0000   1.0000   1.0000   1.0000   1.0000   1.0000   1.0000
     1.0000   1.0000   1.0000   1.0000   1.0000   1.0000   1.0000   1.0000
     1.0000   1.0000   1.0000   1.0000   1.0000   1.0000   1.0000   1.0000
     1.0000   1.0000   1.0000   1.0000   1.0000   1.0000   1.0000  -0.0000
    -0.0000  -0.0000  -0.0000  -0.0000  -0.0000  -0.0000  -0.0000  -0.0000
    -0.0000  -0.0000  -0.0000  -0.0000  -0.0000  -0.0000  -0.0000  -0.0000
    -0.0000  -0.0000  -0.0000  -0.0000  -0.0000  -0.0000

          k = 0.3354-1.1590-0.2228 ( 11920 PWs)   bands (ev):

   -27.8888 -27.8884 -27.8879 -27.8873 -27.8836 -27.8828 -27.8817 -27.8801
   -27.8788 -27.8785 -27.7311 -27.7243 -27.7242 -27.6950 -27.6944 -14.4234
   -14.4219 -14.4138 -14.4124 -14.4118 -14.4108 -14.4074 -14.4065 -14.4038
   -14.4028  -2.8563  -2.5727  -1.8166  -1.5183  -1.1053   4.0521   4.8014
     5.2270   5.7688   6.0918   6.3461   6.8205   7.4828   7.6680  10.3787
    10.5265  11.2161  11.5994  12.0898  12.2573  12.8323  14.0303  14.7465
    16.1547  16.7788  17.1360  17.3351  17.8616  18.0798  18.6637  19.0691
    19.2896  19.7160  19.9862  20.1790  20.5893  21.0015

     occupation numbers 
     1.0000   1.0000   1.0000   1.0000   1.0000   1.0000   1.0000   1.0000
     1.0000   1.0000   1.0000   1.0000   1.0000   1.0000   1.0000   1.0000
     1.0000   1.0000   1.0000   1.0000   1.0000   1.0000   1.0000   1.0000
     1.0000   1.0000   1.0000   1.0000   1.0000   1.0000   1.0000   1.0000
     1.0000   1.0000   1.0000   1.0000   1.0000   1.0000   1.0000  -0.0000
    -0.0000  -0.0000  -0.0000  -0.0000  -0.0000  -0.0000  -0.0000  -0.0000
    -0.0000  -0.0000  -0.0000  -0.0000  -0.0000  -0.0000  -0.0000  -0.0000
    -0.0000  -0.0000  -0.0000  -0.0000  -0.0000  -0.0000

          k = 0.3350-1.1591 0.2440 ( 11915 PWs)   bands (ev):

   -27.8888 -27.8883 -27.8879 -27.8873 -27.8836 -27.8828 -27.8817 -27.8801
   -27.8788 -27.8785 -27.7311 -27.7243 -27.7242 -27.6950 -27.6944 -14.4234
   -14.4219 -14.4139 -14.4124 -14.4118 -14.4108 -14.4074 -14.4065 -14.4038
   -14.4028  -2.8642  -2.5506  -1.8694  -1.4687  -1.1163   4.0649   4.9131
     5.3311   5.7093   5.7255   6.1037   6.9302   7.8779   8.0163   9.9149
    10.1747  11.0278  11.8365  12.3078  12.4173  12.7837  14.6318  14.7733
    15.6547  16.1418  16.8898  17.7922  17.8192  18.0496  18.5900  19.2897
    19.3721  19.8422  20.4203  20.6761  20.9045  21.2000

     occupation numbers 
     1.0000   1.0000   1.0000   1.0000   1.0000   1.0000   1.0000   1.0000
     1.0000   1.0000   1.0000   1.0000   1.0000   1.0000   1.0000   1.0000
     1.0000   1.0000   1.0000   1.0000   1.0000   1.0000   1.0000   1.0000
     1.0000   1.0000   1.0000   1.0000   1.0000   1.0000   1.0000   1.0000
     1.0000   1.0000   1.0000   1.0000   1.0000   1.0000   1.0000  -0.0000
    -0.0000  -0.0000  -0.0000  -0.0000  -0.0000  -0.0000  -0.0000  -0.0000
    -0.0000  -0.0000  -0.0000  -0.0000  -0.0000  -0.0000  -0.0000  -0.0000
    -0.0000  -0.0000  -0.0000  -0.0000  -0.0000  -0.0000

          k = 0.3345-1.1592 0.7108 ( 11906 PWs)   bands (ev):

   -27.8889 -27.8883 -27.8881 -27.8871 -27.8834 -27.8832 -27.8815 -27.8801
   -27.8788 -27.8786 -27.7311 -27.7244 -27.7241 -27.6951 -27.6943 -14.4264
   -14.4245 -14.4140 -14.4121 -14.4120 -14.4096 -14.4054 -14.4047 -14.4036
   -14.4024  -2.6687  -2.6471  -2.0515  -1.5567  -0.9629   3.9918   4.9135
     5.1953   5.5779   6.3228   6.4695   7.4195   7.4945   7.5119   9.9684
    10.1206  10.4711  11.3568  11.7479  12.1788  13.2744  14.0248  15.5003
    17.2077  17.2642  17.7351  17.9268  18.2063  18.2415  19.0608  19.0798
    19.3001  19.5609  19.7955  19.9549  20.3223  20.7950

     occupation numbers 
     1.0000   1.0000   1.0000   1.0000   1.0000   1.0000   1.0000   1.0000
     1.0000   1.0000   1.0000   1.0000   1.0000   1.0000   1.0000   1.0000
     1.0000   1.0000   1.0000   1.0000   1.0000   1.0000   1.0000   1.0000
     1.0000   1.0000   1.0000   1.0000   1.0000   1.0000   1.0000   1.0000
     1.0000   1.0000   1.0000   1.0000   1.0000   1.0000   1.0000  -0.0000
    -0.0000  -0.0000  -0.0000  -0.0000  -0.0000  -0.0000  -0.0000  -0.0000
    -0.0000  -0.0000  -0.0000  -0.0000  -0.0000  -0.0000  -0.0000  -0.0000
    -0.0000  -0.0000  -0.0000  -0.0000  -0.0000  -0.0000

          k = 0.3368-1.1588-1.6231 ( 11915 PWs)   bands (ev):

   -27.8888 -27.8883 -27.8879 -27.8873 -27.8836 -27.8828 -27.8817 -27.8801
   -27.8788 -27.8785 -27.7311 -27.7243 -27.7242 -27.6950 -27.6944 -14.4234
   -14.4219 -14.4139 -14.4124 -14.4118 -14.4108 -14.4074 -14.4065 -14.4038
   -14.4028  -2.8207  -2.6163  -1.8821  -1.3517  -1.1984   4.3447   4.9010
     4.9293   5.2570   5.8401   6.2229   7.7467   7.8384   8.0364   9.7607
    10.0779  10.2595  11.8540  12.2417  12.8137  13.1866  14.1629  14.9703
    15.8378  16.2157  16.9342  17.8317  18.0120  18.2681  18.8380  19.0013
    19.3927  19.8471  19.9259  20.3733  20.6258  20.9462

     occupation numbers 
     1.0000   1.0000   1.0000   1.0000   1.0000   1.0000   1.0000   1.0000
     1.0000   1.0000   1.0000   1.0000   1.0000   1.0000   1.0000   1.0000
     1.0000   1.0000   1.0000   1.0000   1.0000   1.0000   1.0000   1.0000
     1.0000   1.0000   1.0000   1.0000   1.0000   1.0000   1.0000   1.0000
     1.0000   1.0000   1.0000   1.0000   1.0000   1.0000   1.0000  -0.0000
    -0.0000  -0.0000  -0.0000  -0.0000  -0.0000  -0.0000  -0.0000  -0.0000
    -0.0000  -0.0000  -0.0000  -0.0000  -0.0000  -0.0000  -0.0000  -0.0000
    -0.0000  -0.0000  -0.0000  -0.0000  -0.0000  -0.0000

          k = 0.3364-1.1589-1.1563 ( 11918 PWs)   bands (ev):

   -27.8888 -27.8883 -27.8879 -27.8873 -27.8836 -27.8828 -27.8817 -27.8801
   -27.8788 -27.8785 -27.7311 -27.7243 -27.7242 -27.6950 -27.6944 -14.4234
   -14.4219 -14.4139 -14.4124 -14.4118 -14.4108 -14.4074 -14.4065 -14.4038
   -14.4028  -2.8059  -2.6438  -1.8408  -1.4072  -1.1715   4.3059   4.8033
     4.9969   5.1735   6.1283   6.5637   7.3431   7.5466   7.8120   9.9842
    10.4357  10.6624  11.6028  11.9620  12.9218  13.1431  13.7237  14.8060
    16.1986  16.9068  17.1017  17.8118  17.9631  18.1940  18.6453  18.7726
    19.2997  19.6348  19.8094  19.9796  20.3383  21.1014

     occupation numbers 
     1.0000   1.0000   1.0000   1.0000   1.0000   1.0000   1.0000   1.0000
     1.0000   1.0000   1.0000   1.0000   1.0000   1.0000   1.0000   1.0000
     1.0000   1.0000   1.0000   1.0000   1.0000   1.0000   1.0000   1.0000
     1.0000   1.0000   1.0000   1.0000   1.0000   1.0000   1.0000   1.0000
     1.0000   1.0000   1.0000   1.0000   1.0000   1.0000   1.0000  -0.0000
    -0.0000  -0.0000  -0.0000  -0.0000  -0.0000  -0.0000  -0.0000  -0.0000
    -0.0000  -0.0000  -0.0000  -0.0000  -0.0000  -0.0000  -0.0000  -0.0000
    -0.0000  -0.0000  -0.0000  -0.0000  -0.0000  -0.0000

          k = 0.3359-1.1590-0.6896 ( 11935 PWs)   bands (ev):

   -27.8889 -27.8884 -27.8881 -27.8871 -27.8834 -27.8832 -27.8815 -27.8802
   -27.8788 -27.8786 -27.7311 -27.7244 -27.7241 -27.6951 -27.6943 -14.4264
   -14.4245 -14.4140 -14.4121 -14.4120 -14.4096 -14.4054 -14.4047 -14.4036
   -14.4024  -2.6676  -2.6405  -2.1050  -1.4433  -1.0347   3.8468   5.3092
     5.3589   5.6543   6.0601   6.1379   6.9413   7.7325   7.9108   9.5850
    10.1131  10.8242  11.4569  12.0698  12.2511  12.7032  13.7392  16.3717
    17.1374  17.3488  17.4991  17.9194  18.1315  18.1730  18.9502  18.9957
    19.0167  19.5185  19.6081  20.1180  20.2263  20.7375

     occupation numbers 
     1.0000   1.0000   1.0000   1.0000   1.0000   1.0000   1.0000   1.0000
     1.0000   1.0000   1.0000   1.0000   1.0000   1.0000   1.0000   1.0000
     1.0000   1.0000   1.0000   1.0000   1.0000   1.0000   1.0000   1.0000
     1.0000   1.0000   1.0000   1.0000   1.0000   1.0000   1.0000   1.0000
     1.0000   1.0000   1.0000   1.0000   1.0000   1.0000   1.0000  -0.0000
    -0.0000  -0.0000  -0.0000  -0.0000  -0.0000  -0.0000  -0.0000  -0.0000
    -0.0000  -0.0000  -0.0000  -0.0000  -0.0000  -0.0000  -0.0000  -0.0000
    -0.0000  -0.0000  -0.0000  -0.0000  -0.0000  -0.0000

          k =-0.5025 1.1233 0.6683 ( 11896 PWs)   bands (ev):

   -27.8889 -27.8883 -27.8881 -27.8871 -27.8834 -27.8832 -27.8815 -27.8801
   -27.8788 -27.8785 -27.7311 -27.7243 -27.7241 -27.6951 -27.6943 -14.4264
   -14.4245 -14.4140 -14.4121 -14.4120 -14.4096 -14.4054 -14.4047 -14.4036
   -14.4024  -2.6670  -2.6370  -2.1280  -1.3751  -1.0861   3.7925   5.5204
     5.5657   5.7147   5.8149   6.0330   6.6291   7.8423   8.1592   9.3500
     9.9560  11.3493  11.5239  12.2016  12.2137  12.2327  13.6969  16.8863
    17.0843  17.3847  17.5331  17.7634  18.0402  18.1454  18.6536  19.0170
    19.0507  19.1319  19.6922  20.2089  20.2906  20.6585

     occupation numbers 
     1.0000   1.0000   1.0000   1.0000   1.0000   1.0000   1.0000   1.0000
     1.0000   1.0000   1.0000   1.0000   1.0000   1.0000   1.0000   1.0000
     1.0000   1.0000   1.0000   1.0000   1.0000   1.0000   1.0000   1.0000
     1.0000   1.0000   1.0000   1.0000   1.0000   1.0000   1.0000   1.0000
     1.0000   1.0000   1.0000   1.0000   1.0000   1.0000   1.0000  -0.0000
    -0.0000  -0.0000  -0.0000  -0.0000  -0.0000  -0.0000  -0.0000  -0.0000
    -0.0000  -0.0000  -0.0000  -0.0000  -0.0000  -0.0000  -0.0000  -0.0000
    -0.0000  -0.0000  -0.0000  -0.0000  -0.0000  -0.0000

          k =-0.5029 1.1232 1.1351 ( 11914 PWs)   bands (ev):

   -27.8888 -27.8883 -27.8879 -27.8873 -27.8836 -27.8828 -27.8817 -27.8801
   -27.8788 -27.8785 -27.7311 -27.7243 -27.7242 -27.6950 -27.6944 -14.4234
   -14.4219 -14.4138 -14.4124 -14.4118 -14.4108 -14.4074 -14.4065 -14.4038
   -14.4028  -2.8291  -2.6168  -1.8037  -1.4926  -1.1271   4.1445   4.7573
     5.1580   5.3847   6.3149   6.6825   7.1003   7.2233   7.4932  10.5629
    10.7191  10.8095  11.4286  11.8426  12.7327  12.9923  13.6148  14.7384
    16.6608  16.7268  17.1567  17.8063  17.9609  18.1914  18.3216  18.9609
    19.2943  19.3766  19.6734  19.8546  20.4837  21.1826

     occupation numbers 
     1.0000   1.0000   1.0000   1.0000   1.0000   1.0000   1.0000   1.0000
     1.0000   1.0000   1.0000   1.0000   1.0000   1.0000   1.0000   1.0000
     1.0000   1.0000   1.0000   1.0000   1.0000   1.0000   1.0000   1.0000
     1.0000   1.0000   1.0000   1.0000   1.0000   1.0000   1.0000   1.0000
     1.0000   1.0000   1.0000   1.0000   1.0000   1.0000   1.0000  -0.0000
    -0.0000  -0.0000  -0.0000  -0.0000  -0.0000  -0.0000  -0.0000  -0.0000
    -0.0000  -0.0000  -0.0000  -0.0000  -0.0000  -0.0000  -0.0000  -0.0000
    -0.0000  -0.0000  -0.0000  -0.0000  -0.0000  -0.0000

          k =-0.5034 1.1231 1.6019 ( 11912 PWs)   bands (ev):

   -27.8888 -27.8883 -27.8879 -27.8873 -27.8836 -27.8828 -27.8817 -27.8801
   -27.8788 -27.8785 -27.7311 -27.7243 -27.7242 -27.6950 -27.6944 -14.4234
   -14.4219 -14.4139 -14.4124 -14.4118 -14.4108 -14.4074 -14.4065 -14.4038
   -14.4028  -2.8496  -2.5695  -1.8973  -1.3949  -1.1579   4.1823   5.0011
     5.1774   5.4116   5.6709   6.0141   7.4325   8.0386   8.1953   9.7004
     9.9854  10.4099  11.9314  12.3908  12.7988  12.8819  14.5967  15.1894
    15.3956  15.8292  16.8088  17.8304  17.9041  18.2032  18.8852  19.3349
    19.3546  19.7830  20.1366  20.6400  20.7702  21.2288

     occupation numbers 
     1.0000   1.0000   1.0000   1.0000   1.0000   1.0000   1.0000   1.0000
     1.0000   1.0000   1.0000   1.0000   1.0000   1.0000   1.0000   1.0000
     1.0000   1.0000   1.0000   1.0000   1.0000   1.0000   1.0000   1.0000
     1.0000   1.0000   1.0000   1.0000   1.0000   1.0000   1.0000   1.0000
     1.0000   1.0000   1.0000   1.0000   1.0000   1.0000   1.0000  -0.0000
    -0.0000  -0.0000  -0.0000  -0.0000  -0.0000  -0.0000  -0.0000  -0.0000
    -0.0000  -0.0000  -0.0000  -0.0000  -0.0000  -0.0000  -0.0000  -0.0000
    -0.0000  -0.0000  -0.0000  -0.0000  -0.0000  -0.0000

          k =-0.5011 1.1236-0.7320 ( 11906 PWs)   bands (ev):

   -27.8889 -27.8883 -27.8881 -27.8871 -27.8834 -27.8832 -27.8815 -27.8801
   -27.8788 -27.8785 -27.7311 -27.7244 -27.7241 -27.6951 -27.6943 -14.4263
   -14.4245 -14.4140 -14.4121 -14.4120 -14.4096 -14.4054 -14.4047 -14.4036
   -14.4024  -2.6693  -2.6502  -2.0183  -1.6127  -0.9343   4.1072   4.7041
     5.1372   5.5492   6.4220   6.9146   6.9606   7.3921   7.7703   9.7733
    10.1482  10.7218  11.3326  11.5102  12.0755  13.5088  14.4772  14.8484
    17.1927  17.2633  17.8545  17.9290  18.2115  18.2817  19.1588  19.2680
    19.3714  19.5180  19.6419  19.7858  20.3313  20.8151

     occupation numbers 
     1.0000   1.0000   1.0000   1.0000   1.0000   1.0000   1.0000   1.0000
     1.0000   1.0000   1.0000   1.0000   1.0000   1.0000   1.0000   1.0000
     1.0000   1.0000   1.0000   1.0000   1.0000   1.0000   1.0000   1.0000
     1.0000   1.0000   1.0000   1.0000   1.0000   1.0000   1.0000   1.0000
     1.0000   1.0000   1.0000   1.0000   1.0000   1.0000   1.0000  -0.0000
    -0.0000  -0.0000  -0.0000  -0.0000  -0.0000  -0.0000  -0.0000  -0.0000
    -0.0000  -0.0000  -0.0000  -0.0000  -0.0000  -0.0000  -0.0000  -0.0000
    -0.0000  -0.0000  -0.0000  -0.0000  -0.0000  -0.0000

          k =-0.5016 1.1235-0.2652 ( 11912 PWs)   bands (ev):

   -27.8888 -27.8883 -27.8879 -27.8873 -27.8836 -27.8828 -27.8817 -27.8801
   -27.8788 -27.8785 -27.7311 -27.7243 -27.7242 -27.6950 -27.6944 -14.4234
   -14.4219 -14.4139 -14.4124 -14.4118 -14.4108 -14.4074 -14.4065 -14.4038
   -14.4028  -2.8496  -2.5695  -1.8973  -1.3949  -1.1579   4.1823   5.0011
     5.1774   5.4116   5.6709   6.0141   7.4325   8.0386   8.1953   9.7004
     9.9854  10.4099  11.9314  12.3908  12.7988  12.8819  14.5967  15.1894
    15.3956  15.8292  16.8088  17.8304  17.9041  18.2032  18.8852  19.3349
    19.3546  19.7830  20.1366  20.6400  20.7702  21.2290

     occupation numbers 
     1.0000   1.0000   1.0000   1.0000   1.0000   1.0000   1.0000   1.0000
     1.0000   1.0000   1.0000   1.0000   1.0000   1.0000   1.0000   1.0000
     1.0000   1.0000   1.0000   1.0000   1.0000   1.0000   1.0000   1.0000
     1.0000   1.0000   1.0000   1.0000   1.0000   1.0000   1.0000   1.0000
     1.0000   1.0000   1.0000   1.0000   1.0000   1.0000   1.0000  -0.0000
    -0.0000  -0.0000  -0.0000  -0.0000  -0.0000  -0.0000  -0.0000  -0.0000
    -0.0000  -0.0000  -0.0000  -0.0000  -0.0000  -0.0000  -0.0000  -0.0000
    -0.0000  -0.0000  -0.0000  -0.0000  -0.0000  -0.0000

          k =-0.5020 1.1234 0.2016 ( 11914 PWs)   bands (ev):

   -27.8888 -27.8883 -27.8879 -27.8873 -27.8836 -27.8828 -27.8817 -27.8801
   -27.8788 -27.8785 -27.7311 -27.7243 -27.7242 -27.6950 -27.6944 -14.4234
   -14.4219 -14.4138 -14.4124 -14.4118 -14.4108 -14.4074 -14.4065 -14.4038
   -14.4028  -2.8291  -2.6168  -1.8037  -1.4926  -1.1271   4.1445   4.7573
     5.1580   5.3847   6.3149   6.6825   7.1003   7.2233   7.4932  10.5629
    10.7191  10.8095  11.4286  11.8426  12.7327  12.9923  13.6148  14.7384
    16.6608  16.7268  17.1567  17.8063  17.9609  18.1914  18.3216  18.9609
    19.2943  19.3766  19.6734  19.8546  20.4837  21.1823

     occupation numbers 
     1.0000   1.0000   1.0000   1.0000   1.0000   1.0000   1.0000   1.0000
     1.0000   1.0000   1.0000   1.0000   1.0000   1.0000   1.0000   1.0000
     1.0000   1.0000   1.0000   1.0000   1.0000   1.0000   1.0000   1.0000
     1.0000   1.0000   1.0000   1.0000   1.0000   1.0000   1.0000   1.0000
     1.0000   1.0000   1.0000   1.0000   1.0000   1.0000   1.0000  -0.0000
    -0.0000  -0.0000  -0.0000  -0.0000  -0.0000  -0.0000  -0.0000  -0.0000
    -0.0000  -0.0000  -0.0000  -0.0000  -0.0000  -0.0000  -0.0000  -0.0000
    -0.0000  -0.0000  -0.0000  -0.0000  -0.0000  -0.0000

          k =-0.5029 1.5335 0.4456 ( 11914 PWs)   bands (ev):

   -27.8888 -27.8883 -27.8879 -27.8873 -27.8836 -27.8828 -27.8817 -27.8801
   -27.8788 -27.8785 -27.7311 -27.7243 -27.7242 -27.6950 -27.6944 -14.4234
   -14.4219 -14.4138 -14.4124 -14.4118 -14.4108 -14.4074 -14.4065 -14.4038
   -14.4028  -2.8291  -2.6168  -1.8037  -1.4926  -1.1271   4.1445   4.7573
     5.1580   5.3847   6.3149   6.6825   7.1003   7.2233   7.4932  10.5629
    10.7191  10.8095  11.4286  11.8426  12.7327  12.9923  13.6148  14.7384
    16.6608  16.7268  17.1567  17.8063  17.9609  18.1914  18.3216  18.9609
    19.2943  19.3766  19.6734  19.8546  20.4837  21.1823

     occupation numbers 
     1.0000   1.0000   1.0000   1.0000   1.0000   1.0000   1.0000   1.0000
     1.0000   1.0000   1.0000   1.0000   1.0000   1.0000   1.0000   1.0000
     1.0000   1.0000   1.0000   1.0000   1.0000   1.0000   1.0000   1.0000
     1.0000   1.0000   1.0000   1.0000   1.0000   1.0000   1.0000   1.0000
     1.0000   1.0000   1.0000   1.0000   1.0000   1.0000   1.0000  -0.0000
    -0.0000  -0.0000  -0.0000  -0.0000  -0.0000  -0.0000  -0.0000  -0.0000
    -0.0000  -0.0000  -0.0000  -0.0000  -0.0000  -0.0000  -0.0000  -0.0000
    -0.0000  -0.0000  -0.0000  -0.0000  -0.0000  -0.0000

          k =-0.5034 1.5334 0.9123 ( 11904 PWs)   bands (ev):

   -27.8889 -27.8885 -27.8882 -27.8874 -27.8833 -27.8831 -27.8813 -27.8802
   -27.8791 -27.8786 -27.7313 -27.7243 -27.7241 -27.6951 -27.6945 -14.4242
   -14.4225 -14.4128 -14.4124 -14.4110 -14.4108 -14.4074 -14.4060 -14.4055
   -14.4044  -3.3923  -3.0773  -1.7977  -1.1746  -0.5048   4.5314   4.9778
     5.7637   5.9430   6.1218   6.2504   7.8611   7.9175   8.2484   9.4047
     9.9736  10.0696  11.5000  11.8849  12.5008  12.9930  13.7824  15.1413
    16.1792  16.3085  16.7023  16.8141  17.4290  17.7227  18.0322  18.2488
    18.8183  19.1417  19.7813  19.8970  20.2683  20.7031

     occupation numbers 
     1.0000   1.0000   1.0000   1.0000   1.0000   1.0000   1.0000   1.0000
     1.0000   1.0000   1.0000   1.0000   1.0000   1.0000   1.0000   1.0000
     1.0000   1.0000   1.0000   1.0000   1.0000   1.0000   1.0000   1.0000
     1.0000   1.0000   1.0000   1.0000   1.0000   1.0000   1.0000   1.0000
     1.0000   1.0000   1.0000   1.0000   1.0000   1.0000   1.0000  -0.0000
    -0.0000  -0.0000  -0.0000  -0.0000  -0.0000  -0.0000  -0.0000  -0.0000
    -0.0000  -0.0000  -0.0000  -0.0000  -0.0000  -0.0000  -0.0000  -0.0000
    -0.0000  -0.0000  -0.0000  -0.0000  -0.0000  -0.0000

          k =-0.5038 1.5333 1.3791 ( 11894 PWs)   bands (ev):

   -27.8888 -27.8888 -27.8881 -27.8876 -27.8833 -27.8829 -27.8812 -27.8802
   -27.8792 -27.8787 -27.7313 -27.7242 -27.7241 -27.6951 -27.6947 -14.4216
   -14.4206 -14.4139 -14.4137 -14.4110 -14.4108 -14.4082 -14.4076 -14.4059
   -14.4049  -3.5907  -3.2515  -1.8488  -0.9546  -0.3284   4.7915   5.0742
     5.6580   6.1538   6.4094   6.8590   7.3847   7.8162   7.8774  10.0626
    10.2508  10.8519  11.0720  11.7648  12.0719  13.3763  13.3909  14.1941
    14.7788  16.5093  16.7255  16.8543  17.2377  17.6245  17.9514  18.2553
    18.6315  18.6836  18.9691  19.7583  20.2011  20.4533

     occupation numbers 
     1.0000   1.0000   1.0000   1.0000   1.0000   1.0000   1.0000   1.0000
     1.0000   1.0000   1.0000   1.0000   1.0000   1.0000   1.0000   1.0000
     1.0000   1.0000   1.0000   1.0000   1.0000   1.0000   1.0000   1.0000
     1.0000   1.0000   1.0000   1.0000   1.0000   1.0000   1.0000   1.0000
     1.0000   1.0000   1.0000   1.0000   1.0000   1.0000   1.0000  -0.0000
    -0.0000  -0.0000  -0.0000  -0.0000  -0.0000  -0.0000  -0.0000  -0.0000
    -0.0000  -0.0000  -0.0000  -0.0000  -0.0000  -0.0000  -0.0000  -0.0000
    -0.0000  -0.0000  -0.0000  -0.0000  -0.0000  -0.0000

          k =-0.5016 1.5338-0.9548 ( 11898 PWs)   bands (ev):

   -27.8889 -27.8885 -27.8881 -27.8874 -27.8833 -27.8831 -27.8813 -27.8802
   -27.8791 -27.8786 -27.7312 -27.7243 -27.7241 -27.6951 -27.6945 -14.4242
   -14.4225 -14.4128 -14.4124 -14.4110 -14.4108 -14.4074 -14.4060 -14.4055
   -14.4044  -3.3857  -3.0800  -1.8749  -0.9744  -0.6337   4.2878   5.2374
     5.7933   5.8019   6.5596   6.6144   7.2964   7.5866   7.6647  10.0441
    10.4044  10.5278  11.3047  11.5739  12.4669  12.6184  13.9016  15.4675
    15.7455  16.2754  16.3562  16.7406  16.7635  17.4927  18.4762  19.0471
    19.4608  19.5218  19.8279  20.3972  20.5234  21.3349

     occupation numbers 
     1.0000   1.0000   1.0000   1.0000   1.0000   1.0000   1.0000   1.0000
     1.0000   1.0000   1.0000   1.0000   1.0000   1.0000   1.0000   1.0000
     1.0000   1.0000   1.0000   1.0000   1.0000   1.0000   1.0000   1.0000
     1.0000   1.0000   1.0000   1.0000   1.0000   1.0000   1.0000   1.0000
     1.0000   1.0000   1.0000   1.0000   1.0000   1.0000   1.0000  -0.0000
    -0.0000  -0.0000  -0.0000  -0.0000  -0.0000  -0.0000  -0.0000  -0.0000
    -0.0000  -0.0000  -0.0000  -0.0000  -0.0000  -0.0000  -0.0000  -0.0000
    -0.0000  -0.0000  -0.0000  -0.0000  -0.0000  -0.0000

          k =-0.5020 1.5337-0.4880 ( 11915 PWs)   bands (ev):

   -27.8888 -27.8883 -27.8879 -27.8873 -27.8836 -27.8828 -27.8817 -27.8801
   -27.8788 -27.8785 -27.7311 -27.7243 -27.7242 -27.6950 -27.6944 -14.4234
   -14.4219 -14.4139 -14.4124 -14.4118 -14.4108 -14.4074 -14.4065 -14.4038
   -14.4028  -2.8207  -2.6163  -1.8821  -1.3517  -1.1984   4.3447   4.9010
     4.9293   5.2570   5.8401   6.2229   7.7467   7.8384   8.0364   9.7607
    10.0779  10.2595  11.8540  12.2417  12.8137  13.1866  14.1629  14.9703
    15.8378  16.2157  16.9342  17.8317  18.0120  18.2681  18.8380  19.0013
    19.3927  19.8471  19.9259  20.3733  20.6258  20.9461

     occupation numbers 
     1.0000   1.0000   1.0000   1.0000   1.0000   1.0000   1.0000   1.0000
     1.0000   1.0000   1.0000   1.0000   1.0000   1.0000   1.0000   1.0000
     1.0000   1.0000   1.0000   1.0000   1.0000   1.0000   1.0000   1.0000
     1.0000   1.0000   1.0000   1.0000   1.0000   1.0000   1.0000   1.0000
     1.0000   1.0000   1.0000   1.0000   1.0000   1.0000   1.0000  -0.0000
    -0.0000  -0.0000  -0.0000  -0.0000  -0.0000  -0.0000  -0.0000  -0.0000
    -0.0000  -0.0000  -0.0000  -0.0000  -0.0000  -0.0000  -0.0000  -0.0000
    -0.0000  -0.0000  -0.0000  -0.0000  -0.0000  -0.0000

          k =-0.5025 1.5336-0.0212 ( 11936 PWs)   bands (ev):

   -27.8888 -27.8880 -27.8879 -27.8873 -27.8839 -27.8823 -27.8822 -27.8801
   -27.8787 -27.8786 -27.7311 -27.7243 -27.7243 -27.6946 -27.6946 -14.4196
   -14.4195 -14.4174 -14.4139 -14.4095 -14.4091 -14.4089 -14.4084 -14.4037
   -14.4035  -2.1649  -2.1540  -1.8534  -1.8527  -1.7994   4.2530   4.6787
     4.7033   5.1992   5.7102   6.1891   6.9611   7.7395   7.9138  10.0822
    10.3862  11.1606  11.9592  12.6670  12.6839  14.2631  14.6534  14.8869
    14.9791  15.4139  16.4601  17.3175  17.4948  18.5171  18.5973  18.9425
    19.1972  19.8349  20.1252  21.1706  21.5383  21.8079

     occupation numbers 
     1.0000   1.0000   1.0000   1.0000   1.0000   1.0000   1.0000   1.0000
     1.0000   1.0000   1.0000   1.0000   1.0000   1.0000   1.0000   1.0000
     1.0000   1.0000   1.0000   1.0000   1.0000   1.0000   1.0000   1.0000
     1.0000   1.0000   1.0000   1.0000   1.0000   1.0000   1.0000   1.0000
     1.0000   1.0000   1.0000   1.0000   1.0000   1.0000   1.0000  -0.0000
    -0.0000  -0.0000  -0.0000  -0.0000  -0.0000  -0.0000  -0.0000  -0.0000
    -0.0000  -0.0000  -0.0000  -0.0000  -0.0000  -0.0000  -0.0000  -0.0000
    -0.0000  -0.0000  -0.0000  -0.0000  -0.0000  -0.0000

          k =-0.5034 1.9437 0.2228 ( 11912 PWs)   bands (ev):

   -27.8888 -27.8883 -27.8879 -27.8873 -27.8836 -27.8828 -27.8817 -27.8801
   -27.8788 -27.8785 -27.7311 -27.7243 -27.7242 -27.6950 -27.6944 -14.4234
   -14.4219 -14.4139 -14.4124 -14.4118 -14.4108 -14.4074 -14.4065 -14.4038
   -14.4028  -2.8496  -2.5695  -1.8973  -1.3949  -1.1579   4.1823   5.0011
     5.1774   5.4116   5.6709   6.0141   7.4325   8.0386   8.1953   9.7004
     9.9854  10.4099  11.9314  12.3908  12.7988  12.8819  14.5967  15.1894
    15.3956  15.8292  16.8088  17.8304  17.9041  18.2032  18.8852  19.3349
    19.3546  19.7830  20.1366  20.6400  20.7702  21.2274

     occupation numbers 
     1.0000   1.0000   1.0000   1.0000   1.0000   1.0000   1.0000   1.0000
     1.0000   1.0000   1.0000   1.0000   1.0000   1.0000   1.0000   1.0000
     1.0000   1.0000   1.0000   1.0000   1.0000   1.0000   1.0000   1.0000
     1.0000   1.0000   1.0000   1.0000   1.0000   1.0000   1.0000   1.0000
     1.0000   1.0000   1.0000   1.0000   1.0000   1.0000   1.0000  -0.0000
    -0.0000  -0.0000  -0.0000  -0.0000  -0.0000  -0.0000  -0.0000  -0.0000
    -0.0000  -0.0000  -0.0000  -0.0000  -0.0000  -0.0000  -0.0000  -0.0000
    -0.0000  -0.0000  -0.0000  -0.0000  -0.0000  -0.0000

          k =-0.5038 1.9436 0.6896 ( 11894 PWs)   bands (ev):

   -27.8888 -27.8888 -27.8881 -27.8876 -27.8833 -27.8829 -27.8812 -27.8802
   -27.8792 -27.8787 -27.7313 -27.7242 -27.7241 -27.6951 -27.6947 -14.4216
   -14.4206 -14.4139 -14.4137 -14.4110 -14.4108 -14.4082 -14.4076 -14.4059
   -14.4049  -3.5907  -3.2515  -1.8488  -0.9546  -0.3284   4.7915   5.0742
     5.6580   6.1538   6.4094   6.8590   7.3847   7.8162   7.8774  10.0626
    10.2508  10.8519  11.0720  11.7648  12.0719  13.3763  13.3909  14.1941
    14.7788  16.5093  16.7255  16.8543  17.2377  17.6245  17.9514  18.2553
    18.6315  18.6836  18.9691  19.7583  20.2011  20.4532

     occupation numbers 
     1.0000   1.0000   1.0000   1.0000   1.0000   1.0000   1.0000   1.0000
     1.0000   1.0000   1.0000   1.0000   1.0000   1.0000   1.0000   1.0000
     1.0000   1.0000   1.0000   1.0000   1.0000   1.0000   1.0000   1.0000
     1.0000   1.0000   1.0000   1.0000   1.0000   1.0000   1.0000   1.0000
     1.0000   1.0000   1.0000   1.0000   1.0000   1.0000   1.0000  -0.0000
    -0.0000  -0.0000  -0.0000  -0.0000  -0.0000  -0.0000  -0.0000  -0.0000
    -0.0000  -0.0000  -0.0000  -0.0000  -0.0000  -0.0000  -0.0000  -0.0000
    -0.0000  -0.0000  -0.0000  -0.0000  -0.0000  -0.0000

          k =-0.5043 1.9435 1.1563 ( 11903 PWs)   bands (ev):

   -27.8890 -27.8889 -27.8882 -27.8880 -27.8830 -27.8829 -27.8808 -27.8804
   -27.8795 -27.8789 -27.7315 -27.7241 -27.7241 -27.6951 -27.6949 -14.4205
   -14.4192 -14.4165 -14.4154 -14.4101 -14.4092 -14.4085 -14.4082 -14.4077
   -14.4066  -4.0055  -3.6754  -1.9636  -0.8183   0.3613   5.4222   6.0833
     6.4757   6.5636   6.7765   7.0864   7.5836   7.9983   8.4156   9.4222
     9.8574  10.5726  10.8649  11.0601  11.3299  13.2881  14.2056  14.3748
    14.7567  15.1209  15.6420  16.0808  16.5644  16.9553  17.1933  17.4529
    18.0497  18.0618  18.1942  18.6024  19.6717  20.0444

     occupation numbers 
     1.0000   1.0000   1.0000   1.0000   1.0000   1.0000   1.0000   1.0000
     1.0000   1.0000   1.0000   1.0000   1.0000   1.0000   1.0000   1.0000
     1.0000   1.0000   1.0000   1.0000   1.0000   1.0000   1.0000   1.0000
     1.0000   1.0000   1.0000   1.0000   1.0000   1.0000   1.0000   1.0000
     1.0000   1.0000   1.0000   1.0000   1.0000   1.0000   1.0001  -0.0000
    -0.0000  -0.0000  -0.0000  -0.0000  -0.0000  -0.0000  -0.0000  -0.0000
    -0.0000  -0.0000  -0.0000  -0.0000  -0.0000  -0.0000  -0.0000  -0.0000
    -0.0000  -0.0000  -0.0000  -0.0000  -0.0000  -0.0000

          k =-0.5020 1.9440-1.1776 ( 11888 PWs)   bands (ev):

   -27.8890 -27.8889 -27.8882 -27.8880 -27.8830 -27.8829 -27.8808 -27.8803
   -27.8795 -27.8789 -27.7315 -27.7241 -27.7241 -27.6951 -27.6949 -14.4205
   -14.4192 -14.4165 -14.4154 -14.4101 -14.4092 -14.4085 -14.4082 -14.4077
   -14.4066  -3.9950  -3.6922  -1.9434  -0.8352   0.3600   5.4143   6.3128
     6.4063   6.5047   6.8183   6.8632   7.7033   7.9722   8.4140   9.3852
     9.7861  10.4033  10.9928  11.1719  11.4850  13.4306  13.9937  14.2905
    14.9434  15.1115  15.6744  16.0749  16.3747  16.4891  16.8507  17.7540
    17.7791  18.1695  18.4466  19.2056  19.7010  19.9024

     occupation numbers 
     1.0000   1.0000   1.0000   1.0000   1.0000   1.0000   1.0000   1.0000
     1.0000   1.0000   1.0000   1.0000   1.0000   1.0000   1.0000   1.0000
     1.0000   1.0000   1.0000   1.0000   1.0000   1.0000   1.0000   1.0000
     1.0000   1.0000   1.0000   1.0000   1.0000   1.0000   1.0000   1.0000
     1.0000   1.0000   1.0000   1.0000   1.0000   1.0000   1.0001  -0.0000
    -0.0000  -0.0000  -0.0000  -0.0000  -0.0000  -0.0000  -0.0000  -0.0000
    -0.0000  -0.0000  -0.0000  -0.0000  -0.0000  -0.0000  -0.0000  -0.0000
    -0.0000  -0.0000  -0.0000  -0.0000  -0.0000  -0.0000

          k =-0.5025 1.9439-0.7108 ( 11900 PWs)   bands (ev):

   -27.8888 -27.8888 -27.8881 -27.8876 -27.8833 -27.8829 -27.8812 -27.8802
   -27.8792 -27.8787 -27.7313 -27.7242 -27.7241 -27.6951 -27.6947 -14.4216
   -14.4206 -14.4139 -14.4137 -14.4110 -14.4108 -14.4082 -14.4076 -14.4059
   -14.4049  -3.5608  -3.3006  -1.7812  -1.0311  -0.3003   4.7594   5.0242
     5.7216   6.2704   6.3466   7.2304   7.2423   7.6320   7.6343  10.2423
    10.6703  10.7345  10.9234  11.7692  11.8316  13.4616  13.5665  13.8660
    14.5608  16.5365  16.8920  17.2258  17.4518  17.7229  18.0663  18.4513
    18.5233  18.5628  19.0359  19.3690  19.8657  20.2323

     occupation numbers 
     1.0000   1.0000   1.0000   1.0000   1.0000   1.0000   1.0000   1.0000
     1.0000   1.0000   1.0000   1.0000   1.0000   1.0000   1.0000   1.0000
     1.0000   1.0000   1.0000   1.0000   1.0000   1.0000   1.0000   1.0000
     1.0000   1.0000   1.0000   1.0000   1.0000   1.0000   1.0000   1.0000
     1.0000   1.0000   1.0000   1.0000   1.0000   1.0000   1.0000  -0.0000
    -0.0000  -0.0000  -0.0000  -0.0000  -0.0000  -0.0000  -0.0000  -0.0000
    -0.0000  -0.0000  -0.0000  -0.0000  -0.0000  -0.0000  -0.0000  -0.0000
    -0.0000  -0.0000  -0.0000  -0.0000  -0.0000  -0.0000

          k =-0.5029 1.9438-0.2440 ( 11915 PWs)   bands (ev):

   -27.8888 -27.8883 -27.8879 -27.8873 -27.8836 -27.8828 -27.8817 -27.8801
   -27.8788 -27.8785 -27.7311 -27.7243 -27.7242 -27.6950 -27.6944 -14.4234
   -14.4219 -14.4139 -14.4124 -14.4118 -14.4108 -14.4074 -14.4065 -14.4038
   -14.4028  -2.8207  -2.6163  -1.8821  -1.3517  -1.1984   4.3447   4.9010
     4.9293   5.2570   5.8401   6.2229   7.7467   7.8384   8.0364   9.7607
    10.0779  10.2595  11.8540  12.2417  12.8137  13.1866  14.1629  14.9703
    15.8378  16.2157  16.9342  17.8317  18.0120  18.2681  18.8380  19.0013
    19.3927  19.8471  19.9259  20.3733  20.6257  20.9464

     occupation numbers 
     1.0000   1.0000   1.0000   1.0000   1.0000   1.0000   1.0000   1.0000
     1.0000   1.0000   1.0000   1.0000   1.0000   1.0000   1.0000   1.0000
     1.0000   1.0000   1.0000   1.0000   1.0000   1.0000   1.0000   1.0000
     1.0000   1.0000   1.0000   1.0000   1.0000   1.0000   1.0000   1.0000
     1.0000   1.0000   1.0000   1.0000   1.0000   1.0000   1.0000  -0.0000
    -0.0000  -0.0000  -0.0000  -0.0000  -0.0000  -0.0000  -0.0000  -0.0000
    -0.0000  -0.0000  -0.0000  -0.0000  -0.0000  -0.0000  -0.0000  -0.0000
    -0.0000  -0.0000  -0.0000  -0.0000  -0.0000  -0.0000

          k =-0.5011-0.1073 1.3367 ( 11906 PWs)   bands (ev):

   -27.8889 -27.8883 -27.8881 -27.8871 -27.8834 -27.8832 -27.8815 -27.8801
   -27.8788 -27.8785 -27.7311 -27.7244 -27.7241 -27.6951 -27.6943 -14.4263
   -14.4245 -14.4140 -14.4121 -14.4120 -14.4096 -14.4054 -14.4047 -14.4036
   -14.4024  -2.6693  -2.6502  -2.0183  -1.6127  -0.9343   4.1072   4.7041
     5.1372   5.5492   6.4220   6.9146   6.9606   7.3921   7.7703   9.7733
    10.1482  10.7218  11.3326  11.5102  12.0755  13.5088  14.4772  14.8484
    17.1927  17.2633  17.8545  17.9290  18.2115  18.2817  19.1588  19.2680
    19.3714  19.5180  19.6419  19.7858  20.3313  20.8152

     occupation numbers 
     1.0000   1.0000   1.0000   1.0000   1.0000   1.0000   1.0000   1.0000
     1.0000   1.0000   1.0000   1.0000   1.0000   1.0000   1.0000   1.0000
     1.0000   1.0000   1.0000   1.0000   1.0000   1.0000   1.0000   1.0000
     1.0000   1.0000   1.0000   1.0000   1.0000   1.0000   1.0000   1.0000
     1.0000   1.0000   1.0000   1.0000   1.0000   1.0000   1.0000  -0.0000
    -0.0000  -0.0000  -0.0000  -0.0000  -0.0000  -0.0000  -0.0000  -0.0000
    -0.0000  -0.0000  -0.0000  -0.0000  -0.0000  -0.0000  -0.0000  -0.0000
    -0.0000  -0.0000  -0.0000  -0.0000  -0.0000  -0.0000

          k =-0.5016-0.1074 1.8035 ( 11898 PWs)   bands (ev):

   -27.8889 -27.8885 -27.8881 -27.8874 -27.8833 -27.8831 -27.8813 -27.8802
   -27.8791 -27.8786 -27.7312 -27.7243 -27.7241 -27.6951 -27.6945 -14.4242
   -14.4225 -14.4128 -14.4124 -14.4110 -14.4108 -14.4074 -14.4060 -14.4055
   -14.4044  -3.3857  -3.0800  -1.8749  -0.9744  -0.6337   4.2878   5.2374
     5.7933   5.8019   6.5596   6.6144   7.2964   7.5866   7.6647  10.0441
    10.4044  10.5278  11.3047  11.5739  12.4669  12.6184  13.9016  15.4675
    15.7455  16.2754  16.3562  16.7406  16.7635  17.4927  18.4762  19.0471
    19.4608  19.5218  19.8279  20.3971  20.5234  21.3351

     occupation numbers 
     1.0000   1.0000   1.0000   1.0000   1.0000   1.0000   1.0000   1.0000
     1.0000   1.0000   1.0000   1.0000   1.0000   1.0000   1.0000   1.0000
     1.0000   1.0000   1.0000   1.0000   1.0000   1.0000   1.0000   1.0000
     1.0000   1.0000   1.0000   1.0000   1.0000   1.0000   1.0000   1.0000
     1.0000   1.0000   1.0000   1.0000   1.0000   1.0000   1.0000  -0.0000
    -0.0000  -0.0000  -0.0000  -0.0000  -0.0000  -0.0000  -0.0000  -0.0000
    -0.0000  -0.0000  -0.0000  -0.0000  -0.0000  -0.0000  -0.0000  -0.0000
    -0.0000  -0.0000  -0.0000  -0.0000  -0.0000  -0.0000

          k =-0.5020-0.1075 2.2703 ( 11888 PWs)   bands (ev):

   -27.8890 -27.8889 -27.8882 -27.8880 -27.8830 -27.8829 -27.8808 -27.8803
   -27.8795 -27.8789 -27.7315 -27.7241 -27.7241 -27.6951 -27.6949 -14.4205
   -14.4192 -14.4165 -14.4154 -14.4101 -14.4092 -14.4085 -14.4082 -14.4077
   -14.4066  -3.9950  -3.6922  -1.9434  -0.8352   0.3600   5.4143   6.3128
     6.4063   6.5047   6.8183   6.8632   7.7033   7.9722   8.4140   9.3852
     9.7861  10.4033  10.9928  11.1719  11.4850  13.4306  13.9937  14.2905
    14.9434  15.1115  15.6744  16.0749  16.3747  16.4891  16.8507  17.7540
    17.7791  18.1695  18.4466  19.2056  19.7009  19.9024

     occupation numbers 
     1.0000   1.0000   1.0000   1.0000   1.0000   1.0000   1.0000   1.0000
     1.0000   1.0000   1.0000   1.0000   1.0000   1.0000   1.0000   1.0000
     1.0000   1.0000   1.0000   1.0000   1.0000   1.0000   1.0000   1.0000
     1.0000   1.0000   1.0000   1.0000   1.0000   1.0000   1.0000   1.0000
     1.0000   1.0000   1.0000   1.0000   1.0000   1.0000   1.0001  -0.0000
    -0.0000  -0.0000  -0.0000  -0.0000  -0.0000  -0.0000  -0.0000  -0.0000
    -0.0000  -0.0000  -0.0000  -0.0000  -0.0000  -0.0000  -0.0000  -0.0000
    -0.0000  -0.0000  -0.0000  -0.0000  -0.0000  -0.0000

          k =-0.4998-0.1070-0.0636 ( 11950 PWs)   bands (ev):

   -27.8891 -27.8891 -27.8883 -27.8883 -27.8829 -27.8829 -27.8804 -27.8804
   -27.8798 -27.8791 -27.7316 -27.7241 -27.7241 -27.6952 -27.6952 -14.4192
   -14.4192 -14.4181 -14.4181 -14.4110 -14.4101 -14.4076 -14.4076 -14.4067
   -14.4067  -4.2130  -3.9121  -2.0336  -0.8124   0.7810   6.1695   6.9921
     6.9921   7.1734   7.3447   7.3447   7.7029   7.7029   8.2961   9.4199
     9.8444   9.8444  10.4070  10.4364  10.4364  13.6383  14.4220  14.4220
    14.6274  15.3060  16.0701  16.3332  16.3333  16.5641  16.6228  16.6228
    16.9886  17.2701  17.2701  17.3958  17.3958  19.9177

     occupation numbers 
     1.0000   1.0000   1.0000   1.0000   1.0000   1.0000   1.0000   1.0000
     1.0000   1.0000   1.0000   1.0000   1.0000   1.0000   1.0000   1.0000
     1.0000   1.0000   1.0000   1.0000   1.0000   1.0000   1.0000   1.0000
     1.0000   1.0000   1.0000   1.0000   1.0000   1.0000   1.0000   1.0000
     1.0000   1.0000   1.0000   1.0000   1.0000   1.0000   1.0000  -0.0000
    -0.0000  -0.0000  -0.0000  -0.0000  -0.0000  -0.0000  -0.0000  -0.0000
    -0.0000  -0.0000  -0.0000  -0.0000  -0.0000  -0.0000  -0.0000  -0.0000
    -0.0000  -0.0000  -0.0000  -0.0000  -0.0000  -0.0000

          k =-0.5002-0.1071 0.4031 ( 11888 PWs)   bands (ev):

   -27.8890 -27.8889 -27.8882 -27.8880 -27.8830 -27.8829 -27.8808 -27.8803
   -27.8795 -27.8789 -27.7315 -27.7241 -27.7241 -27.6951 -27.6949 -14.4205
   -14.4192 -14.4165 -14.4154 -14.4101 -14.4092 -14.4085 -14.4082 -14.4077
   -14.4066  -3.9950  -3.6922  -1.9434  -0.8352   0.3600   5.4143   6.3128
     6.4063   6.5047   6.8183   6.8632   7.7033   7.9722   8.4140   9.3852
     9.7861  10.4033  10.9928  11.1719  11.4850  13.4306  13.9937  14.2905
    14.9434  15.1115  15.6744  16.0749  16.3747  16.4891  16.8507  17.7540
    17.7791  18.1695  18.4466  19.2056  19.7009  19.9022

     occupation numbers 
     1.0000   1.0000   1.0000   1.0000   1.0000   1.0000   1.0000   1.0000
     1.0000   1.0000   1.0000   1.0000   1.0000   1.0000   1.0000   1.0000
     1.0000   1.0000   1.0000   1.0000   1.0000   1.0000   1.0000   1.0000
     1.0000   1.0000   1.0000   1.0000   1.0000   1.0000   1.0000   1.0000
     1.0000   1.0000   1.0000   1.0000   1.0000   1.0000   1.0001  -0.0000
    -0.0000  -0.0000  -0.0000  -0.0000  -0.0000  -0.0000  -0.0000  -0.0000
    -0.0000  -0.0000  -0.0000  -0.0000  -0.0000  -0.0000  -0.0000  -0.0000
    -0.0000  -0.0000  -0.0000  -0.0000  -0.0000  -0.0000

          k =-0.5007-0.1072 0.8699 ( 11898 PWs)   bands (ev):

   -27.8889 -27.8885 -27.8881 -27.8874 -27.8833 -27.8831 -27.8813 -27.8802
   -27.8791 -27.8786 -27.7312 -27.7243 -27.7241 -27.6951 -27.6945 -14.4242
   -14.4225 -14.4128 -14.4124 -14.4110 -14.4108 -14.4074 -14.4060 -14.4055
   -14.4044  -3.3857  -3.0800  -1.8749  -0.9744  -0.6337   4.2878   5.2374
     5.7933   5.8019   6.5596   6.6144   7.2964   7.5866   7.6647  10.0441
    10.4044  10.5278  11.3047  11.5739  12.4669  12.6184  13.9016  15.4675
    15.7455  16.2754  16.3562  16.7406  16.7635  17.4927  18.4762  19.0471
    19.4608  19.5218  19.8279  20.3971  20.5234  21.3346

     occupation numbers 
     1.0000   1.0000   1.0000   1.0000   1.0000   1.0000   1.0000   1.0000
     1.0000   1.0000   1.0000   1.0000   1.0000   1.0000   1.0000   1.0000
     1.0000   1.0000   1.0000   1.0000   1.0000   1.0000   1.0000   1.0000
     1.0000   1.0000   1.0000   1.0000   1.0000   1.0000   1.0000   1.0000
     1.0000   1.0000   1.0000   1.0000   1.0000   1.0000   1.0000  -0.0000
    -0.0000  -0.0000  -0.0000  -0.0000  -0.0000  -0.0000  -0.0000  -0.0000
    -0.0000  -0.0000  -0.0000  -0.0000  -0.0000  -0.0000  -0.0000  -0.0000
    -0.0000  -0.0000  -0.0000  -0.0000  -0.0000  -0.0000

          k =-0.5016 0.3029 1.1139 ( 11912 PWs)   bands (ev):

   -27.8888 -27.8883 -27.8879 -27.8873 -27.8836 -27.8828 -27.8817 -27.8801
   -27.8788 -27.8785 -27.7311 -27.7243 -27.7242 -27.6950 -27.6944 -14.4234
   -14.4219 -14.4139 -14.4124 -14.4118 -14.4108 -14.4074 -14.4065 -14.4038
   -14.4028  -2.8496  -2.5695  -1.8973  -1.3949  -1.1579   4.1823   5.0011
     5.1774   5.4116   5.6709   6.0141   7.4325   8.0386   8.1953   9.7004
     9.9854  10.4099  11.9314  12.3908  12.7988  12.8819  14.5967  15.1894
    15.3956  15.8292  16.8088  17.8304  17.9041  18.2032  18.8852  19.3349
    19.3546  19.7830  20.1366  20.6400  20.7702  21.2292

     occupation numbers 
     1.0000   1.0000   1.0000   1.0000   1.0000   1.0000   1.0000   1.0000
     1.0000   1.0000   1.0000   1.0000   1.0000   1.0000   1.0000   1.0000
     1.0000   1.0000   1.0000   1.0000   1.0000   1.0000   1.0000   1.0000
     1.0000   1.0000   1.0000   1.0000   1.0000   1.0000   1.0000   1.0000
     1.0000   1.0000   1.0000   1.0000   1.0000   1.0000   1.0000  -0.0000
    -0.0000  -0.0000  -0.0000  -0.0000  -0.0000  -0.0000  -0.0000  -0.0000
    -0.0000  -0.0000  -0.0000  -0.0000  -0.0000  -0.0000  -0.0000  -0.0000
    -0.0000  -0.0000  -0.0000  -0.0000  -0.0000  -0.0000

          k =-0.5020 0.3028 1.5807 ( 11915 PWs)   bands (ev):

   -27.8888 -27.8883 -27.8879 -27.8873 -27.8836 -27.8828 -27.8817 -27.8801
   -27.8788 -27.8785 -27.7311 -27.7243 -27.7242 -27.6950 -27.6944 -14.4234
   -14.4219 -14.4139 -14.4124 -14.4118 -14.4108 -14.4074 -14.4065 -14.4038
   -14.4028  -2.8207  -2.6163  -1.8821  -1.3517  -1.1984   4.3447   4.9010
     4.9293   5.2570   5.8401   6.2229   7.7467   7.8384   8.0364   9.7607
    10.0779  10.2595  11.8540  12.2417  12.8137  13.1866  14.1629  14.9703
    15.8378  16.2157  16.9342  17.8317  18.0120  18.2681  18.8380  19.0013
    19.3927  19.8471  19.9259  20.3733  20.6257  20.9462

     occupation numbers 
     1.0000   1.0000   1.0000   1.0000   1.0000   1.0000   1.0000   1.0000
     1.0000   1.0000   1.0000   1.0000   1.0000   1.0000   1.0000   1.0000
     1.0000   1.0000   1.0000   1.0000   1.0000   1.0000   1.0000   1.0000
     1.0000   1.0000   1.0000   1.0000   1.0000   1.0000   1.0000   1.0000
     1.0000   1.0000   1.0000   1.0000   1.0000   1.0000   1.0000  -0.0000
    -0.0000  -0.0000  -0.0000  -0.0000  -0.0000  -0.0000  -0.0000  -0.0000
    -0.0000  -0.0000  -0.0000  -0.0000  -0.0000  -0.0000  -0.0000  -0.0000
    -0.0000  -0.0000  -0.0000  -0.0000  -0.0000  -0.0000

          k =-0.5025 0.3027 2.0475 ( 11900 PWs)   bands (ev):

   -27.8888 -27.8888 -27.8881 -27.8876 -27.8833 -27.8829 -27.8812 -27.8802
   -27.8792 -27.8787 -27.7313 -27.7242 -27.7241 -27.6951 -27.6947 -14.4216
   -14.4206 -14.4139 -14.4137 -14.4110 -14.4108 -14.4082 -14.4076 -14.4059
   -14.4049  -3.5608  -3.3006  -1.7812  -1.0311  -0.3003   4.7594   5.0242
     5.7216   6.2704   6.3466   7.2304   7.2423   7.6320   7.6343  10.2423
    10.6703  10.7345  10.9234  11.7692  11.8316  13.4616  13.5665  13.8660
    14.5608  16.5365  16.8920  17.2258  17.4518  17.7229  18.0663  18.4513
    18.5233  18.5628  19.0359  19.3690  19.8657  20.2323

     occupation numbers 
     1.0000   1.0000   1.0000   1.0000   1.0000   1.0000   1.0000   1.0000
     1.0000   1.0000   1.0000   1.0000   1.0000   1.0000   1.0000   1.0000
     1.0000   1.0000   1.0000   1.0000   1.0000   1.0000   1.0000   1.0000
     1.0000   1.0000   1.0000   1.0000   1.0000   1.0000   1.0000   1.0000
     1.0000   1.0000   1.0000   1.0000   1.0000   1.0000   1.0000  -0.0000
    -0.0000  -0.0000  -0.0000  -0.0000  -0.0000  -0.0000  -0.0000  -0.0000
    -0.0000  -0.0000  -0.0000  -0.0000  -0.0000  -0.0000  -0.0000  -0.0000
    -0.0000  -0.0000  -0.0000  -0.0000  -0.0000  -0.0000

          k =-0.5002 0.3032-0.2864 ( 11888 PWs)   bands (ev):

   -27.8890 -27.8889 -27.8882 -27.8880 -27.8830 -27.8829 -27.8808 -27.8803
   -27.8795 -27.8789 -27.7315 -27.7241 -27.7241 -27.6951 -27.6949 -14.4205
   -14.4192 -14.4165 -14.4154 -14.4101 -14.4092 -14.4085 -14.4082 -14.4077
   -14.4066  -3.9950  -3.6922  -1.9434  -0.8352   0.3600   5.4143   6.3128
     6.4063   6.5047   6.8183   6.8632   7.7033   7.9722   8.4140   9.3852
     9.7861  10.4033  10.9928  11.1719  11.4850  13.4306  13.9937  14.2905
    14.9434  15.1115  15.6744  16.0749  16.3747  16.4891  16.8507  17.7540
    17.7791  18.1695  18.4466  19.2056  19.7009  19.9023

     occupation numbers 
     1.0000   1.0000   1.0000   1.0000   1.0000   1.0000   1.0000   1.0000
     1.0000   1.0000   1.0000   1.0000   1.0000   1.0000   1.0000   1.0000
     1.0000   1.0000   1.0000   1.0000   1.0000   1.0000   1.0000   1.0000
     1.0000   1.0000   1.0000   1.0000   1.0000   1.0000   1.0000   1.0000
     1.0000   1.0000   1.0000   1.0000   1.0000   1.0000   1.0001  -0.0000
    -0.0000  -0.0000  -0.0000  -0.0000  -0.0000  -0.0000  -0.0000  -0.0000
    -0.0000  -0.0000  -0.0000  -0.0000  -0.0000  -0.0000  -0.0000  -0.0000
    -0.0000  -0.0000  -0.0000  -0.0000  -0.0000  -0.0000

          k =-0.5007 0.3031 0.1803 ( 11903 PWs)   bands (ev):

   -27.8890 -27.8889 -27.8882 -27.8880 -27.8830 -27.8829 -27.8808 -27.8804
   -27.8795 -27.8789 -27.7315 -27.7241 -27.7241 -27.6951 -27.6949 -14.4205
   -14.4192 -14.4165 -14.4154 -14.4101 -14.4092 -14.4085 -14.4082 -14.4077
   -14.4066  -4.0055  -3.6754  -1.9636  -0.8183   0.3613   5.4222   6.0833
     6.4757   6.5636   6.7765   7.0864   7.5836   7.9983   8.4156   9.4222
     9.8574  10.5726  10.8649  11.0601  11.3299  13.2881  14.2056  14.3748
    14.7567  15.1209  15.6420  16.0808  16.5644  16.9553  17.1933  17.4529
    18.0497  18.0618  18.1942  18.6024  19.6717  20.0438

     occupation numbers 
     1.0000   1.0000   1.0000   1.0000   1.0000   1.0000   1.0000   1.0000
     1.0000   1.0000   1.0000   1.0000   1.0000   1.0000   1.0000   1.0000
     1.0000   1.0000   1.0000   1.0000   1.0000   1.0000   1.0000   1.0000
     1.0000   1.0000   1.0000   1.0000   1.0000   1.0000   1.0000   1.0000
     1.0000   1.0000   1.0000   1.0000   1.0000   1.0000   1.0001  -0.0000
    -0.0000  -0.0000  -0.0000  -0.0000  -0.0000  -0.0000  -0.0000  -0.0000
    -0.0000  -0.0000  -0.0000  -0.0000  -0.0000  -0.0000  -0.0000  -0.0000
    -0.0000  -0.0000  -0.0000  -0.0000  -0.0000  -0.0000

          k =-0.5011 0.3030 0.6471 ( 11894 PWs)   bands (ev):

   -27.8888 -27.8888 -27.8881 -27.8876 -27.8833 -27.8829 -27.8812 -27.8802
   -27.8792 -27.8787 -27.7313 -27.7242 -27.7241 -27.6951 -27.6947 -14.4216
   -14.4206 -14.4139 -14.4137 -14.4110 -14.4108 -14.4082 -14.4076 -14.4059
   -14.4049  -3.5907  -3.2515  -1.8488  -0.9546  -0.3284   4.7915   5.0742
     5.6580   6.1538   6.4094   6.8590   7.3847   7.8162   7.8774  10.0626
    10.2508  10.8519  11.0720  11.7648  12.0719  13.3763  13.3909  14.1941
    14.7788  16.5093  16.7255  16.8543  17.2377  17.6245  17.9514  18.2553
    18.6315  18.6836  18.9691  19.7583  20.2011  20.4533

     occupation numbers 
     1.0000   1.0000   1.0000   1.0000   1.0000   1.0000   1.0000   1.0000
     1.0000   1.0000   1.0000   1.0000   1.0000   1.0000   1.0000   1.0000
     1.0000   1.0000   1.0000   1.0000   1.0000   1.0000   1.0000   1.0000
     1.0000   1.0000   1.0000   1.0000   1.0000   1.0000   1.0000   1.0000
     1.0000   1.0000   1.0000   1.0000   1.0000   1.0000   1.0000  -0.0000
    -0.0000  -0.0000  -0.0000  -0.0000  -0.0000  -0.0000  -0.0000  -0.0000
    -0.0000  -0.0000  -0.0000  -0.0000  -0.0000  -0.0000  -0.0000  -0.0000
    -0.0000  -0.0000  -0.0000  -0.0000  -0.0000  -0.0000

          k =-0.5020 0.7131 0.8911 ( 11914 PWs)   bands (ev):

   -27.8888 -27.8883 -27.8879 -27.8873 -27.8836 -27.8828 -27.8817 -27.8801
   -27.8788 -27.8785 -27.7311 -27.7243 -27.7242 -27.6950 -27.6944 -14.4234
   -14.4219 -14.4138 -14.4124 -14.4118 -14.4108 -14.4074 -14.4065 -14.4038
   -14.4028  -2.8291  -2.6168  -1.8037  -1.4926  -1.1271   4.1445   4.7573
     5.1580   5.3847   6.3149   6.6825   7.1003   7.2233   7.4932  10.5629
    10.7191  10.8095  11.4286  11.8426  12.7327  12.9923  13.6148  14.7384
    16.6608  16.7268  17.1567  17.8063  17.9609  18.1914  18.3216  18.9609
    19.2943  19.3766  19.6734  19.8546  20.4837  21.1823

     occupation numbers 
     1.0000   1.0000   1.0000   1.0000   1.0000   1.0000   1.0000   1.0000
     1.0000   1.0000   1.0000   1.0000   1.0000   1.0000   1.0000   1.0000
     1.0000   1.0000   1.0000   1.0000   1.0000   1.0000   1.0000   1.0000
     1.0000   1.0000   1.0000   1.0000   1.0000   1.0000   1.0000   1.0000
     1.0000   1.0000   1.0000   1.0000   1.0000   1.0000   1.0000  -0.0000
    -0.0000  -0.0000  -0.0000  -0.0000  -0.0000  -0.0000  -0.0000  -0.0000
    -0.0000  -0.0000  -0.0000  -0.0000  -0.0000  -0.0000  -0.0000  -0.0000
    -0.0000  -0.0000  -0.0000  -0.0000  -0.0000  -0.0000

          k =-0.5025 0.7130 1.3579 ( 11936 PWs)   bands (ev):

   -27.8888 -27.8880 -27.8879 -27.8873 -27.8839 -27.8823 -27.8822 -27.8801
   -27.8787 -27.8786 -27.7311 -27.7243 -27.7243 -27.6946 -27.6946 -14.4196
   -14.4195 -14.4174 -14.4139 -14.4095 -14.4091 -14.4089 -14.4084 -14.4037
   -14.4035  -2.1649  -2.1540  -1.8534  -1.8527  -1.7994   4.2530   4.6787
     4.7033   5.1992   5.7102   6.1891   6.9611   7.7395   7.9138  10.0822
    10.3862  11.1606  11.9592  12.6670  12.6839  14.2631  14.6534  14.8869
    14.9791  15.4139  16.4601  17.3175  17.4948  18.5171  18.5973  18.9425
    19.1972  19.8349  20.1252  21.1706  21.5385  21.8091

     occupation numbers 
     1.0000   1.0000   1.0000   1.0000   1.0000   1.0000   1.0000   1.0000
     1.0000   1.0000   1.0000   1.0000   1.0000   1.0000   1.0000   1.0000
     1.0000   1.0000   1.0000   1.0000   1.0000   1.0000   1.0000   1.0000
     1.0000   1.0000   1.0000   1.0000   1.0000   1.0000   1.0000   1.0000
     1.0000   1.0000   1.0000   1.0000   1.0000   1.0000   1.0000  -0.0000
    -0.0000  -0.0000  -0.0000  -0.0000  -0.0000  -0.0000  -0.0000  -0.0000
    -0.0000  -0.0000  -0.0000  -0.0000  -0.0000  -0.0000  -0.0000  -0.0000
    -0.0000  -0.0000  -0.0000  -0.0000  -0.0000  -0.0000

          k =-0.5029 0.7129 1.8247 ( 11915 PWs)   bands (ev):

   -27.8888 -27.8883 -27.8879 -27.8873 -27.8836 -27.8828 -27.8817 -27.8801
   -27.8788 -27.8785 -27.7311 -27.7243 -27.7242 -27.6950 -27.6944 -14.4234
   -14.4219 -14.4139 -14.4124 -14.4118 -14.4108 -14.4074 -14.4065 -14.4038
   -14.4028  -2.8207  -2.6163  -1.8821  -1.3517  -1.1984   4.3447   4.9010
     4.9293   5.2570   5.8401   6.2229   7.7467   7.8384   8.0364   9.7607
    10.0779  10.2595  11.8540  12.2417  12.8137  13.1866  14.1629  14.9703
    15.8378  16.2157  16.9342  17.8317  18.0120  18.2681  18.8380  19.0013
    19.3927  19.8471  19.9259  20.3733  20.6257  20.9463

     occupation numbers 
     1.0000   1.0000   1.0000   1.0000   1.0000   1.0000   1.0000   1.0000
     1.0000   1.0000   1.0000   1.0000   1.0000   1.0000   1.0000   1.0000
     1.0000   1.0000   1.0000   1.0000   1.0000   1.0000   1.0000   1.0000
     1.0000   1.0000   1.0000   1.0000   1.0000   1.0000   1.0000   1.0000
     1.0000   1.0000   1.0000   1.0000   1.0000   1.0000   1.0000  -0.0000
    -0.0000  -0.0000  -0.0000  -0.0000  -0.0000  -0.0000  -0.0000  -0.0000
    -0.0000  -0.0000  -0.0000  -0.0000  -0.0000  -0.0000  -0.0000  -0.0000
    -0.0000  -0.0000  -0.0000  -0.0000  -0.0000  -0.0000

          k =-0.5007 0.7134-0.5092 ( 11898 PWs)   bands (ev):

   -27.8889 -27.8885 -27.8881 -27.8874 -27.8833 -27.8831 -27.8813 -27.8802
   -27.8791 -27.8786 -27.7312 -27.7243 -27.7241 -27.6951 -27.6945 -14.4242
   -14.4225 -14.4128 -14.4124 -14.4110 -14.4108 -14.4074 -14.4060 -14.4055
   -14.4044  -3.3857  -3.0800  -1.8749  -0.9744  -0.6337   4.2878   5.2374
     5.7933   5.8019   6.5596   6.6144   7.2964   7.5866   7.6647  10.0441
    10.4044  10.5278  11.3047  11.5739  12.4669  12.6184  13.9016  15.4675
    15.7455  16.2754  16.3562  16.7406  16.7635  17.4927  18.4762  19.0471
    19.4608  19.5218  19.8279  20.3972  20.5234  21.3347

     occupation numbers 
     1.0000   1.0000   1.0000   1.0000   1.0000   1.0000   1.0000   1.0000
     1.0000   1.0000   1.0000   1.0000   1.0000   1.0000   1.0000   1.0000
     1.0000   1.0000   1.0000   1.0000   1.0000   1.0000   1.0000   1.0000
     1.0000   1.0000   1.0000   1.0000   1.0000   1.0000   1.0000   1.0000
     1.0000   1.0000   1.0000   1.0000   1.0000   1.0000   1.0000  -0.0000
    -0.0000  -0.0000  -0.0000  -0.0000  -0.0000  -0.0000  -0.0000  -0.0000
    -0.0000  -0.0000  -0.0000  -0.0000  -0.0000  -0.0000  -0.0000  -0.0000
    -0.0000  -0.0000  -0.0000  -0.0000  -0.0000  -0.0000

          k =-0.5011 0.7133-0.0424 ( 11894 PWs)   bands (ev):

   -27.8888 -27.8888 -27.8881 -27.8876 -27.8833 -27.8829 -27.8812 -27.8802
   -27.8792 -27.8787 -27.7313 -27.7242 -27.7241 -27.6951 -27.6947 -14.4216
   -14.4206 -14.4139 -14.4137 -14.4110 -14.4108 -14.4082 -14.4076 -14.4059
   -14.4049  -3.5907  -3.2515  -1.8488  -0.9546  -0.3284   4.7915   5.0742
     5.6580   6.1538   6.4094   6.8590   7.3847   7.8162   7.8774  10.0626
    10.2508  10.8519  11.0720  11.7648  12.0719  13.3763  13.3909  14.1941
    14.7788  16.5093  16.7255  16.8543  17.2377  17.6245  17.9514  18.2553
    18.6315  18.6836  18.9691  19.7583  20.2011  20.4533

     occupation numbers 
     1.0000   1.0000   1.0000   1.0000   1.0000   1.0000   1.0000   1.0000
     1.0000   1.0000   1.0000   1.0000   1.0000   1.0000   1.0000   1.0000
     1.0000   1.0000   1.0000   1.0000   1.0000   1.0000   1.0000   1.0000
     1.0000   1.0000   1.0000   1.0000   1.0000   1.0000   1.0000   1.0000
     1.0000   1.0000   1.0000   1.0000   1.0000   1.0000   1.0000  -0.0000
    -0.0000  -0.0000  -0.0000  -0.0000  -0.0000  -0.0000  -0.0000  -0.0000
    -0.0000  -0.0000  -0.0000  -0.0000  -0.0000  -0.0000  -0.0000  -0.0000
    -0.0000  -0.0000  -0.0000  -0.0000  -0.0000  -0.0000

          k =-0.5016 0.7132 0.4243 ( 11904 PWs)   bands (ev):

   -27.8889 -27.8885 -27.8882 -27.8874 -27.8833 -27.8831 -27.8813 -27.8802
   -27.8791 -27.8786 -27.7313 -27.7243 -27.7241 -27.6951 -27.6945 -14.4242
   -14.4225 -14.4128 -14.4124 -14.4110 -14.4108 -14.4074 -14.4060 -14.4055
   -14.4044  -3.3923  -3.0773  -1.7977  -1.1746  -0.5048   4.5314   4.9778
     5.7637   5.9430   6.1218   6.2504   7.8611   7.9175   8.2484   9.4047
     9.9736  10.0696  11.5000  11.8849  12.5008  12.9930  13.7824  15.1413
    16.1792  16.3085  16.7023  16.8141  17.4290  17.7227  18.0322  18.2488
    18.8183  19.1417  19.7813  19.8970  20.2683  20.7032

     occupation numbers 
     1.0000   1.0000   1.0000   1.0000   1.0000   1.0000   1.0000   1.0000
     1.0000   1.0000   1.0000   1.0000   1.0000   1.0000   1.0000   1.0000
     1.0000   1.0000   1.0000   1.0000   1.0000   1.0000   1.0000   1.0000
     1.0000   1.0000   1.0000   1.0000   1.0000   1.0000   1.0000   1.0000
     1.0000   1.0000   1.0000   1.0000   1.0000   1.0000   1.0000  -0.0000
    -0.0000  -0.0000  -0.0000  -0.0000  -0.0000  -0.0000  -0.0000  -0.0000
    -0.0000  -0.0000  -0.0000  -0.0000  -0.0000  -0.0000  -0.0000  -0.0000
    -0.0000  -0.0000  -0.0000  -0.0000  -0.0000  -0.0000

          k =-0.3350 0.7489 0.4456 ( 11906 PWs)   bands (ev):

   -27.8889 -27.8885 -27.8881 -27.8874 -27.8833 -27.8831 -27.8813 -27.8802
   -27.8791 -27.8786 -27.7313 -27.7243 -27.7241 -27.6951 -27.6945 -14.4242
   -14.4225 -14.4128 -14.4124 -14.4110 -14.4108 -14.4074 -14.4060 -14.4055
   -14.4044  -3.4315  -3.0019  -1.8947  -1.1069  -0.5078   4.3657   5.3199
     5.5618   5.9090   6.3094   6.3612   7.4560   7.8493   8.0789   9.5901
    10.1062  10.5361  11.4243  11.7446  12.4249  12.7183  14.0786  15.0338
    16.2220  16.3457  16.6688  16.9078  17.2709  17.8930  18.0939  18.1195
    18.3785  18.6285  19.3452  20.4858  20.7242  20.9011

     occupation numbers 
     1.0000   1.0000   1.0000   1.0000   1.0000   1.0000   1.0000   1.0000
     1.0000   1.0000   1.0000   1.0000   1.0000   1.0000   1.0000   1.0000
     1.0000   1.0000   1.0000   1.0000   1.0000   1.0000   1.0000   1.0000
     1.0000   1.0000   1.0000   1.0000   1.0000   1.0000   1.0000   1.0000
     1.0000   1.0000   1.0000   1.0000   1.0000   1.0000   1.0000  -0.0000
    -0.0000  -0.0000  -0.0000  -0.0000  -0.0000  -0.0000  -0.0000  -0.0000
    -0.0000  -0.0000  -0.0000  -0.0000  -0.0000  -0.0000  -0.0000  -0.0000
    -0.0000  -0.0000  -0.0000  -0.0000  -0.0000  -0.0000

          k =-0.3354 0.7488 0.9123 ( 11920 PWs)   bands (ev):

   -27.8888 -27.8884 -27.8879 -27.8873 -27.8836 -27.8828 -27.8817 -27.8801
   -27.8788 -27.8785 -27.7311 -27.7243 -27.7242 -27.6950 -27.6944 -14.4234
   -14.4219 -14.4138 -14.4124 -14.4118 -14.4108 -14.4074 -14.4065 -14.4038
   -14.4028  -2.8563  -2.5727  -1.8166  -1.5183  -1.1053   4.0521   4.8014
     5.2270   5.7688   6.0918   6.3461   6.8205   7.4828   7.6680  10.3787
    10.5265  11.2161  11.5994  12.0898  12.2573  12.8323  14.0303  14.7465
    16.1547  16.7788  17.1360  17.3351  17.8616  18.0798  18.6637  19.0691
    19.2896  19.7160  19.9862  20.1790  20.5893  21.0015

     occupation numbers 
     1.0000   1.0000   1.0000   1.0000   1.0000   1.0000   1.0000   1.0000
     1.0000   1.0000   1.0000   1.0000   1.0000   1.0000   1.0000   1.0000
     1.0000   1.0000   1.0000   1.0000   1.0000   1.0000   1.0000   1.0000
     1.0000   1.0000   1.0000   1.0000   1.0000   1.0000   1.0000   1.0000
     1.0000   1.0000   1.0000   1.0000   1.0000   1.0000   1.0000  -0.0000
    -0.0000  -0.0000  -0.0000  -0.0000  -0.0000  -0.0000  -0.0000  -0.0000
    -0.0000  -0.0000  -0.0000  -0.0000  -0.0000  -0.0000  -0.0000  -0.0000
    -0.0000  -0.0000  -0.0000  -0.0000  -0.0000  -0.0000

          k =-0.3359 0.7487 1.3791 ( 11913 PWs)   bands (ev):

   -27.8888 -27.8880 -27.8879 -27.8873 -27.8839 -27.8823 -27.8822 -27.8800
   -27.8787 -27.8786 -27.7311 -27.7243 -27.7243 -27.6946 -27.6946 -14.4196
   -14.4195 -14.4174 -14.4139 -14.4095 -14.4091 -14.4089 -14.4084 -14.4037
   -14.4035  -2.1649  -2.1540  -1.8534  -1.8527  -1.7994   4.2552   4.6088
     4.8128   5.1133   5.9419   5.9475   7.1426   7.4628   8.0805   9.9299
    10.7903  10.8159  12.1744  12.3895  12.8220  14.2620  14.7269  14.7366
    15.1082  15.3436  16.6108  16.9193  18.1024  18.1846  18.5314  18.8430
    19.2163  19.9778  20.5322  20.8712  20.9246  22.0688

     occupation numbers 
     1.0000   1.0000   1.0000   1.0000   1.0000   1.0000   1.0000   1.0000
     1.0000   1.0000   1.0000   1.0000   1.0000   1.0000   1.0000   1.0000
     1.0000   1.0000   1.0000   1.0000   1.0000   1.0000   1.0000   1.0000
     1.0000   1.0000   1.0000   1.0000   1.0000   1.0000   1.0000   1.0000
     1.0000   1.0000   1.0000   1.0000   1.0000   1.0000   1.0000  -0.0000
    -0.0000  -0.0000  -0.0000  -0.0000  -0.0000  -0.0000  -0.0000  -0.0000
    -0.0000  -0.0000  -0.0000  -0.0000  -0.0000  -0.0000  -0.0000  -0.0000
    -0.0000  -0.0000  -0.0000  -0.0000  -0.0000  -0.0000

          k =-0.3336 0.7492-0.9548 ( 11912 PWs)   bands (ev):

   -27.8888 -27.8883 -27.8879 -27.8873 -27.8836 -27.8828 -27.8817 -27.8801
   -27.8788 -27.8785 -27.7311 -27.7243 -27.7242 -27.6950 -27.6944 -14.4234
   -14.4219 -14.4139 -14.4124 -14.4118 -14.4108 -14.4074 -14.4065 -14.4038
   -14.4028  -2.8496  -2.5695  -1.8973  -1.3949  -1.1579   4.1823   5.0011
     5.1774   5.4116   5.6709   6.0141   7.4325   8.0386   8.1953   9.7004
     9.9854  10.4099  11.9314  12.3908  12.7988  12.8819  14.5967  15.1894
    15.3956  15.8292  16.8088  17.8304  17.9041  18.2032  18.8852  19.3349
    19.3546  19.7830  20.1366  20.6400  20.7702  21.2274

     occupation numbers 
     1.0000   1.0000   1.0000   1.0000   1.0000   1.0000   1.0000   1.0000
     1.0000   1.0000   1.0000   1.0000   1.0000   1.0000   1.0000   1.0000
     1.0000   1.0000   1.0000   1.0000   1.0000   1.0000   1.0000   1.0000
     1.0000   1.0000   1.0000   1.0000   1.0000   1.0000   1.0000   1.0000
     1.0000   1.0000   1.0000   1.0000   1.0000   1.0000   1.0000  -0.0000
    -0.0000  -0.0000  -0.0000  -0.0000  -0.0000  -0.0000  -0.0000  -0.0000
    -0.0000  -0.0000  -0.0000  -0.0000  -0.0000  -0.0000  -0.0000  -0.0000
    -0.0000  -0.0000  -0.0000  -0.0000  -0.0000  -0.0000

          k =-0.3341 0.7491-0.4880 ( 11884 PWs)   bands (ev):

   -27.8889 -27.8885 -27.8881 -27.8874 -27.8833 -27.8831 -27.8813 -27.8802
   -27.8791 -27.8786 -27.7312 -27.7243 -27.7241 -27.6951 -27.6945 -14.4242
   -14.4225 -14.4128 -14.4124 -14.4110 -14.4108 -14.4074 -14.4060 -14.4055
   -14.4044  -3.4264  -3.0020  -1.9578  -0.9034  -0.6549   4.2073   5.3235
     5.7877   5.9745   6.6164   6.7128   7.1574   7.2728   7.5115  10.1978
    10.6184  11.1051  11.2187  11.3437  12.1841  12.3366  14.3939  15.3624
    15.4298  16.1310  16.2617  17.0122  17.1674  17.6580  17.8822  18.7696
    18.9469  19.2705  19.7342  20.8676  21.0228  21.5231

     occupation numbers 
     1.0000   1.0000   1.0000   1.0000   1.0000   1.0000   1.0000   1.0000
     1.0000   1.0000   1.0000   1.0000   1.0000   1.0000   1.0000   1.0000
     1.0000   1.0000   1.0000   1.0000   1.0000   1.0000   1.0000   1.0000
     1.0000   1.0000   1.0000   1.0000   1.0000   1.0000   1.0000   1.0000
     1.0000   1.0000   1.0000   1.0000   1.0000   1.0000   1.0000  -0.0000
    -0.0000  -0.0000  -0.0000  -0.0000  -0.0000  -0.0000  -0.0000  -0.0000
    -0.0000  -0.0000  -0.0000  -0.0000  -0.0000  -0.0000  -0.0000  -0.0000
    -0.0000  -0.0000  -0.0000  -0.0000  -0.0000  -0.0000

          k =-0.3345 0.7490-0.0212 ( 11897 PWs)   bands (ev):

   -27.8888 -27.8888 -27.8881 -27.8876 -27.8833 -27.8829 -27.8812 -27.8802
   -27.8792 -27.8786 -27.7313 -27.7242 -27.7241 -27.6951 -27.6947 -14.4216
   -14.4206 -14.4139 -14.4137 -14.4110 -14.4108 -14.4082 -14.4076 -14.4059
   -14.4049  -3.6338  -3.1659  -1.9685  -0.8019  -0.4038   4.8843   5.1551
     5.5594   6.0941   6.2169   6.6252   7.6109   8.0763   8.1474   9.7245
    10.0193  10.5090  11.2804  12.0682  12.2619  13.2052  13.2985  14.7633
    15.2949  16.1976  16.3380  16.4819  16.9536  17.1933  17.4085  18.0890
    18.7733  19.1221  19.5786  20.1460  20.4114  20.7854

     occupation numbers 
     1.0000   1.0000   1.0000   1.0000   1.0000   1.0000   1.0000   1.0000
     1.0000   1.0000   1.0000   1.0000   1.0000   1.0000   1.0000   1.0000
     1.0000   1.0000   1.0000   1.0000   1.0000   1.0000   1.0000   1.0000
     1.0000   1.0000   1.0000   1.0000   1.0000   1.0000   1.0000   1.0000
     1.0000   1.0000   1.0000   1.0000   1.0000   1.0000   1.0000  -0.0000
    -0.0000  -0.0000  -0.0000  -0.0000  -0.0000  -0.0000  -0.0000  -0.0000
    -0.0000  -0.0000  -0.0000  -0.0000  -0.0000  -0.0000  -0.0000  -0.0000
    -0.0000  -0.0000  -0.0000  -0.0000  -0.0000  -0.0000

          k =-0.3354 1.1590 0.2228 ( 11920 PWs)   bands (ev):

   -27.8888 -27.8884 -27.8879 -27.8873 -27.8836 -27.8828 -27.8817 -27.8801
   -27.8788 -27.8785 -27.7311 -27.7243 -27.7242 -27.6950 -27.6944 -14.4234
   -14.4219 -14.4138 -14.4124 -14.4118 -14.4108 -14.4074 -14.4065 -14.4038
   -14.4028  -2.8563  -2.5727  -1.8166  -1.5183  -1.1053   4.0521   4.8014
     5.2270   5.7688   6.0918   6.3461   6.8205   7.4828   7.6680  10.3787
    10.5265  11.2161  11.5994  12.0898  12.2573  12.8323  14.0303  14.7465
    16.1547  16.7788  17.1360  17.3351  17.8616  18.0798  18.6637  19.0691
    19.2896  19.7160  19.9862  20.1790  20.5893  21.0015

     occupation numbers 
     1.0000   1.0000   1.0000   1.0000   1.0000   1.0000   1.0000   1.0000
     1.0000   1.0000   1.0000   1.0000   1.0000   1.0000   1.0000   1.0000
     1.0000   1.0000   1.0000   1.0000   1.0000   1.0000   1.0000   1.0000
     1.0000   1.0000   1.0000   1.0000   1.0000   1.0000   1.0000   1.0000
     1.0000   1.0000   1.0000   1.0000   1.0000   1.0000   1.0000  -0.0000
    -0.0000  -0.0000  -0.0000  -0.0000  -0.0000  -0.0000  -0.0000  -0.0000
    -0.0000  -0.0000  -0.0000  -0.0000  -0.0000  -0.0000  -0.0000  -0.0000
    -0.0000  -0.0000  -0.0000  -0.0000  -0.0000  -0.0000

          k =-0.3359 1.1590 0.6896 ( 11935 PWs)   bands (ev):

   -27.8889 -27.8884 -27.8881 -27.8871 -27.8834 -27.8832 -27.8815 -27.8802
   -27.8788 -27.8786 -27.7311 -27.7244 -27.7241 -27.6951 -27.6943 -14.4264
   -14.4245 -14.4140 -14.4121 -14.4120 -14.4096 -14.4054 -14.4047 -14.4036
   -14.4024  -2.6676  -2.6405  -2.1050  -1.4433  -1.0347   3.8468   5.3092
     5.3589   5.6543   6.0601   6.1379   6.9413   7.7325   7.9108   9.5850
    10.1131  10.8242  11.4569  12.0698  12.2511  12.7032  13.7392  16.3717
    17.1374  17.3488  17.4991  17.9194  18.1315  18.1731  18.9502  18.9957
    19.0167  19.5185  19.6081  20.1180  20.2264  20.7376

     occupation numbers 
     1.0000   1.0000   1.0000   1.0000   1.0000   1.0000   1.0000   1.0000
     1.0000   1.0000   1.0000   1.0000   1.0000   1.0000   1.0000   1.0000
     1.0000   1.0000   1.0000   1.0000   1.0000   1.0000   1.0000   1.0000
     1.0000   1.0000   1.0000   1.0000   1.0000   1.0000   1.0000   1.0000
     1.0000   1.0000   1.0000   1.0000   1.0000   1.0000   1.0000  -0.0000
    -0.0000  -0.0000  -0.0000  -0.0000  -0.0000  -0.0000  -0.0000  -0.0000
    -0.0000  -0.0000  -0.0000  -0.0000  -0.0000  -0.0000  -0.0000  -0.0000
    -0.0000  -0.0000  -0.0000  -0.0000  -0.0000  -0.0000

          k =-0.3364 1.1589 1.1563 ( 11918 PWs)   bands (ev):

   -27.8888 -27.8883 -27.8879 -27.8873 -27.8836 -27.8828 -27.8817 -27.8801
   -27.8788 -27.8785 -27.7311 -27.7243 -27.7242 -27.6950 -27.6944 -14.4234
   -14.4219 -14.4139 -14.4124 -14.4118 -14.4108 -14.4074 -14.4065 -14.4038
   -14.4028  -2.8059  -2.6438  -1.8408  -1.4072  -1.1715   4.3059   4.8033
     4.9969   5.1735   6.1283   6.5637   7.3431   7.5466   7.8120   9.9842
    10.4357  10.6624  11.6028  11.9620  12.9218  13.1431  13.7237  14.8060
    16.1986  16.9068  17.1017  17.8118  17.9632  18.1940  18.6453  18.7726
    19.2997  19.6348  19.8094  19.9796  20.3383  21.1016

     occupation numbers 
     1.0000   1.0000   1.0000   1.0000   1.0000   1.0000   1.0000   1.0000
     1.0000   1.0000   1.0000   1.0000   1.0000   1.0000   1.0000   1.0000
     1.0000   1.0000   1.0000   1.0000   1.0000   1.0000   1.0000   1.0000
     1.0000   1.0000   1.0000   1.0000   1.0000   1.0000   1.0000   1.0000
     1.0000   1.0000   1.0000   1.0000   1.0000   1.0000   1.0000  -0.0000
    -0.0000  -0.0000  -0.0000  -0.0000  -0.0000  -0.0000  -0.0000  -0.0000
    -0.0000  -0.0000  -0.0000  -0.0000  -0.0000  -0.0000  -0.0000  -0.0000
    -0.0000  -0.0000  -0.0000  -0.0000  -0.0000  -0.0000

          k =-0.3341 1.1593-1.1776 ( 11915 PWs)   bands (ev):

   -27.8888 -27.8883 -27.8879 -27.8873 -27.8836 -27.8828 -27.8817 -27.8801
   -27.8788 -27.8785 -27.7311 -27.7243 -27.7242 -27.6950 -27.6944 -14.4234
   -14.4219 -14.4139 -14.4124 -14.4118 -14.4108 -14.4074 -14.4065 -14.4038
   -14.4028  -2.8207  -2.6163  -1.8821  -1.3517  -1.1984   4.3447   4.9010
     4.9293   5.2570   5.8401   6.2229   7.7467   7.8384   8.0364   9.7607
    10.0779  10.2595  11.8540  12.2417  12.8137  13.1866  14.1629  14.9703
    15.8378  16.2157  16.9342  17.8317  18.0120  18.2681  18.8380  19.0013
    19.3927  19.8471  19.9259  20.3733  20.6258  20.9460

     occupation numbers 
     1.0000   1.0000   1.0000   1.0000   1.0000   1.0000   1.0000   1.0000
     1.0000   1.0000   1.0000   1.0000   1.0000   1.0000   1.0000   1.0000
     1.0000   1.0000   1.0000   1.0000   1.0000   1.0000   1.0000   1.0000
     1.0000   1.0000   1.0000   1.0000   1.0000   1.0000   1.0000   1.0000
     1.0000   1.0000   1.0000   1.0000   1.0000   1.0000   1.0000  -0.0000
    -0.0000  -0.0000  -0.0000  -0.0000  -0.0000  -0.0000  -0.0000  -0.0000
    -0.0000  -0.0000  -0.0000  -0.0000  -0.0000  -0.0000  -0.0000  -0.0000
    -0.0000  -0.0000  -0.0000  -0.0000  -0.0000  -0.0000

          k =-0.3345 1.1592-0.7108 ( 11906 PWs)   bands (ev):

   -27.8889 -27.8883 -27.8881 -27.8871 -27.8834 -27.8832 -27.8815 -27.8801
   -27.8788 -27.8786 -27.7311 -27.7244 -27.7241 -27.6951 -27.6943 -14.4264
   -14.4245 -14.4140 -14.4121 -14.4120 -14.4096 -14.4054 -14.4047 -14.4036
   -14.4024  -2.6687  -2.6471  -2.0515  -1.5567  -0.9629   3.9918   4.9135
     5.1953   5.5779   6.3228   6.4695   7.4195   7.4945   7.5119   9.9684
    10.1206  10.4711  11.3568  11.7479  12.1788  13.2744  14.0248  15.5003
    17.2077  17.2642  17.7351  17.9268  18.2063  18.2415  19.0608  19.0798
    19.3001  19.5609  19.7955  19.9549  20.3223  20.7952

     occupation numbers 
     1.0000   1.0000   1.0000   1.0000   1.0000   1.0000   1.0000   1.0000
     1.0000   1.0000   1.0000   1.0000   1.0000   1.0000   1.0000   1.0000
     1.0000   1.0000   1.0000   1.0000   1.0000   1.0000   1.0000   1.0000
     1.0000   1.0000   1.0000   1.0000   1.0000   1.0000   1.0000   1.0000
     1.0000   1.0000   1.0000   1.0000   1.0000   1.0000   1.0000  -0.0000
    -0.0000  -0.0000  -0.0000  -0.0000  -0.0000  -0.0000  -0.0000  -0.0000
    -0.0000  -0.0000  -0.0000  -0.0000  -0.0000  -0.0000  -0.0000  -0.0000
    -0.0000  -0.0000  -0.0000  -0.0000  -0.0000  -0.0000

          k =-0.3350 1.1591-0.2440 ( 11915 PWs)   bands (ev):

   -27.8888 -27.8883 -27.8879 -27.8873 -27.8836 -27.8828 -27.8817 -27.8801
   -27.8788 -27.8785 -27.7311 -27.7243 -27.7242 -27.6950 -27.6944 -14.4234
   -14.4219 -14.4139 -14.4124 -14.4118 -14.4108 -14.4074 -14.4065 -14.4038
   -14.4028  -2.8642  -2.5506  -1.8694  -1.4687  -1.1163   4.0649   4.9131
     5.3311   5.7093   5.7255   6.1037   6.9302   7.8779   8.0163   9.9149
    10.1747  11.0278  11.8365  12.3078  12.4173  12.7837  14.6318  14.7733
    15.6547  16.1418  16.8898  17.7922  17.8192  18.0496  18.5900  19.2897
    19.3721  19.8422  20.4203  20.6761  20.9044  21.1991

     occupation numbers 
     1.0000   1.0000   1.0000   1.0000   1.0000   1.0000   1.0000   1.0000
     1.0000   1.0000   1.0000   1.0000   1.0000   1.0000   1.0000   1.0000
     1.0000   1.0000   1.0000   1.0000   1.0000   1.0000   1.0000   1.0000
     1.0000   1.0000   1.0000   1.0000   1.0000   1.0000   1.0000   1.0000
     1.0000   1.0000   1.0000   1.0000   1.0000   1.0000   1.0000  -0.0000
    -0.0000  -0.0000  -0.0000  -0.0000  -0.0000  -0.0000  -0.0000  -0.0000
    -0.0000  -0.0000  -0.0000  -0.0000  -0.0000  -0.0000  -0.0000  -0.0000
    -0.0000  -0.0000  -0.0000  -0.0000  -0.0000  -0.0000

          k =-0.3359 1.5692 0.0000 ( 11913 PWs)   bands (ev):

   -27.8888 -27.8880 -27.8879 -27.8873 -27.8839 -27.8823 -27.8822 -27.8800
   -27.8787 -27.8786 -27.7311 -27.7243 -27.7243 -27.6946 -27.6946 -14.4196
   -14.4195 -14.4174 -14.4139 -14.4095 -14.4091 -14.4089 -14.4084 -14.4037
   -14.4035  -2.1649  -2.1540  -1.8534  -1.8527  -1.7994   4.2552   4.6088
     4.8128   5.1133   5.9419   5.9475   7.1426   7.4628   8.0805   9.9299
    10.7903  10.8159  12.1744  12.3895  12.8220  14.2620  14.7269  14.7366
    15.1082  15.3436  16.6108  16.9193  18.1024  18.1846  18.5314  18.8430
    19.2163  19.9778  20.5322  20.8712  20.9246  22.0690

     occupation numbers 
     1.0000   1.0000   1.0000   1.0000   1.0000   1.0000   1.0000   1.0000
     1.0000   1.0000   1.0000   1.0000   1.0000   1.0000   1.0000   1.0000
     1.0000   1.0000   1.0000   1.0000   1.0000   1.0000   1.0000   1.0000
     1.0000   1.0000   1.0000   1.0000   1.0000   1.0000   1.0000   1.0000
     1.0000   1.0000   1.0000   1.0000   1.0000   1.0000   1.0000  -0.0000
    -0.0000  -0.0000  -0.0000  -0.0000  -0.0000  -0.0000  -0.0000  -0.0000
    -0.0000  -0.0000  -0.0000  -0.0000  -0.0000  -0.0000  -0.0000  -0.0000
    -0.0000  -0.0000  -0.0000  -0.0000  -0.0000  -0.0000

          k =-0.3364 1.5691 0.4668 ( 11918 PWs)   bands (ev):

   -27.8888 -27.8883 -27.8879 -27.8873 -27.8836 -27.8828 -27.8817 -27.8801
   -27.8788 -27.8785 -27.7311 -27.7243 -27.7242 -27.6950 -27.6944 -14.4234
   -14.4219 -14.4139 -14.4124 -14.4118 -14.4108 -14.4074 -14.4065 -14.4038
   -14.4028  -2.8059  -2.6438  -1.8408  -1.4072  -1.1715   4.3059   4.8033
     4.9969   5.1735   6.1283   6.5637   7.3431   7.5466   7.8120   9.9842
    10.4357  10.6624  11.6028  11.9620  12.9218  13.1431  13.7237  14.8060
    16.1986  16.9068  17.1017  17.8118  17.9632  18.1940  18.6453  18.7726
    19.2997  19.6348  19.8094  19.9796  20.3383  21.1014

     occupation numbers 
     1.0000   1.0000   1.0000   1.0000   1.0000   1.0000   1.0000   1.0000
     1.0000   1.0000   1.0000   1.0000   1.0000   1.0000   1.0000   1.0000
     1.0000   1.0000   1.0000   1.0000   1.0000   1.0000   1.0000   1.0000
     1.0000   1.0000   1.0000   1.0000   1.0000   1.0000   1.0000   1.0000
     1.0000   1.0000   1.0000   1.0000   1.0000   1.0000   1.0000  -0.0000
    -0.0000  -0.0000  -0.0000  -0.0000  -0.0000  -0.0000  -0.0000  -0.0000
    -0.0000  -0.0000  -0.0000  -0.0000  -0.0000  -0.0000  -0.0000  -0.0000
    -0.0000  -0.0000  -0.0000  -0.0000  -0.0000  -0.0000

          k =-0.3368 1.5690 0.9336 ( 11918 PWs)   bands (ev):

   -27.8889 -27.8885 -27.8882 -27.8874 -27.8833 -27.8831 -27.8813 -27.8802
   -27.8791 -27.8786 -27.7313 -27.7243 -27.7241 -27.6951 -27.6945 -14.4242
   -14.4225 -14.4128 -14.4124 -14.4110 -14.4108 -14.4074 -14.4060 -14.4055
   -14.4044  -3.3615  -3.1230  -1.7922  -1.1178  -0.5553   4.4607   5.0189
     5.7968   5.8673   6.2320   6.3857   7.7903   7.7964   8.0256   9.6562
    10.0719  10.1091  11.4491  11.8213  12.5425  12.9448  13.6906  15.3361
    15.8251  16.4660  16.5329  16.5920  17.2217  17.5017  18.5385  18.7883
    19.1534  19.5065  19.8370  19.8482  20.2774  20.9856

     occupation numbers 
     1.0000   1.0000   1.0000   1.0000   1.0000   1.0000   1.0000   1.0000
     1.0000   1.0000   1.0000   1.0000   1.0000   1.0000   1.0000   1.0000
     1.0000   1.0000   1.0000   1.0000   1.0000   1.0000   1.0000   1.0000
     1.0000   1.0000   1.0000   1.0000   1.0000   1.0000   1.0000   1.0000
     1.0000   1.0000   1.0000   1.0000   1.0000   1.0000   1.0000  -0.0000
    -0.0000  -0.0000  -0.0000  -0.0000  -0.0000  -0.0000  -0.0000  -0.0000
    -0.0000  -0.0000  -0.0000  -0.0000  -0.0000  -0.0000  -0.0000  -0.0000
    -0.0000  -0.0000  -0.0000  -0.0000  -0.0000  -0.0000

          k =-0.3345 1.5695-1.4003 ( 11900 PWs)   bands (ev):

   -27.8888 -27.8888 -27.8881 -27.8876 -27.8833 -27.8829 -27.8812 -27.8802
   -27.8792 -27.8787 -27.7313 -27.7242 -27.7241 -27.6951 -27.6947 -14.4216
   -14.4206 -14.4139 -14.4137 -14.4110 -14.4108 -14.4082 -14.4076 -14.4059
   -14.4049  -3.5608  -3.3006  -1.7812  -1.0311  -0.3003   4.7594   5.0242
     5.7216   6.2704   6.3466   7.2304   7.2423   7.6320   7.6343  10.2423
    10.6703  10.7345  10.9234  11.7692  11.8316  13.4616  13.5665  13.8660
    14.5608  16.5365  16.8920  17.2258  17.4518  17.7229  18.0663  18.4513
    18.5233  18.5628  19.0359  19.3690  19.8657  20.2323

     occupation numbers 
     1.0000   1.0000   1.0000   1.0000   1.0000   1.0000   1.0000   1.0000
     1.0000   1.0000   1.0000   1.0000   1.0000   1.0000   1.0000   1.0000
     1.0000   1.0000   1.0000   1.0000   1.0000   1.0000   1.0000   1.0000
     1.0000   1.0000   1.0000   1.0000   1.0000   1.0000   1.0000   1.0000
     1.0000   1.0000   1.0000   1.0000   1.0000   1.0000   1.0000  -0.0000
    -0.0000  -0.0000  -0.0000  -0.0000  -0.0000  -0.0000  -0.0000  -0.0000
    -0.0000  -0.0000  -0.0000  -0.0000  -0.0000  -0.0000  -0.0000  -0.0000
    -0.0000  -0.0000  -0.0000  -0.0000  -0.0000  -0.0000

          k =-0.3350 1.5694-0.9336 ( 11918 PWs)   bands (ev):

   -27.8889 -27.8885 -27.8882 -27.8874 -27.8833 -27.8831 -27.8813 -27.8802
   -27.8791 -27.8786 -27.7313 -27.7243 -27.7241 -27.6951 -27.6945 -14.4242
   -14.4225 -14.4128 -14.4124 -14.4110 -14.4108 -14.4074 -14.4060 -14.4055
   -14.4044  -3.3615  -3.1230  -1.7922  -1.1178  -0.5553   4.4607   5.0189
     5.7968   5.8673   6.2320   6.3857   7.7903   7.7964   8.0256   9.6562
    10.0719  10.1091  11.4491  11.8213  12.5425  12.9448  13.6906  15.3361
    15.8251  16.4660  16.5329  16.5920  17.2217  17.5018  18.5385  18.7883
    19.1534  19.5065  19.8370  19.8482  20.2773  20.9856

     occupation numbers 
     1.0000   1.0000   1.0000   1.0000   1.0000   1.0000   1.0000   1.0000
     1.0000   1.0000   1.0000   1.0000   1.0000   1.0000   1.0000   1.0000
     1.0000   1.0000   1.0000   1.0000   1.0000   1.0000   1.0000   1.0000
     1.0000   1.0000   1.0000   1.0000   1.0000   1.0000   1.0000   1.0000
     1.0000   1.0000   1.0000   1.0000   1.0000   1.0000   1.0000  -0.0000
    -0.0000  -0.0000  -0.0000  -0.0000  -0.0000  -0.0000  -0.0000  -0.0000
    -0.0000  -0.0000  -0.0000  -0.0000  -0.0000  -0.0000  -0.0000  -0.0000
    -0.0000  -0.0000  -0.0000  -0.0000  -0.0000  -0.0000

          k =-0.3354 1.5693-0.4668 ( 11918 PWs)   bands (ev):

   -27.8888 -27.8883 -27.8879 -27.8873 -27.8836 -27.8828 -27.8817 -27.8801
   -27.8788 -27.8785 -27.7311 -27.7243 -27.7242 -27.6950 -27.6944 -14.4234
   -14.4219 -14.4139 -14.4124 -14.4118 -14.4108 -14.4074 -14.4065 -14.4038
   -14.4028  -2.8059  -2.6438  -1.8408  -1.4072  -1.1715   4.3059   4.8033
     4.9969   5.1735   6.1283   6.5637   7.3431   7.5466   7.8120   9.9842
    10.4357  10.6624  11.6028  11.9620  12.9218  13.1431  13.7237  14.8060
    16.1986  16.9068  17.1017  17.8118  17.9631  18.1940  18.6453  18.7726
    19.2997  19.6348  19.8094  19.9796  20.3383  21.1014

     occupation numbers 
     1.0000   1.0000   1.0000   1.0000   1.0000   1.0000   1.0000   1.0000
     1.0000   1.0000   1.0000   1.0000   1.0000   1.0000   1.0000   1.0000
     1.0000   1.0000   1.0000   1.0000   1.0000   1.0000   1.0000   1.0000
     1.0000   1.0000   1.0000   1.0000   1.0000   1.0000   1.0000   1.0000
     1.0000   1.0000   1.0000   1.0000   1.0000   1.0000   1.0000  -0.0000
    -0.0000  -0.0000  -0.0000  -0.0000  -0.0000  -0.0000  -0.0000  -0.0000
    -0.0000  -0.0000  -0.0000  -0.0000  -0.0000  -0.0000  -0.0000  -0.0000
    -0.0000  -0.0000  -0.0000  -0.0000  -0.0000  -0.0000

          k =-0.3336-0.4817 1.1139 ( 11912 PWs)   bands (ev):

   -27.8888 -27.8883 -27.8879 -27.8873 -27.8836 -27.8828 -27.8817 -27.8801
   -27.8788 -27.8785 -27.7311 -27.7243 -27.7242 -27.6950 -27.6944 -14.4234
   -14.4219 -14.4139 -14.4124 -14.4118 -14.4108 -14.4074 -14.4065 -14.4038
   -14.4028  -2.8496  -2.5695  -1.8973  -1.3949  -1.1579   4.1823   5.0011
     5.1774   5.4116   5.6709   6.0141   7.4325   8.0386   8.1953   9.7004
     9.9854  10.4099  11.9314  12.3908  12.7988  12.8819  14.5967  15.1894
    15.3956  15.8292  16.8088  17.8304  17.9041  18.2032  18.8852  19.3349
    19.3546  19.7830  20.1366  20.6400  20.7702  21.2292

     occupation numbers 
     1.0000   1.0000   1.0000   1.0000   1.0000   1.0000   1.0000   1.0000
     1.0000   1.0000   1.0000   1.0000   1.0000   1.0000   1.0000   1.0000
     1.0000   1.0000   1.0000   1.0000   1.0000   1.0000   1.0000   1.0000
     1.0000   1.0000   1.0000   1.0000   1.0000   1.0000   1.0000   1.0000
     1.0000   1.0000   1.0000   1.0000   1.0000   1.0000   1.0000  -0.0000
    -0.0000  -0.0000  -0.0000  -0.0000  -0.0000  -0.0000  -0.0000  -0.0000
    -0.0000  -0.0000  -0.0000  -0.0000  -0.0000  -0.0000  -0.0000  -0.0000
    -0.0000  -0.0000  -0.0000  -0.0000  -0.0000  -0.0000

          k =-0.3341-0.4818 1.5807 ( 11915 PWs)   bands (ev):

   -27.8888 -27.8883 -27.8879 -27.8873 -27.8836 -27.8828 -27.8817 -27.8801
   -27.8788 -27.8785 -27.7311 -27.7243 -27.7242 -27.6950 -27.6944 -14.4234
   -14.4219 -14.4139 -14.4124 -14.4118 -14.4108 -14.4074 -14.4065 -14.4038
   -14.4028  -2.8207  -2.6163  -1.8821  -1.3517  -1.1984   4.3447   4.9010
     4.9293   5.2570   5.8401   6.2229   7.7467   7.8384   8.0364   9.7607
    10.0779  10.2595  11.8540  12.2417  12.8137  13.1866  14.1629  14.9703
    15.8378  16.2157  16.9342  17.8317  18.0120  18.2681  18.8380  19.0013
    19.3927  19.8471  19.9259  20.3733  20.6257  20.9462

     occupation numbers 
     1.0000   1.0000   1.0000   1.0000   1.0000   1.0000   1.0000   1.0000
     1.0000   1.0000   1.0000   1.0000   1.0000   1.0000   1.0000   1.0000
     1.0000   1.0000   1.0000   1.0000   1.0000   1.0000   1.0000   1.0000
     1.0000   1.0000   1.0000   1.0000   1.0000   1.0000   1.0000   1.0000
     1.0000   1.0000   1.0000   1.0000   1.0000   1.0000   1.0000  -0.0000
    -0.0000  -0.0000  -0.0000  -0.0000  -0.0000  -0.0000  -0.0000  -0.0000
    -0.0000  -0.0000  -0.0000  -0.0000  -0.0000  -0.0000  -0.0000  -0.0000
    -0.0000  -0.0000  -0.0000  -0.0000  -0.0000  -0.0000

          k =-0.3345-0.4819 2.0475 ( 11900 PWs)   bands (ev):

   -27.8888 -27.8888 -27.8881 -27.8876 -27.8833 -27.8829 -27.8812 -27.8802
   -27.8792 -27.8787 -27.7313 -27.7242 -27.7241 -27.6951 -27.6947 -14.4216
   -14.4206 -14.4139 -14.4137 -14.4110 -14.4108 -14.4082 -14.4076 -14.4059
   -14.4049  -3.5608  -3.3006  -1.7812  -1.0311  -0.3003   4.7594   5.0242
     5.7216   6.2704   6.3466   7.2304   7.2423   7.6320   7.6343  10.2423
    10.6703  10.7345  10.9234  11.7692  11.8316  13.4616  13.5665  13.8660
    14.5608  16.5365  16.8920  17.2258  17.4518  17.7229  18.0663  18.4513
    18.5233  18.5628  19.0359  19.3690  19.8657  20.2323

     occupation numbers 
     1.0000   1.0000   1.0000   1.0000   1.0000   1.0000   1.0000   1.0000
     1.0000   1.0000   1.0000   1.0000   1.0000   1.0000   1.0000   1.0000
     1.0000   1.0000   1.0000   1.0000   1.0000   1.0000   1.0000   1.0000
     1.0000   1.0000   1.0000   1.0000   1.0000   1.0000   1.0000   1.0000
     1.0000   1.0000   1.0000   1.0000   1.0000   1.0000   1.0000  -0.0000
    -0.0000  -0.0000  -0.0000  -0.0000  -0.0000  -0.0000  -0.0000  -0.0000
    -0.0000  -0.0000  -0.0000  -0.0000  -0.0000  -0.0000  -0.0000  -0.0000
    -0.0000  -0.0000  -0.0000  -0.0000  -0.0000  -0.0000

          k =-0.3323-0.4814-0.2864 ( 11888 PWs)   bands (ev):

   -27.8890 -27.8889 -27.8882 -27.8880 -27.8830 -27.8829 -27.8808 -27.8803
   -27.8795 -27.8789 -27.7315 -27.7241 -27.7241 -27.6951 -27.6949 -14.4205
   -14.4192 -14.4165 -14.4154 -14.4101 -14.4092 -14.4085 -14.4082 -14.4077
   -14.4066  -3.9950  -3.6922  -1.9434  -0.8352   0.3600   5.4143   6.3128
     6.4063   6.5047   6.8183   6.8632   7.7033   7.9722   8.4140   9.3852
     9.7861  10.4033  10.9928  11.1719  11.4850  13.4306  13.9937  14.2905
    14.9434  15.1115  15.6744  16.0749  16.3747  16.4891  16.8507  17.7540
    17.7791  18.1695  18.4466  19.2056  19.7009  19.9023

     occupation numbers 
     1.0000   1.0000   1.0000   1.0000   1.0000   1.0000   1.0000   1.0000
     1.0000   1.0000   1.0000   1.0000   1.0000   1.0000   1.0000   1.0000
     1.0000   1.0000   1.0000   1.0000   1.0000   1.0000   1.0000   1.0000
     1.0000   1.0000   1.0000   1.0000   1.0000   1.0000   1.0000   1.0000
     1.0000   1.0000   1.0000   1.0000   1.0000   1.0000   1.0001  -0.0000
    -0.0000  -0.0000  -0.0000  -0.0000  -0.0000  -0.0000  -0.0000  -0.0000
    -0.0000  -0.0000  -0.0000  -0.0000  -0.0000  -0.0000  -0.0000  -0.0000
    -0.0000  -0.0000  -0.0000  -0.0000  -0.0000  -0.0000

          k =-0.3327-0.4815 0.1803 ( 11903 PWs)   bands (ev):

   -27.8890 -27.8889 -27.8882 -27.8880 -27.8830 -27.8829 -27.8808 -27.8804
   -27.8795 -27.8789 -27.7315 -27.7241 -27.7241 -27.6951 -27.6949 -14.4205
   -14.4192 -14.4165 -14.4154 -14.4101 -14.4092 -14.4085 -14.4082 -14.4077
   -14.4066  -4.0055  -3.6754  -1.9636  -0.8183   0.3613   5.4222   6.0833
     6.4757   6.5636   6.7765   7.0864   7.5836   7.9984   8.4156   9.4222
     9.8574  10.5726  10.8649  11.0601  11.3299  13.2881  14.2056  14.3748
    14.7567  15.1209  15.6420  16.0808  16.5644  16.9553  17.1933  17.4529
    18.0497  18.0618  18.1942  18.6024  19.6718  20.0440

     occupation numbers 
     1.0000   1.0000   1.0000   1.0000   1.0000   1.0000   1.0000   1.0000
     1.0000   1.0000   1.0000   1.0000   1.0000   1.0000   1.0000   1.0000
     1.0000   1.0000   1.0000   1.0000   1.0000   1.0000   1.0000   1.0000
     1.0000   1.0000   1.0000   1.0000   1.0000   1.0000   1.0000   1.0000
     1.0000   1.0000   1.0000   1.0000   1.0000   1.0000   1.0001  -0.0000
    -0.0000  -0.0000  -0.0000  -0.0000  -0.0000  -0.0000  -0.0000  -0.0000
    -0.0000  -0.0000  -0.0000  -0.0000  -0.0000  -0.0000  -0.0000  -0.0000
    -0.0000  -0.0000  -0.0000  -0.0000  -0.0000  -0.0000

          k =-0.3332-0.4816 0.6471 ( 11894 PWs)   bands (ev):

   -27.8888 -27.8888 -27.8881 -27.8876 -27.8833 -27.8829 -27.8812 -27.8802
   -27.8792 -27.8787 -27.7313 -27.7242 -27.7241 -27.6951 -27.6947 -14.4216
   -14.4206 -14.4139 -14.4137 -14.4110 -14.4108 -14.4082 -14.4076 -14.4059
   -14.4049  -3.5907  -3.2515  -1.8488  -0.9546  -0.3284   4.7915   5.0742
     5.6580   6.1538   6.4094   6.8590   7.3847   7.8162   7.8774  10.0626
    10.2508  10.8519  11.0720  11.7648  12.0719  13.3763  13.3910  14.1941
    14.7788  16.5093  16.7255  16.8543  17.2377  17.6245  17.9514  18.2553
    18.6315  18.6836  18.9691  19.7583  20.2012  20.4532

     occupation numbers 
     1.0000   1.0000   1.0000   1.0000   1.0000   1.0000   1.0000   1.0000
     1.0000   1.0000   1.0000   1.0000   1.0000   1.0000   1.0000   1.0000
     1.0000   1.0000   1.0000   1.0000   1.0000   1.0000   1.0000   1.0000
     1.0000   1.0000   1.0000   1.0000   1.0000   1.0000   1.0000   1.0000
     1.0000   1.0000   1.0000   1.0000   1.0000   1.0000   1.0000  -0.0000
    -0.0000  -0.0000  -0.0000  -0.0000  -0.0000  -0.0000  -0.0000  -0.0000
    -0.0000  -0.0000  -0.0000  -0.0000  -0.0000  -0.0000  -0.0000  -0.0000
    -0.0000  -0.0000  -0.0000  -0.0000  -0.0000  -0.0000

          k =-0.3341-0.0715 0.8911 ( 11884 PWs)   bands (ev):

   -27.8889 -27.8885 -27.8881 -27.8874 -27.8833 -27.8831 -27.8813 -27.8802
   -27.8791 -27.8786 -27.7312 -27.7243 -27.7241 -27.6951 -27.6945 -14.4242
   -14.4225 -14.4128 -14.4124 -14.4110 -14.4108 -14.4074 -14.4060 -14.4055
   -14.4044  -3.4264  -3.0020  -1.9578  -0.9034  -0.6549   4.2073   5.3235
     5.7877   5.9745   6.6164   6.7128   7.1574   7.2728   7.5115  10.1978
    10.6184  11.1051  11.2187  11.3437  12.1841  12.3366  14.3939  15.3624
    15.4298  16.1310  16.2617  17.0122  17.1674  17.6580  17.8822  18.7696
    18.9469  19.2705  19.7342  20.8676  21.0228  21.5233

     occupation numbers 
     1.0000   1.0000   1.0000   1.0000   1.0000   1.0000   1.0000   1.0000
     1.0000   1.0000   1.0000   1.0000   1.0000   1.0000   1.0000   1.0000
     1.0000   1.0000   1.0000   1.0000   1.0000   1.0000   1.0000   1.0000
     1.0000   1.0000   1.0000   1.0000   1.0000   1.0000   1.0000   1.0000
     1.0000   1.0000   1.0000   1.0000   1.0000   1.0000   1.0000  -0.0000
    -0.0000  -0.0000  -0.0000  -0.0000  -0.0000  -0.0000  -0.0000  -0.0000
    -0.0000  -0.0000  -0.0000  -0.0000  -0.0000  -0.0000  -0.0000  -0.0000
    -0.0000  -0.0000  -0.0000  -0.0000  -0.0000  -0.0000

          k =-0.3345-0.0716 1.3579 ( 11906 PWs)   bands (ev):

   -27.8889 -27.8883 -27.8881 -27.8871 -27.8834 -27.8832 -27.8815 -27.8801
   -27.8788 -27.8786 -27.7311 -27.7244 -27.7241 -27.6951 -27.6943 -14.4264
   -14.4245 -14.4140 -14.4121 -14.4120 -14.4096 -14.4054 -14.4047 -14.4036
   -14.4024  -2.6687  -2.6471  -2.0515  -1.5567  -0.9629   3.9918   4.9135
     5.1953   5.5779   6.3228   6.4695   7.4195   7.4945   7.5119   9.9684
    10.1206  10.4711  11.3568  11.7479  12.1788  13.2744  14.0248  15.5003
    17.2077  17.2642  17.7351  17.9268  18.2063  18.2415  19.0608  19.0798
    19.3001  19.5609  19.7955  19.9549  20.3223  20.7943

     occupation numbers 
     1.0000   1.0000   1.0000   1.0000   1.0000   1.0000   1.0000   1.0000
     1.0000   1.0000   1.0000   1.0000   1.0000   1.0000   1.0000   1.0000
     1.0000   1.0000   1.0000   1.0000   1.0000   1.0000   1.0000   1.0000
     1.0000   1.0000   1.0000   1.0000   1.0000   1.0000   1.0000   1.0000
     1.0000   1.0000   1.0000   1.0000   1.0000   1.0000   1.0000  -0.0000
    -0.0000  -0.0000  -0.0000  -0.0000  -0.0000  -0.0000  -0.0000  -0.0000
    -0.0000  -0.0000  -0.0000  -0.0000  -0.0000  -0.0000  -0.0000  -0.0000
    -0.0000  -0.0000  -0.0000  -0.0000  -0.0000  -0.0000

          k =-0.3350-0.0717 1.8247 ( 11918 PWs)   bands (ev):

   -27.8889 -27.8885 -27.8882 -27.8874 -27.8833 -27.8831 -27.8813 -27.8802
   -27.8791 -27.8786 -27.7313 -27.7243 -27.7241 -27.6951 -27.6945 -14.4242
   -14.4225 -14.4128 -14.4124 -14.4110 -14.4108 -14.4074 -14.4060 -14.4055
   -14.4044  -3.3615  -3.1230  -1.7922  -1.1178  -0.5553   4.4607   5.0189
     5.7968   5.8673   6.2320   6.3857   7.7903   7.7964   8.0256   9.6562
    10.0719  10.1091  11.4491  11.8213  12.5425  12.9448  13.6906  15.3361
    15.8251  16.4660  16.5329  16.5920  17.2217  17.5018  18.5385  18.7883
    19.1534  19.5065  19.8370  19.8482  20.2773  20.9856

     occupation numbers 
     1.0000   1.0000   1.0000   1.0000   1.0000   1.0000   1.0000   1.0000
     1.0000   1.0000   1.0000   1.0000   1.0000   1.0000   1.0000   1.0000
     1.0000   1.0000   1.0000   1.0000   1.0000   1.0000   1.0000   1.0000
     1.0000   1.0000   1.0000   1.0000   1.0000   1.0000   1.0000   1.0000
     1.0000   1.0000   1.0000   1.0000   1.0000   1.0000   1.0000  -0.0000
    -0.0000  -0.0000  -0.0000  -0.0000  -0.0000  -0.0000  -0.0000  -0.0000
    -0.0000  -0.0000  -0.0000  -0.0000  -0.0000  -0.0000  -0.0000  -0.0000
    -0.0000  -0.0000  -0.0000  -0.0000  -0.0000  -0.0000

          k =-0.3327-0.0712-0.5092 ( 11903 PWs)   bands (ev):

   -27.8890 -27.8889 -27.8882 -27.8880 -27.8830 -27.8829 -27.8808 -27.8804
   -27.8795 -27.8789 -27.7315 -27.7241 -27.7241 -27.6951 -27.6949 -14.4205
   -14.4192 -14.4165 -14.4154 -14.4101 -14.4092 -14.4085 -14.4082 -14.4077
   -14.4066  -4.0055  -3.6754  -1.9636  -0.8183   0.3613   5.4222   6.0833
     6.4757   6.5636   6.7765   7.0864   7.5836   7.9984   8.4156   9.4222
     9.8574  10.5726  10.8649  11.0601  11.3299  13.2881  14.2056  14.3748
    14.7567  15.1209  15.6420  16.0808  16.5644  16.9553  17.1933  17.4529
    18.0497  18.0618  18.1942  18.6024  19.6716  20.0441

     occupation numbers 
     1.0000   1.0000   1.0000   1.0000   1.0000   1.0000   1.0000   1.0000
     1.0000   1.0000   1.0000   1.0000   1.0000   1.0000   1.0000   1.0000
     1.0000   1.0000   1.0000   1.0000   1.0000   1.0000   1.0000   1.0000
     1.0000   1.0000   1.0000   1.0000   1.0000   1.0000   1.0000   1.0000
     1.0000   1.0000   1.0000   1.0000   1.0000   1.0000   1.0001  -0.0000
    -0.0000  -0.0000  -0.0000  -0.0000  -0.0000  -0.0000  -0.0000  -0.0000
    -0.0000  -0.0000  -0.0000  -0.0000  -0.0000  -0.0000  -0.0000  -0.0000
    -0.0000  -0.0000  -0.0000  -0.0000  -0.0000  -0.0000

          k =-0.3332-0.0713-0.0424 ( 11956 PWs)   bands (ev):

   -27.8891 -27.8891 -27.8883 -27.8883 -27.8828 -27.8828 -27.8804 -27.8804
   -27.8798 -27.8791 -27.7316 -27.7241 -27.7241 -27.6952 -27.6952 -14.4192
   -14.4192 -14.4181 -14.4181 -14.4111 -14.4101 -14.4076 -14.4076 -14.4067
   -14.4067  -4.2470  -3.8543  -2.1275  -0.6759   0.7022   6.2341   7.0044
     7.0044   7.0981   7.2947   7.2947   7.7599   7.7599   8.3639   9.3268
     9.7297   9.7297  10.4666  10.5505  10.5505  13.6720  14.4388  14.4748
    14.4748  15.6245  15.8145  15.9119  15.9119  16.4293  16.6029  16.6029
    17.2292  17.2292  17.5190  18.1079  18.1079  18.9672

     occupation numbers 
     1.0000   1.0000   1.0000   1.0000   1.0000   1.0000   1.0000   1.0000
     1.0000   1.0000   1.0000   1.0000   1.0000   1.0000   1.0000   1.0000
     1.0000   1.0000   1.0000   1.0000   1.0000   1.0000   1.0000   1.0000
     1.0000   1.0000   1.0000   1.0000   1.0000   1.0000   1.0000   1.0000
     1.0000   1.0000   1.0000   1.0000   1.0000   1.0000   1.0000  -0.0000
    -0.0000  -0.0000  -0.0000  -0.0000  -0.0000  -0.0000  -0.0000  -0.0000
    -0.0000  -0.0000  -0.0000  -0.0000  -0.0000  -0.0000  -0.0000  -0.0000
    -0.0000  -0.0000  -0.0000  -0.0000  -0.0000  -0.0000

          k =-0.3336-0.0714 0.4243 ( 11898 PWs)   bands (ev):

   -27.8890 -27.8889 -27.8882 -27.8880 -27.8830 -27.8829 -27.8808 -27.8803
   -27.8796 -27.8789 -27.7315 -27.7241 -27.7241 -27.6951 -27.6949 -14.4205
   -14.4192 -14.4165 -14.4154 -14.4101 -14.4092 -14.4085 -14.4082 -14.4077
   -14.4066  -4.0412  -3.6095  -2.0745  -0.6436   0.2570   5.4701   6.2263
     6.3232   6.4414   6.8855   7.0083   7.8369   7.9514   8.1890   9.5746
     9.8825  10.1404  10.9550  11.1398  11.6362  13.3621  13.8868  14.4696
    14.8412  15.5175  15.6868  16.2539  16.2543  16.4573  16.5958  17.2836
    17.6469  18.0515  19.0388  19.2501  19.5170  20.0613

     occupation numbers 
     1.0000   1.0000   1.0000   1.0000   1.0000   1.0000   1.0000   1.0000
     1.0000   1.0000   1.0000   1.0000   1.0000   1.0000   1.0000   1.0000
     1.0000   1.0000   1.0000   1.0000   1.0000   1.0000   1.0000   1.0000
     1.0000   1.0000   1.0000   1.0000   1.0000   1.0000   1.0000   1.0000
     1.0000   1.0000   1.0000   1.0000   1.0000   1.0000   1.0000  -0.0000
    -0.0000  -0.0000  -0.0000  -0.0000  -0.0000  -0.0000  -0.0000  -0.0000
    -0.0000  -0.0000  -0.0000  -0.0000  -0.0000  -0.0000  -0.0000  -0.0000
    -0.0000  -0.0000  -0.0000  -0.0000  -0.0000  -0.0000

          k =-0.3345 0.3387 0.6683 ( 11897 PWs)   bands (ev):

   -27.8888 -27.8888 -27.8881 -27.8876 -27.8833 -27.8829 -27.8812 -27.8802
   -27.8792 -27.8786 -27.7313 -27.7242 -27.7241 -27.6951 -27.6947 -14.4216
   -14.4206 -14.4139 -14.4137 -14.4110 -14.4108 -14.4082 -14.4076 -14.4059
   -14.4049  -3.6338  -3.1659  -1.9685  -0.8019  -0.4038   4.8843   5.1551
     5.5594   6.0941   6.2169   6.6252   7.6109   8.0763   8.1474   9.7245
    10.0193  10.5090  11.2804  12.0682  12.2619  13.2052  13.2985  14.7633
    15.2949  16.1976  16.3380  16.4819  16.9536  17.1933  17.4085  18.0890
    18.7733  19.1221  19.5786  20.1460  20.4114  20.7852

     occupation numbers 
     1.0000   1.0000   1.0000   1.0000   1.0000   1.0000   1.0000   1.0000
     1.0000   1.0000   1.0000   1.0000   1.0000   1.0000   1.0000   1.0000
     1.0000   1.0000   1.0000   1.0000   1.0000   1.0000   1.0000   1.0000
     1.0000   1.0000   1.0000   1.0000   1.0000   1.0000   1.0000   1.0000
     1.0000   1.0000   1.0000   1.0000   1.0000   1.0000   1.0000  -0.0000
    -0.0000  -0.0000  -0.0000  -0.0000  -0.0000  -0.0000  -0.0000  -0.0000
    -0.0000  -0.0000  -0.0000  -0.0000  -0.0000  -0.0000  -0.0000  -0.0000
    -0.0000  -0.0000  -0.0000  -0.0000  -0.0000  -0.0000

          k =-0.3350 0.3386 1.1351 ( 11915 PWs)   bands (ev):

   -27.8888 -27.8883 -27.8879 -27.8873 -27.8836 -27.8828 -27.8817 -27.8801
   -27.8788 -27.8785 -27.7311 -27.7243 -27.7242 -27.6950 -27.6944 -14.4234
   -14.4219 -14.4139 -14.4124 -14.4118 -14.4108 -14.4074 -14.4065 -14.4038
   -14.4028  -2.8642  -2.5506  -1.8694  -1.4687  -1.1163   4.0649   4.9131
     5.3311   5.7093   5.7255   6.1037   6.9302   7.8779   8.0163   9.9149
    10.1747  11.0278  11.8365  12.3078  12.4173  12.7837  14.6318  14.7733
    15.6547  16.1418  16.8898  17.7922  17.8192  18.0496  18.5900  19.2897
    19.3721  19.8422  20.4203  20.6761  20.9044  21.1989

     occupation numbers 
     1.0000   1.0000   1.0000   1.0000   1.0000   1.0000   1.0000   1.0000
     1.0000   1.0000   1.0000   1.0000   1.0000   1.0000   1.0000   1.0000
     1.0000   1.0000   1.0000   1.0000   1.0000   1.0000   1.0000   1.0000
     1.0000   1.0000   1.0000   1.0000   1.0000   1.0000   1.0000   1.0000
     1.0000   1.0000   1.0000   1.0000   1.0000   1.0000   1.0000  -0.0000
    -0.0000  -0.0000  -0.0000  -0.0000  -0.0000  -0.0000  -0.0000  -0.0000
    -0.0000  -0.0000  -0.0000  -0.0000  -0.0000  -0.0000  -0.0000  -0.0000
    -0.0000  -0.0000  -0.0000  -0.0000  -0.0000  -0.0000

          k =-0.3354 0.3385 1.6019 ( 11918 PWs)   bands (ev):

   -27.8888 -27.8883 -27.8879 -27.8873 -27.8836 -27.8828 -27.8817 -27.8801
   -27.8788 -27.8785 -27.7311 -27.7243 -27.7242 -27.6950 -27.6944 -14.4234
   -14.4219 -14.4139 -14.4124 -14.4118 -14.4108 -14.4074 -14.4065 -14.4038
   -14.4028  -2.8059  -2.6438  -1.8408  -1.4072  -1.1715   4.3059   4.8033
     4.9969   5.1735   6.1283   6.5637   7.3431   7.5466   7.8120   9.9842
    10.4357  10.6624  11.6028  11.9620  12.9218  13.1431  13.7237  14.8060
    16.1986  16.9068  17.1017  17.8118  17.9631  18.1940  18.6453  18.7726
    19.2997  19.6348  19.8094  19.9796  20.3383  21.1018

     occupation numbers 
     1.0000   1.0000   1.0000   1.0000   1.0000   1.0000   1.0000   1.0000
     1.0000   1.0000   1.0000   1.0000   1.0000   1.0000   1.0000   1.0000
     1.0000   1.0000   1.0000   1.0000   1.0000   1.0000   1.0000   1.0000
     1.0000   1.0000   1.0000   1.0000   1.0000   1.0000   1.0000   1.0000
     1.0000   1.0000   1.0000   1.0000   1.0000   1.0000   1.0000  -0.0000
    -0.0000  -0.0000  -0.0000  -0.0000  -0.0000  -0.0000  -0.0000  -0.0000
    -0.0000  -0.0000  -0.0000  -0.0000  -0.0000  -0.0000  -0.0000  -0.0000
    -0.0000  -0.0000  -0.0000  -0.0000  -0.0000  -0.0000

          k =-0.3332 0.3390-0.7320 ( 11894 PWs)   bands (ev):

   -27.8888 -27.8888 -27.8881 -27.8876 -27.8833 -27.8829 -27.8812 -27.8802
   -27.8792 -27.8787 -27.7313 -27.7242 -27.7241 -27.6951 -27.6947 -14.4216
   -14.4206 -14.4139 -14.4137 -14.4110 -14.4108 -14.4082 -14.4076 -14.4059
   -14.4049  -3.5907  -3.2515  -1.8488  -0.9546  -0.3284   4.7915   5.0742
     5.6580   6.1538   6.4094   6.8590   7.3847   7.8162   7.8774  10.0626
    10.2508  10.8519  11.0720  11.7648  12.0719  13.3763  13.3910  14.1941
    14.7788  16.5093  16.7255  16.8543  17.2377  17.6245  17.9514  18.2553
    18.6315  18.6836  18.9691  19.7583  20.2011  20.4533

     occupation numbers 
     1.0000   1.0000   1.0000   1.0000   1.0000   1.0000   1.0000   1.0000
     1.0000   1.0000   1.0000   1.0000   1.0000   1.0000   1.0000   1.0000
     1.0000   1.0000   1.0000   1.0000   1.0000   1.0000   1.0000   1.0000
     1.0000   1.0000   1.0000   1.0000   1.0000   1.0000   1.0000   1.0000
     1.0000   1.0000   1.0000   1.0000   1.0000   1.0000   1.0000  -0.0000
    -0.0000  -0.0000  -0.0000  -0.0000  -0.0000  -0.0000  -0.0000  -0.0000
    -0.0000  -0.0000  -0.0000  -0.0000  -0.0000  -0.0000  -0.0000  -0.0000
    -0.0000  -0.0000  -0.0000  -0.0000  -0.0000  -0.0000

          k =-0.3336 0.3389-0.2652 ( 11898 PWs)   bands (ev):

   -27.8890 -27.8889 -27.8882 -27.8880 -27.8830 -27.8829 -27.8808 -27.8803
   -27.8796 -27.8789 -27.7315 -27.7241 -27.7241 -27.6951 -27.6949 -14.4205
   -14.4192 -14.4165 -14.4154 -14.4101 -14.4092 -14.4085 -14.4082 -14.4077
   -14.4066  -4.0412  -3.6095  -2.0745  -0.6436   0.2570   5.4701   6.2263
     6.3232   6.4414   6.8855   7.0083   7.8369   7.9514   8.1890   9.5746
     9.8825  10.1404  10.9550  11.1398  11.6362  13.3621  13.8868  14.4696
    14.8412  15.5175  15.6868  16.2539  16.2543  16.4573  16.5958  17.2836
    17.6469  18.0515  19.0388  19.2501  19.5169  20.0612

     occupation numbers 
     1.0000   1.0000   1.0000   1.0000   1.0000   1.0000   1.0000   1.0000
     1.0000   1.0000   1.0000   1.0000   1.0000   1.0000   1.0000   1.0000
     1.0000   1.0000   1.0000   1.0000   1.0000   1.0000   1.0000   1.0000
     1.0000   1.0000   1.0000   1.0000   1.0000   1.0000   1.0000   1.0000
     1.0000   1.0000   1.0000   1.0000   1.0000   1.0000   1.0000  -0.0000
    -0.0000  -0.0000  -0.0000  -0.0000  -0.0000  -0.0000  -0.0000  -0.0000
    -0.0000  -0.0000  -0.0000  -0.0000  -0.0000  -0.0000  -0.0000  -0.0000
    -0.0000  -0.0000  -0.0000  -0.0000  -0.0000  -0.0000

          k =-0.3341 0.3388 0.2016 ( 11906 PWs)   bands (ev):

   -27.8890 -27.8889 -27.8882 -27.8880 -27.8830 -27.8829 -27.8808 -27.8803
   -27.8796 -27.8789 -27.7315 -27.7241 -27.7241 -27.6951 -27.6949 -14.4205
   -14.4192 -14.4165 -14.4154 -14.4101 -14.4092 -14.4085 -14.4082 -14.4077
   -14.4066  -4.0554  -3.5813  -2.1101  -0.6143   0.2576   5.5058   5.8723
     6.4418   6.5137   6.8678   7.2455   7.8167   7.9028   8.1485   9.6813
    10.0634  10.3622  10.7477  10.8779  11.3756  13.1366  14.0901  14.6548
    15.0443  15.1522  15.5428  16.1625  16.5430  17.1923  17.4555  17.5708
    17.7750  17.7806  18.1542  18.8657  19.0083  19.5630

     occupation numbers 
     1.0000   1.0000   1.0000   1.0000   1.0000   1.0000   1.0000   1.0000
     1.0000   1.0000   1.0000   1.0000   1.0000   1.0000   1.0000   1.0000
     1.0000   1.0000   1.0000   1.0000   1.0000   1.0000   1.0000   1.0000
     1.0000   1.0000   1.0000   1.0000   1.0000   1.0000   1.0000   1.0000
     1.0000   1.0000   1.0000   1.0000   1.0000   1.0000   1.0000  -0.0000
    -0.0000  -0.0000  -0.0000  -0.0000  -0.0000  -0.0000  -0.0000  -0.0000
    -0.0000  -0.0000  -0.0000  -0.0000  -0.0000  -0.0000  -0.0000  -0.0000
    -0.0000  -0.0000  -0.0000  -0.0000  -0.0000  -0.0000

          k =-0.1675 0.3744 0.2228 ( 11897 PWs)   bands (ev):

   -27.8890 -27.8889 -27.8882 -27.8880 -27.8830 -27.8829 -27.8808 -27.8804
   -27.8796 -27.8789 -27.7315 -27.7241 -27.7241 -27.6951 -27.6949 -14.4205
   -14.4192 -14.4165 -14.4154 -14.4101 -14.4092 -14.4084 -14.4082 -14.4077
   -14.4066  -4.0864  -3.5077  -2.2251  -0.3897   0.0993   5.6519   5.7322
     6.3437   6.4481   7.0220   7.4195   7.7529   7.7667   8.1655   9.8938
    10.0152  10.1981  10.7097  10.8005  11.5302  13.0996  13.9142  14.9596
    15.0632  15.5121  15.6292  15.8381  16.3148  17.0391  17.1578  17.6614
    17.9094  18.0253  18.1193  18.7336  18.8269  19.2334

     occupation numbers 
     1.0000   1.0000   1.0000   1.0000   1.0000   1.0000   1.0000   1.0000
     1.0000   1.0000   1.0000   1.0000   1.0000   1.0000   1.0000   1.0000
     1.0000   1.0000   1.0000   1.0000   1.0000   1.0000   1.0000   1.0000
     1.0000   1.0000   1.0000   1.0000   1.0000   1.0000   1.0000   1.0000
     1.0000   1.0000   1.0000   1.0000   1.0000   1.0000   1.0000  -0.0000
    -0.0000  -0.0000  -0.0000  -0.0000  -0.0000  -0.0000  -0.0000  -0.0000
    -0.0000  -0.0000  -0.0000  -0.0000  -0.0000  -0.0000  -0.0000  -0.0000
    -0.0000  -0.0000  -0.0000  -0.0000  -0.0000  -0.0000

          k =-0.1679 0.3743 0.6896 ( 11899 PWs)   bands (ev):

   -27.8888 -27.8888 -27.8881 -27.8876 -27.8833 -27.8829 -27.8812 -27.8802
   -27.8792 -27.8786 -27.7313 -27.7242 -27.7241 -27.6951 -27.6947 -14.4216
   -14.4206 -14.4139 -14.4137 -14.4110 -14.4108 -14.4082 -14.4076 -14.4059
   -14.4049  -3.6510  -3.1250  -2.0247  -0.7067  -0.4665   4.9791   5.1138
     5.6646   5.8214   6.3120   6.4650   7.9268   7.9809   8.2765   9.5850
    10.1036  10.1656  11.3612  12.2575  12.2899  13.1434  13.2709  15.3337
    15.5740  15.9175  16.0195  16.1985  16.8276  16.9446  17.3846  17.8037
    19.0737  19.5715  19.7031  20.2099  20.4225  20.6272

     occupation numbers 
     1.0000   1.0000   1.0000   1.0000   1.0000   1.0000   1.0000   1.0000
     1.0000   1.0000   1.0000   1.0000   1.0000   1.0000   1.0000   1.0000
     1.0000   1.0000   1.0000   1.0000   1.0000   1.0000   1.0000   1.0000
     1.0000   1.0000   1.0000   1.0000   1.0000   1.0000   1.0000   1.0000
     1.0000   1.0000   1.0000   1.0000   1.0000   1.0000   1.0000  -0.0000
    -0.0000  -0.0000  -0.0000  -0.0000  -0.0000  -0.0000  -0.0000  -0.0000
    -0.0000  -0.0000  -0.0000  -0.0000  -0.0000  -0.0000  -0.0000  -0.0000
    -0.0000  -0.0000  -0.0000  -0.0000  -0.0000  -0.0000

          k =-0.1684 0.3742 1.1563 ( 11920 PWs)   bands (ev):

   -27.8888 -27.8884 -27.8879 -27.8873 -27.8836 -27.8828 -27.8817 -27.8801
   -27.8788 -27.8785 -27.7311 -27.7243 -27.7242 -27.6950 -27.6944 -14.4234
   -14.4219 -14.4138 -14.4124 -14.4118 -14.4108 -14.4074 -14.4065 -14.4038
   -14.4028  -2.8563  -2.5727  -1.8166  -1.5183  -1.1053   4.0521   4.8014
     5.2270   5.7688   6.0918   6.3461   6.8205   7.4828   7.6680  10.3787
    10.5265  11.2161  11.5994  12.0898  12.2573  12.8323  14.0303  14.7465
    16.1547  16.7788  17.1360  17.3351  17.8616  18.0798  18.6637  19.0691
    19.2896  19.7160  19.9862  20.1790  20.5893  21.0015

     occupation numbers 
     1.0000   1.0000   1.0000   1.0000   1.0000   1.0000   1.0000   1.0000
     1.0000   1.0000   1.0000   1.0000   1.0000   1.0000   1.0000   1.0000
     1.0000   1.0000   1.0000   1.0000   1.0000   1.0000   1.0000   1.0000
     1.0000   1.0000   1.0000   1.0000   1.0000   1.0000   1.0000   1.0000
     1.0000   1.0000   1.0000   1.0000   1.0000   1.0000   1.0000  -0.0000
    -0.0000  -0.0000  -0.0000  -0.0000  -0.0000  -0.0000  -0.0000  -0.0000
    -0.0000  -0.0000  -0.0000  -0.0000  -0.0000  -0.0000  -0.0000  -0.0000
    -0.0000  -0.0000  -0.0000  -0.0000  -0.0000  -0.0000

          k =-0.1661 0.3747-1.1776 ( 11914 PWs)   bands (ev):

   -27.8888 -27.8883 -27.8879 -27.8873 -27.8836 -27.8828 -27.8817 -27.8801
   -27.8788 -27.8785 -27.7311 -27.7243 -27.7242 -27.6950 -27.6944 -14.4234
   -14.4219 -14.4138 -14.4124 -14.4118 -14.4108 -14.4074 -14.4065 -14.4038
   -14.4028  -2.8291  -2.6168  -1.8037  -1.4926  -1.1271   4.1445   4.7573
     5.1580   5.3847   6.3149   6.6825   7.1003   7.2233   7.4932  10.5629
    10.7191  10.8095  11.4286  11.8426  12.7327  12.9923  13.6148  14.7384
    16.6608  16.7268  17.1567  17.8063  17.9609  18.1914  18.3216  18.9609
    19.2943  19.3766  19.6734  19.8546  20.4837  21.1824

     occupation numbers 
     1.0000   1.0000   1.0000   1.0000   1.0000   1.0000   1.0000   1.0000
     1.0000   1.0000   1.0000   1.0000   1.0000   1.0000   1.0000   1.0000
     1.0000   1.0000   1.0000   1.0000   1.0000   1.0000   1.0000   1.0000
     1.0000   1.0000   1.0000   1.0000   1.0000   1.0000   1.0000   1.0000
     1.0000   1.0000   1.0000   1.0000   1.0000   1.0000   1.0000  -0.0000
    -0.0000  -0.0000  -0.0000  -0.0000  -0.0000  -0.0000  -0.0000  -0.0000
    -0.0000  -0.0000  -0.0000  -0.0000  -0.0000  -0.0000  -0.0000  -0.0000
    -0.0000  -0.0000  -0.0000  -0.0000  -0.0000  -0.0000

          k =-0.1666 0.3746-0.7108 ( 11897 PWs)   bands (ev):

   -27.8888 -27.8888 -27.8881 -27.8876 -27.8833 -27.8829 -27.8812 -27.8802
   -27.8792 -27.8786 -27.7313 -27.7242 -27.7241 -27.6951 -27.6947 -14.4216
   -14.4206 -14.4139 -14.4137 -14.4110 -14.4108 -14.4082 -14.4076 -14.4059
   -14.4049  -3.6338  -3.1659  -1.9685  -0.8019  -0.4038   4.8843   5.1551
     5.5594   6.0941   6.2169   6.6252   7.6109   8.0763   8.1474   9.7245
    10.0193  10.5090  11.2804  12.0682  12.2619  13.2052  13.2985  14.7633
    15.2949  16.1976  16.3380  16.4819  16.9536  17.1933  17.4085  18.0890
    18.7733  19.1221  19.5785  20.1460  20.4114  20.7852

     occupation numbers 
     1.0000   1.0000   1.0000   1.0000   1.0000   1.0000   1.0000   1.0000
     1.0000   1.0000   1.0000   1.0000   1.0000   1.0000   1.0000   1.0000
     1.0000   1.0000   1.0000   1.0000   1.0000   1.0000   1.0000   1.0000
     1.0000   1.0000   1.0000   1.0000   1.0000   1.0000   1.0000   1.0000
     1.0000   1.0000   1.0000   1.0000   1.0000   1.0000   1.0000  -0.0000
    -0.0000  -0.0000  -0.0000  -0.0000  -0.0000  -0.0000  -0.0000  -0.0000
    -0.0000  -0.0000  -0.0000  -0.0000  -0.0000  -0.0000  -0.0000  -0.0000
    -0.0000  -0.0000  -0.0000  -0.0000  -0.0000  -0.0000

          k =-0.1670 0.3745-0.2440 ( 11889 PWs)   bands (ev):

   -27.8890 -27.8889 -27.8882 -27.8880 -27.8830 -27.8829 -27.8808 -27.8803
   -27.8796 -27.8789 -27.7315 -27.7241 -27.7241 -27.6951 -27.6949 -14.4205
   -14.4192 -14.4165 -14.4154 -14.4101 -14.4092 -14.4084 -14.4082 -14.4077
   -14.4066  -4.0809  -3.5213  -2.2081  -0.4059   0.1023   5.5702   5.9320
     6.2933   6.4211   7.0952   7.2432   7.7213   7.8026   8.2401   9.7769
     9.9736  10.0702  10.8136  10.9689  11.6444  13.1953  13.8540  14.8450
    14.9031  15.5069  15.8711  16.1278  16.1388  16.7561  16.7946  17.2469
    17.4502  18.2128  18.6476  18.7618  19.4090  19.6882

     occupation numbers 
     1.0000   1.0000   1.0000   1.0000   1.0000   1.0000   1.0000   1.0000
     1.0000   1.0000   1.0000   1.0000   1.0000   1.0000   1.0000   1.0000
     1.0000   1.0000   1.0000   1.0000   1.0000   1.0000   1.0000   1.0000
     1.0000   1.0000   1.0000   1.0000   1.0000   1.0000   1.0000   1.0000
     1.0000   1.0000   1.0000   1.0000   1.0000   1.0000   1.0000  -0.0000
    -0.0000  -0.0000  -0.0000  -0.0000  -0.0000  -0.0000  -0.0000  -0.0000
    -0.0000  -0.0000  -0.0000  -0.0000  -0.0000  -0.0000  -0.0000  -0.0000
    -0.0000  -0.0000  -0.0000  -0.0000  -0.0000  -0.0000

          k =-0.1679 0.7846 0.0000 ( 11899 PWs)   bands (ev):

   -27.8888 -27.8888 -27.8881 -27.8876 -27.8833 -27.8829 -27.8812 -27.8802
   -27.8792 -27.8786 -27.7313 -27.7242 -27.7241 -27.6951 -27.6947 -14.4216
   -14.4206 -14.4139 -14.4137 -14.4110 -14.4108 -14.4082 -14.4076 -14.4059
   -14.4049  -3.6510  -3.1250  -2.0247  -0.7067  -0.4665   4.9791   5.1138
     5.6646   5.8214   6.3120   6.4650   7.9268   7.9809   8.2765   9.5850
    10.1036  10.1656  11.3612  12.2575  12.2899  13.1434  13.2709  15.3337
    15.5740  15.9175  16.0195  16.1985  16.8276  16.9446  17.3846  17.8037
    19.0737  19.5715  19.7031  20.2099  20.4226  20.6272

     occupation numbers 
     1.0000   1.0000   1.0000   1.0000   1.0000   1.0000   1.0000   1.0000
     1.0000   1.0000   1.0000   1.0000   1.0000   1.0000   1.0000   1.0000
     1.0000   1.0000   1.0000   1.0000   1.0000   1.0000   1.0000   1.0000
     1.0000   1.0000   1.0000   1.0000   1.0000   1.0000   1.0000   1.0000
     1.0000   1.0000   1.0000   1.0000   1.0000   1.0000   1.0000  -0.0000
    -0.0000  -0.0000  -0.0000  -0.0000  -0.0000  -0.0000  -0.0000  -0.0000
    -0.0000  -0.0000  -0.0000  -0.0000  -0.0000  -0.0000  -0.0000  -0.0000
    -0.0000  -0.0000  -0.0000  -0.0000  -0.0000  -0.0000

          k =-0.1684 0.7845 0.4668 ( 11916 PWs)   bands (ev):

   -27.8889 -27.8885 -27.8881 -27.8874 -27.8833 -27.8831 -27.8813 -27.8802
   -27.8791 -27.8786 -27.7313 -27.7243 -27.7241 -27.6951 -27.6945 -14.4242
   -14.4225 -14.4128 -14.4124 -14.4110 -14.4108 -14.4074 -14.4060 -14.4055
   -14.4044  -3.4449  -2.9657  -1.9710  -0.9900  -0.5700   4.2372   5.3879
     5.7971   5.8286   6.4865   6.6053   7.0809   7.6369   7.6540   9.9729
    10.4198  11.0877  11.3108  11.4850  12.2308  12.3422  14.5618  14.9684
    15.5935  16.2110  16.6111  17.0546  17.6418  17.6823  17.7078  18.5061
    18.5286  18.6362  19.1658  21.1136  21.1654  21.5086

     occupation numbers 
     1.0000   1.0000   1.0000   1.0000   1.0000   1.0000   1.0000   1.0000
     1.0000   1.0000   1.0000   1.0000   1.0000   1.0000   1.0000   1.0000
     1.0000   1.0000   1.0000   1.0000   1.0000   1.0000   1.0000   1.0000
     1.0000   1.0000   1.0000   1.0000   1.0000   1.0000   1.0000   1.0000
     1.0000   1.0000   1.0000   1.0000   1.0000   1.0000   1.0000  -0.0000
    -0.0000  -0.0000  -0.0000  -0.0000  -0.0000  -0.0000  -0.0000  -0.0000
    -0.0000  -0.0000  -0.0000  -0.0000  -0.0000  -0.0000  -0.0000  -0.0000
    -0.0000  -0.0000  -0.0000  -0.0000  -0.0000  -0.0000

          k =-0.1689 0.7844 0.9336 ( 11915 PWs)   bands (ev):

   -27.8888 -27.8883 -27.8879 -27.8873 -27.8836 -27.8828 -27.8817 -27.8801
   -27.8788 -27.8785 -27.7311 -27.7243 -27.7242 -27.6950 -27.6944 -14.4234
   -14.4219 -14.4139 -14.4124 -14.4118 -14.4108 -14.4074 -14.4065 -14.4038
   -14.4028  -2.8642  -2.5506  -1.8694  -1.4687  -1.1163   4.0649   4.9131
     5.3311   5.7093   5.7255   6.1037   6.9302   7.8779   8.0163   9.9149
    10.1747  11.0278  11.8365  12.3078  12.4173  12.7837  14.6318  14.7733
    15.6547  16.1418  16.8898  17.7922  17.8192  18.0496  18.5900  19.2897
    19.3721  19.8422  20.4203  20.6761  20.9044  21.1990

     occupation numbers 
     1.0000   1.0000   1.0000   1.0000   1.0000   1.0000   1.0000   1.0000
     1.0000   1.0000   1.0000   1.0000   1.0000   1.0000   1.0000   1.0000
     1.0000   1.0000   1.0000   1.0000   1.0000   1.0000   1.0000   1.0000
     1.0000   1.0000   1.0000   1.0000   1.0000   1.0000   1.0000   1.0000
     1.0000   1.0000   1.0000   1.0000   1.0000   1.0000   1.0000  -0.0000
    -0.0000  -0.0000  -0.0000  -0.0000  -0.0000  -0.0000  -0.0000  -0.0000
    -0.0000  -0.0000  -0.0000  -0.0000  -0.0000  -0.0000  -0.0000  -0.0000
    -0.0000  -0.0000  -0.0000  -0.0000  -0.0000  -0.0000

          k =-0.1666 0.7849-1.4003 ( 11936 PWs)   bands (ev):

   -27.8888 -27.8880 -27.8879 -27.8873 -27.8839 -27.8823 -27.8822 -27.8801
   -27.8787 -27.8786 -27.7311 -27.7243 -27.7243 -27.6946 -27.6946 -14.4196
   -14.4195 -14.4174 -14.4139 -14.4095 -14.4091 -14.4089 -14.4084 -14.4037
   -14.4035  -2.1649  -2.1540  -1.8534  -1.8527  -1.7994   4.2530   4.6787
     4.7033   5.1992   5.7102   6.1891   6.9611   7.7395   7.9138  10.0822
    10.3862  11.1606  11.9592  12.6670  12.6839  14.2631  14.6534  14.8869
    14.9791  15.4139  16.4601  17.3175  17.4948  18.5171  18.5973  18.9425
    19.1972  19.8349  20.1252  21.1708  21.5383  21.8079

     occupation numbers 
     1.0000   1.0000   1.0000   1.0000   1.0000   1.0000   1.0000   1.0000
     1.0000   1.0000   1.0000   1.0000   1.0000   1.0000   1.0000   1.0000
     1.0000   1.0000   1.0000   1.0000   1.0000   1.0000   1.0000   1.0000
     1.0000   1.0000   1.0000   1.0000   1.0000   1.0000   1.0000   1.0000
     1.0000   1.0000   1.0000   1.0000   1.0000   1.0000   1.0000  -0.0000
    -0.0000  -0.0000  -0.0000  -0.0000  -0.0000  -0.0000  -0.0000  -0.0000
    -0.0000  -0.0000  -0.0000  -0.0000  -0.0000  -0.0000  -0.0000  -0.0000
    -0.0000  -0.0000  -0.0000  -0.0000  -0.0000  -0.0000

          k =-0.1670 0.7848-0.9336 ( 11915 PWs)   bands (ev):

   -27.8888 -27.8883 -27.8879 -27.8873 -27.8836 -27.8828 -27.8817 -27.8801
   -27.8788 -27.8785 -27.7311 -27.7243 -27.7242 -27.6950 -27.6944 -14.4234
   -14.4219 -14.4139 -14.4124 -14.4118 -14.4108 -14.4074 -14.4065 -14.4038
   -14.4028  -2.8642  -2.5506  -1.8694  -1.4687  -1.1163   4.0649   4.9131
     5.3311   5.7093   5.7255   6.1037   6.9302   7.8779   8.0163   9.9149
    10.1747  11.0278  11.8365  12.3078  12.4173  12.7837  14.6318  14.7733
    15.6547  16.1418  16.8898  17.7922  17.8192  18.0496  18.5900  19.2897
    19.3721  19.8422  20.4203  20.6761  20.9044  21.1989

     occupation numbers 
     1.0000   1.0000   1.0000   1.0000   1.0000   1.0000   1.0000   1.0000
     1.0000   1.0000   1.0000   1.0000   1.0000   1.0000   1.0000   1.0000
     1.0000   1.0000   1.0000   1.0000   1.0000   1.0000   1.0000   1.0000
     1.0000   1.0000   1.0000   1.0000   1.0000   1.0000   1.0000   1.0000
     1.0000   1.0000   1.0000   1.0000   1.0000   1.0000   1.0000  -0.0000
    -0.0000  -0.0000  -0.0000  -0.0000  -0.0000  -0.0000  -0.0000  -0.0000
    -0.0000  -0.0000  -0.0000  -0.0000  -0.0000  -0.0000  -0.0000  -0.0000
    -0.0000  -0.0000  -0.0000  -0.0000  -0.0000  -0.0000

          k =-0.1675 0.7847-0.4668 ( 11916 PWs)   bands (ev):

   -27.8889 -27.8885 -27.8881 -27.8874 -27.8833 -27.8831 -27.8813 -27.8802
   -27.8791 -27.8786 -27.7313 -27.7243 -27.7241 -27.6951 -27.6945 -14.4242
   -14.4225 -14.4128 -14.4124 -14.4110 -14.4108 -14.4074 -14.4060 -14.4055
   -14.4044  -3.4449  -2.9657  -1.9710  -0.9900  -0.5700   4.2372   5.3879
     5.7971   5.8286   6.4865   6.6053   7.0809   7.6369   7.6540   9.9729
    10.4198  11.0877  11.3108  11.4850  12.2308  12.3422  14.5618  14.9684
    15.5935  16.2110  16.6111  17.0546  17.6418  17.6823  17.7078  18.5061
    18.5286  18.6362  19.1658  21.1135  21.1654  21.5087

     occupation numbers 
     1.0000   1.0000   1.0000   1.0000   1.0000   1.0000   1.0000   1.0000
     1.0000   1.0000   1.0000   1.0000   1.0000   1.0000   1.0000   1.0000
     1.0000   1.0000   1.0000   1.0000   1.0000   1.0000   1.0000   1.0000
     1.0000   1.0000   1.0000   1.0000   1.0000   1.0000   1.0000   1.0000
     1.0000   1.0000   1.0000   1.0000   1.0000   1.0000   1.0000  -0.0000
    -0.0000  -0.0000  -0.0000  -0.0000  -0.0000  -0.0000  -0.0000  -0.0000
    -0.0000  -0.0000  -0.0000  -0.0000  -0.0000  -0.0000  -0.0000  -0.0000
    -0.0000  -0.0000  -0.0000  -0.0000  -0.0000  -0.0000

          k =-0.1684 1.1948-0.2228 ( 11920 PWs)   bands (ev):

   -27.8888 -27.8884 -27.8879 -27.8873 -27.8836 -27.8828 -27.8817 -27.8801
   -27.8788 -27.8785 -27.7311 -27.7243 -27.7242 -27.6950 -27.6944 -14.4234
   -14.4219 -14.4138 -14.4124 -14.4118 -14.4108 -14.4074 -14.4065 -14.4038
   -14.4028  -2.8563  -2.5727  -1.8166  -1.5184  -1.1053   4.0521   4.8014
     5.2270   5.7688   6.0918   6.3461   6.8205   7.4828   7.6680  10.3787
    10.5265  11.2161  11.5994  12.0898  12.2573  12.8323  14.0303  14.7465
    16.1547  16.7788  17.1360  17.3351  17.8616  18.0798  18.6637  19.0691
    19.2896  19.7160  19.9862  20.1790  20.5893  21.0015

     occupation numbers 
     1.0000   1.0000   1.0000   1.0000   1.0000   1.0000   1.0000   1.0000
     1.0000   1.0000   1.0000   1.0000   1.0000   1.0000   1.0000   1.0000
     1.0000   1.0000   1.0000   1.0000   1.0000   1.0000   1.0000   1.0000
     1.0000   1.0000   1.0000   1.0000   1.0000   1.0000   1.0000   1.0000
     1.0000   1.0000   1.0000   1.0000   1.0000   1.0000   1.0000  -0.0000
    -0.0000  -0.0000  -0.0000  -0.0000  -0.0000  -0.0000  -0.0000  -0.0000
    -0.0000  -0.0000  -0.0000  -0.0000  -0.0000  -0.0000  -0.0000  -0.0000
    -0.0000  -0.0000  -0.0000  -0.0000  -0.0000  -0.0000

          k =-0.1689 1.1947 0.2440 ( 11915 PWs)   bands (ev):

   -27.8888 -27.8883 -27.8879 -27.8873 -27.8836 -27.8828 -27.8817 -27.8801
   -27.8788 -27.8785 -27.7311 -27.7243 -27.7242 -27.6950 -27.6944 -14.4234
   -14.4219 -14.4139 -14.4124 -14.4118 -14.4108 -14.4074 -14.4065 -14.4038
   -14.4028  -2.8642  -2.5506  -1.8694  -1.4687  -1.1163   4.0649   4.9131
     5.3311   5.7093   5.7255   6.1037   6.9302   7.8779   8.0163   9.9149
    10.1747  11.0278  11.8365  12.3078  12.4173  12.7837  14.6318  14.7733
    15.6547  16.1418  16.8898  17.7922  17.8192  18.0496  18.5900  19.2897
    19.3721  19.8422  20.4203  20.6761  20.9044  21.2009

     occupation numbers 
     1.0000   1.0000   1.0000   1.0000   1.0000   1.0000   1.0000   1.0000
     1.0000   1.0000   1.0000   1.0000   1.0000   1.0000   1.0000   1.0000
     1.0000   1.0000   1.0000   1.0000   1.0000   1.0000   1.0000   1.0000
     1.0000   1.0000   1.0000   1.0000   1.0000   1.0000   1.0000   1.0000
     1.0000   1.0000   1.0000   1.0000   1.0000   1.0000   1.0000  -0.0000
    -0.0000  -0.0000  -0.0000  -0.0000  -0.0000  -0.0000  -0.0000  -0.0000
    -0.0000  -0.0000  -0.0000  -0.0000  -0.0000  -0.0000  -0.0000  -0.0000
    -0.0000  -0.0000  -0.0000  -0.0000  -0.0000  -0.0000

          k =-0.1693 1.1946 0.7108 ( 11906 PWs)   bands (ev):

   -27.8889 -27.8883 -27.8881 -27.8871 -27.8834 -27.8832 -27.8815 -27.8801
   -27.8788 -27.8786 -27.7311 -27.7244 -27.7241 -27.6951 -27.6943 -14.4264
   -14.4245 -14.4140 -14.4121 -14.4120 -14.4096 -14.4054 -14.4047 -14.4036
   -14.4024  -2.6687  -2.6471  -2.0515  -1.5567  -0.9629   3.9918   4.9135
     5.1953   5.5779   6.3228   6.4695   7.4195   7.4945   7.5119   9.9684
    10.1206  10.4711  11.3568  11.7479  12.1788  13.2744  14.0248  15.5003
    17.2077  17.2642  17.7351  17.9268  18.2063  18.2415  19.0608  19.0798
    19.3001  19.5609  19.7955  19.9549  20.3223  20.7950

     occupation numbers 
     1.0000   1.0000   1.0000   1.0000   1.0000   1.0000   1.0000   1.0000
     1.0000   1.0000   1.0000   1.0000   1.0000   1.0000   1.0000   1.0000
     1.0000   1.0000   1.0000   1.0000   1.0000   1.0000   1.0000   1.0000
     1.0000   1.0000   1.0000   1.0000   1.0000   1.0000   1.0000   1.0000
     1.0000   1.0000   1.0000   1.0000   1.0000   1.0000   1.0000  -0.0000
    -0.0000  -0.0000  -0.0000  -0.0000  -0.0000  -0.0000  -0.0000  -0.0000
    -0.0000  -0.0000  -0.0000  -0.0000  -0.0000  -0.0000  -0.0000  -0.0000
    -0.0000  -0.0000  -0.0000  -0.0000  -0.0000  -0.0000

          k =-0.1670 1.1951-1.6231 ( 11915 PWs)   bands (ev):

   -27.8888 -27.8883 -27.8879 -27.8873 -27.8836 -27.8828 -27.8817 -27.8801
   -27.8788 -27.8785 -27.7311 -27.7243 -27.7242 -27.6950 -27.6944 -14.4234
   -14.4219 -14.4139 -14.4124 -14.4118 -14.4108 -14.4074 -14.4065 -14.4038
   -14.4028  -2.8207  -2.6163  -1.8821  -1.3517  -1.1984   4.3447   4.9010
     4.9293   5.2570   5.8401   6.2229   7.7467   7.8384   8.0364   9.7607
    10.0779  10.2595  11.8540  12.2417  12.8137  13.1866  14.1629  14.9703
    15.8378  16.2157  16.9342  17.8317  18.0120  18.2681  18.8380  19.0013
    19.3927  19.8471  19.9259  20.3733  20.6257  20.9463

     occupation numbers 
     1.0000   1.0000   1.0000   1.0000   1.0000   1.0000   1.0000   1.0000
     1.0000   1.0000   1.0000   1.0000   1.0000   1.0000   1.0000   1.0000
     1.0000   1.0000   1.0000   1.0000   1.0000   1.0000   1.0000   1.0000
     1.0000   1.0000   1.0000   1.0000   1.0000   1.0000   1.0000   1.0000
     1.0000   1.0000   1.0000   1.0000   1.0000   1.0000   1.0000  -0.0000
    -0.0000  -0.0000  -0.0000  -0.0000  -0.0000  -0.0000  -0.0000  -0.0000
    -0.0000  -0.0000  -0.0000  -0.0000  -0.0000  -0.0000  -0.0000  -0.0000
    -0.0000  -0.0000  -0.0000  -0.0000  -0.0000  -0.0000

          k =-0.1675 1.1950-1.1563 ( 11918 PWs)   bands (ev):

   -27.8888 -27.8883 -27.8879 -27.8873 -27.8836 -27.8828 -27.8817 -27.8801
   -27.8788 -27.8785 -27.7311 -27.7243 -27.7242 -27.6950 -27.6944 -14.4234
   -14.4219 -14.4139 -14.4124 -14.4118 -14.4108 -14.4074 -14.4065 -14.4038
   -14.4028  -2.8059  -2.6438  -1.8408  -1.4072  -1.1715   4.3059   4.8033
     4.9969   5.1735   6.1283   6.5637   7.3431   7.5466   7.8120   9.9842
    10.4357  10.6624  11.6028  11.9620  12.9218  13.1431  13.7237  14.8060
    16.1986  16.9068  17.1017  17.8118  17.9632  18.1940  18.6453  18.7726
    19.2997  19.6348  19.8094  19.9796  20.3383  21.1014

     occupation numbers 
     1.0000   1.0000   1.0000   1.0000   1.0000   1.0000   1.0000   1.0000
     1.0000   1.0000   1.0000   1.0000   1.0000   1.0000   1.0000   1.0000
     1.0000   1.0000   1.0000   1.0000   1.0000   1.0000   1.0000   1.0000
     1.0000   1.0000   1.0000   1.0000   1.0000   1.0000   1.0000   1.0000
     1.0000   1.0000   1.0000   1.0000   1.0000   1.0000   1.0000  -0.0000
    -0.0000  -0.0000  -0.0000  -0.0000  -0.0000  -0.0000  -0.0000  -0.0000
    -0.0000  -0.0000  -0.0000  -0.0000  -0.0000  -0.0000  -0.0000  -0.0000
    -0.0000  -0.0000  -0.0000  -0.0000  -0.0000  -0.0000

          k =-0.1680 1.1949-0.6896 ( 11935 PWs)   bands (ev):

   -27.8889 -27.8884 -27.8881 -27.8871 -27.8834 -27.8832 -27.8815 -27.8802
   -27.8788 -27.8786 -27.7311 -27.7244 -27.7241 -27.6951 -27.6943 -14.4264
   -14.4245 -14.4140 -14.4121 -14.4120 -14.4096 -14.4054 -14.4047 -14.4036
   -14.4024  -2.6676  -2.6405  -2.1050  -1.4433  -1.0347   3.8468   5.3092
     5.3589   5.6543   6.0601   6.1379   6.9413   7.7325   7.9108   9.5850
    10.1131  10.8242  11.4569  12.0698  12.2511  12.7032  13.7392  16.3717
    17.1374  17.3488  17.4991  17.9194  18.1315  18.1730  18.9502  18.9958
    19.0167  19.5185  19.6081  20.1180  20.2264  20.8238

     occupation numbers 
     1.0000   1.0000   1.0000   1.0000   1.0000   1.0000   1.0000   1.0000
     1.0000   1.0000   1.0000   1.0000   1.0000   1.0000   1.0000   1.0000
     1.0000   1.0000   1.0000   1.0000   1.0000   1.0000   1.0000   1.0000
     1.0000   1.0000   1.0000   1.0000   1.0000   1.0000   1.0000   1.0000
     1.0000   1.0000   1.0000   1.0000   1.0000   1.0000   1.0000  -0.0000
    -0.0000  -0.0000  -0.0000  -0.0000  -0.0000  -0.0000  -0.0000  -0.0000
    -0.0000  -0.0000  -0.0000  -0.0000  -0.0000  -0.0000  -0.0000  -0.0000
    -0.0000  -0.0000  -0.0000  -0.0000  -0.0000  -0.0000

          k =-0.1661-0.8561 0.8911 ( 11914 PWs)   bands (ev):

   -27.8888 -27.8883 -27.8879 -27.8873 -27.8836 -27.8828 -27.8817 -27.8801
   -27.8788 -27.8785 -27.7311 -27.7243 -27.7242 -27.6950 -27.6944 -14.4234
   -14.4219 -14.4138 -14.4124 -14.4118 -14.4108 -14.4074 -14.4065 -14.4038
   -14.4028  -2.8291  -2.6168  -1.8037  -1.4926  -1.1271   4.1445   4.7573
     5.1580   5.3847   6.3149   6.6825   7.1003   7.2233   7.4932  10.5629
    10.7191  10.8095  11.4286  11.8426  12.7327  12.9923  13.6148  14.7384
    16.6608  16.7268  17.1567  17.8063  17.9609  18.1914  18.3216  18.9609
    19.2943  19.3766  19.6734  19.8546  20.4837  21.1824

     occupation numbers 
     1.0000   1.0000   1.0000   1.0000   1.0000   1.0000   1.0000   1.0000
     1.0000   1.0000   1.0000   1.0000   1.0000   1.0000   1.0000   1.0000
     1.0000   1.0000   1.0000   1.0000   1.0000   1.0000   1.0000   1.0000
     1.0000   1.0000   1.0000   1.0000   1.0000   1.0000   1.0000   1.0000
     1.0000   1.0000   1.0000   1.0000   1.0000   1.0000   1.0000  -0.0000
    -0.0000  -0.0000  -0.0000  -0.0000  -0.0000  -0.0000  -0.0000  -0.0000
    -0.0000  -0.0000  -0.0000  -0.0000  -0.0000  -0.0000  -0.0000  -0.0000
    -0.0000  -0.0000  -0.0000  -0.0000  -0.0000  -0.0000

          k =-0.1666-0.8562 1.3579 ( 11936 PWs)   bands (ev):

   -27.8888 -27.8880 -27.8879 -27.8873 -27.8839 -27.8823 -27.8822 -27.8801
   -27.8787 -27.8786 -27.7311 -27.7243 -27.7243 -27.6946 -27.6946 -14.4196
   -14.4195 -14.4174 -14.4139 -14.4095 -14.4091 -14.4089 -14.4084 -14.4037
   -14.4035  -2.1649  -2.1540  -1.8534  -1.8527  -1.7994   4.2530   4.6787
     4.7033   5.1992   5.7102   6.1891   6.9611   7.7395   7.9138  10.0822
    10.3862  11.1606  11.9592  12.6670  12.6839  14.2631  14.6534  14.8869
    14.9791  15.4139  16.4601  17.3175  17.4948  18.5171  18.5973  18.9425
    19.1972  19.8349  20.1253  21.1706  21.5383  21.8084

     occupation numbers 
     1.0000   1.0000   1.0000   1.0000   1.0000   1.0000   1.0000   1.0000
     1.0000   1.0000   1.0000   1.0000   1.0000   1.0000   1.0000   1.0000
     1.0000   1.0000   1.0000   1.0000   1.0000   1.0000   1.0000   1.0000
     1.0000   1.0000   1.0000   1.0000   1.0000   1.0000   1.0000   1.0000
     1.0000   1.0000   1.0000   1.0000   1.0000   1.0000   1.0000  -0.0000
    -0.0000  -0.0000  -0.0000  -0.0000  -0.0000  -0.0000  -0.0000  -0.0000
    -0.0000  -0.0000  -0.0000  -0.0000  -0.0000  -0.0000  -0.0000  -0.0000
    -0.0000  -0.0000  -0.0000  -0.0000  -0.0000  -0.0000

          k =-0.1670-0.8563 1.8247 ( 11915 PWs)   bands (ev):

   -27.8888 -27.8883 -27.8879 -27.8873 -27.8836 -27.8828 -27.8817 -27.8801
   -27.8788 -27.8785 -27.7311 -27.7243 -27.7242 -27.6950 -27.6944 -14.4234
   -14.4219 -14.4139 -14.4124 -14.4118 -14.4108 -14.4074 -14.4065 -14.4038
   -14.4028  -2.8207  -2.6163  -1.8821  -1.3517  -1.1984   4.3447   4.9010
     4.9293   5.2570   5.8401   6.2229   7.7467   7.8384   8.0364   9.7607
    10.0779  10.2595  11.8540  12.2417  12.8137  13.1866  14.1629  14.9703
    15.8378  16.2157  16.9342  17.8317  18.0120  18.2681  18.8380  19.0013
    19.3927  19.8471  19.9259  20.3733  20.6258  20.9461

     occupation numbers 
     1.0000   1.0000   1.0000   1.0000   1.0000   1.0000   1.0000   1.0000
     1.0000   1.0000   1.0000   1.0000   1.0000   1.0000   1.0000   1.0000
     1.0000   1.0000   1.0000   1.0000   1.0000   1.0000   1.0000   1.0000
     1.0000   1.0000   1.0000   1.0000   1.0000   1.0000   1.0000   1.0000
     1.0000   1.0000   1.0000   1.0000   1.0000   1.0000   1.0000  -0.0000
    -0.0000  -0.0000  -0.0000  -0.0000  -0.0000  -0.0000  -0.0000  -0.0000
    -0.0000  -0.0000  -0.0000  -0.0000  -0.0000  -0.0000  -0.0000  -0.0000
    -0.0000  -0.0000  -0.0000  -0.0000  -0.0000  -0.0000

          k =-0.1648-0.8558-0.5092 ( 11898 PWs)   bands (ev):

   -27.8889 -27.8885 -27.8881 -27.8874 -27.8833 -27.8831 -27.8813 -27.8802
   -27.8791 -27.8786 -27.7312 -27.7243 -27.7241 -27.6951 -27.6945 -14.4242
   -14.4225 -14.4128 -14.4124 -14.4110 -14.4108 -14.4074 -14.4060 -14.4055
   -14.4044  -3.3857  -3.0800  -1.8749  -0.9744  -0.6337   4.2878   5.2374
     5.7933   5.8019   6.5596   6.6144   7.2964   7.5866   7.6647  10.0441
    10.4044  10.5278  11.3047  11.5739  12.4669  12.6184  13.9016  15.4675
    15.7455  16.2754  16.3562  16.7406  16.7635  17.4927  18.4762  19.0471
    19.4608  19.5218  19.8279  20.3971  20.5234  21.3359

     occupation numbers 
     1.0000   1.0000   1.0000   1.0000   1.0000   1.0000   1.0000   1.0000
     1.0000   1.0000   1.0000   1.0000   1.0000   1.0000   1.0000   1.0000
     1.0000   1.0000   1.0000   1.0000   1.0000   1.0000   1.0000   1.0000
     1.0000   1.0000   1.0000   1.0000   1.0000   1.0000   1.0000   1.0000
     1.0000   1.0000   1.0000   1.0000   1.0000   1.0000   1.0000  -0.0000
    -0.0000  -0.0000  -0.0000  -0.0000  -0.0000  -0.0000  -0.0000  -0.0000
    -0.0000  -0.0000  -0.0000  -0.0000  -0.0000  -0.0000  -0.0000  -0.0000
    -0.0000  -0.0000  -0.0000  -0.0000  -0.0000  -0.0000

          k =-0.1652-0.8559-0.0424 ( 11894 PWs)   bands (ev):

   -27.8888 -27.8888 -27.8881 -27.8876 -27.8833 -27.8829 -27.8812 -27.8802
   -27.8792 -27.8787 -27.7313 -27.7242 -27.7241 -27.6951 -27.6947 -14.4216
   -14.4206 -14.4139 -14.4137 -14.4110 -14.4108 -14.4082 -14.4076 -14.4059
   -14.4049  -3.5907  -3.2515  -1.8488  -0.9546  -0.3284   4.7915   5.0742
     5.6580   6.1538   6.4094   6.8590   7.3847   7.8162   7.8774  10.0626
    10.2508  10.8519  11.0720  11.7648  12.0719  13.3763  13.3909  14.1941
    14.7788  16.5093  16.7255  16.8544  17.2377  17.6245  17.9514  18.2553
    18.6316  18.6836  18.9691  19.7583  20.2011  20.4533

     occupation numbers 
     1.0000   1.0000   1.0000   1.0000   1.0000   1.0000   1.0000   1.0000
     1.0000   1.0000   1.0000   1.0000   1.0000   1.0000   1.0000   1.0000
     1.0000   1.0000   1.0000   1.0000   1.0000   1.0000   1.0000   1.0000
     1.0000   1.0000   1.0000   1.0000   1.0000   1.0000   1.0000   1.0000
     1.0000   1.0000   1.0000   1.0000   1.0000   1.0000   1.0000  -0.0000
    -0.0000  -0.0000  -0.0000  -0.0000  -0.0000  -0.0000  -0.0000  -0.0000
    -0.0000  -0.0000  -0.0000  -0.0000  -0.0000  -0.0000  -0.0000  -0.0000
    -0.0000  -0.0000  -0.0000  -0.0000  -0.0000  -0.0000

          k =-0.1657-0.8560 0.4243 ( 11904 PWs)   bands (ev):

   -27.8889 -27.8885 -27.8882 -27.8874 -27.8833 -27.8831 -27.8813 -27.8802
   -27.8791 -27.8786 -27.7313 -27.7243 -27.7241 -27.6951 -27.6945 -14.4242
   -14.4225 -14.4128 -14.4124 -14.4110 -14.4108 -14.4074 -14.4060 -14.4055
   -14.4044  -3.3923  -3.0773  -1.7977  -1.1746  -0.5048   4.5314   4.9778
     5.7637   5.9430   6.1218   6.2504   7.8611   7.9175   8.2484   9.4047
     9.9736  10.0696  11.5000  11.8849  12.5008  12.9930  13.7824  15.1413
    16.1792  16.3085  16.7023  16.8141  17.4290  17.7227  18.0322  18.2488
    18.8183  19.1417  19.7813  19.8970  20.2683  20.7032

     occupation numbers 
     1.0000   1.0000   1.0000   1.0000   1.0000   1.0000   1.0000   1.0000
     1.0000   1.0000   1.0000   1.0000   1.0000   1.0000   1.0000   1.0000
     1.0000   1.0000   1.0000   1.0000   1.0000   1.0000   1.0000   1.0000
     1.0000   1.0000   1.0000   1.0000   1.0000   1.0000   1.0000   1.0000
     1.0000   1.0000   1.0000   1.0000   1.0000   1.0000   1.0000  -0.0000
    -0.0000  -0.0000  -0.0000  -0.0000  -0.0000  -0.0000  -0.0000  -0.0000
    -0.0000  -0.0000  -0.0000  -0.0000  -0.0000  -0.0000  -0.0000  -0.0000
    -0.0000  -0.0000  -0.0000  -0.0000  -0.0000  -0.0000

          k =-0.1666-0.4459 0.6683 ( 11897 PWs)   bands (ev):

   -27.8888 -27.8888 -27.8881 -27.8876 -27.8833 -27.8829 -27.8812 -27.8802
   -27.8792 -27.8786 -27.7313 -27.7242 -27.7241 -27.6951 -27.6947 -14.4216
   -14.4206 -14.4139 -14.4137 -14.4110 -14.4108 -14.4082 -14.4076 -14.4059
   -14.4049  -3.6338  -3.1659  -1.9685  -0.8019  -0.4038   4.8843   5.1551
     5.5594   6.0941   6.2169   6.6252   7.6109   8.0763   8.1474   9.7245
    10.0193  10.5090  11.2804  12.0682  12.2619  13.2052  13.2985  14.7633
    15.2949  16.1976  16.3380  16.4819  16.9536  17.1933  17.4085  18.0890
    18.7733  19.1221  19.5786  20.1460  20.4114  20.7855

     occupation numbers 
     1.0000   1.0000   1.0000   1.0000   1.0000   1.0000   1.0000   1.0000
     1.0000   1.0000   1.0000   1.0000   1.0000   1.0000   1.0000   1.0000
     1.0000   1.0000   1.0000   1.0000   1.0000   1.0000   1.0000   1.0000
     1.0000   1.0000   1.0000   1.0000   1.0000   1.0000   1.0000   1.0000
     1.0000   1.0000   1.0000   1.0000   1.0000   1.0000   1.0000  -0.0000
    -0.0000  -0.0000  -0.0000  -0.0000  -0.0000  -0.0000  -0.0000  -0.0000
    -0.0000  -0.0000  -0.0000  -0.0000  -0.0000  -0.0000  -0.0000  -0.0000
    -0.0000  -0.0000  -0.0000  -0.0000  -0.0000  -0.0000

          k =-0.1670-0.4460 1.1351 ( 11915 PWs)   bands (ev):

   -27.8888 -27.8883 -27.8879 -27.8873 -27.8836 -27.8828 -27.8817 -27.8801
   -27.8788 -27.8785 -27.7311 -27.7243 -27.7242 -27.6950 -27.6944 -14.4234
   -14.4219 -14.4139 -14.4124 -14.4118 -14.4108 -14.4074 -14.4065 -14.4038
   -14.4028  -2.8642  -2.5506  -1.8694  -1.4687  -1.1163   4.0649   4.9131
     5.3311   5.7093   5.7255   6.1037   6.9302   7.8779   8.0163   9.9149
    10.1747  11.0278  11.8365  12.3078  12.4173  12.7837  14.6318  14.7733
    15.6547  16.1418  16.8898  17.7922  17.8192  18.0496  18.5900  19.2897
    19.3721  19.8422  20.4203  20.6761  20.9044  21.1989

     occupation numbers 
     1.0000   1.0000   1.0000   1.0000   1.0000   1.0000   1.0000   1.0000
     1.0000   1.0000   1.0000   1.0000   1.0000   1.0000   1.0000   1.0000
     1.0000   1.0000   1.0000   1.0000   1.0000   1.0000   1.0000   1.0000
     1.0000   1.0000   1.0000   1.0000   1.0000   1.0000   1.0000   1.0000
     1.0000   1.0000   1.0000   1.0000   1.0000   1.0000   1.0000  -0.0000
    -0.0000  -0.0000  -0.0000  -0.0000  -0.0000  -0.0000  -0.0000  -0.0000
    -0.0000  -0.0000  -0.0000  -0.0000  -0.0000  -0.0000  -0.0000  -0.0000
    -0.0000  -0.0000  -0.0000  -0.0000  -0.0000  -0.0000

          k =-0.1675-0.4461 1.6019 ( 11918 PWs)   bands (ev):

   -27.8888 -27.8883 -27.8879 -27.8873 -27.8836 -27.8828 -27.8817 -27.8801
   -27.8788 -27.8785 -27.7311 -27.7243 -27.7242 -27.6950 -27.6944 -14.4234
   -14.4219 -14.4139 -14.4124 -14.4118 -14.4108 -14.4074 -14.4065 -14.4038
   -14.4028  -2.8059  -2.6438  -1.8408  -1.4072  -1.1715   4.3059   4.8033
     4.9969   5.1735   6.1283   6.5637   7.3431   7.5466   7.8120   9.9842
    10.4357  10.6624  11.6028  11.9620  12.9218  13.1431  13.7237  14.8060
    16.1986  16.9068  17.1017  17.8118  17.9632  18.1940  18.6453  18.7726
    19.2997  19.6348  19.8094  19.9796  20.3383  21.1021

     occupation numbers 
     1.0000   1.0000   1.0000   1.0000   1.0000   1.0000   1.0000   1.0000
     1.0000   1.0000   1.0000   1.0000   1.0000   1.0000   1.0000   1.0000
     1.0000   1.0000   1.0000   1.0000   1.0000   1.0000   1.0000   1.0000
     1.0000   1.0000   1.0000   1.0000   1.0000   1.0000   1.0000   1.0000
     1.0000   1.0000   1.0000   1.0000   1.0000   1.0000   1.0000  -0.0000
    -0.0000  -0.0000  -0.0000  -0.0000  -0.0000  -0.0000  -0.0000  -0.0000
    -0.0000  -0.0000  -0.0000  -0.0000  -0.0000  -0.0000  -0.0000  -0.0000
    -0.0000  -0.0000  -0.0000  -0.0000  -0.0000  -0.0000

          k =-0.1652-0.4457-0.7320 ( 11894 PWs)   bands (ev):

   -27.8888 -27.8888 -27.8881 -27.8876 -27.8833 -27.8829 -27.8812 -27.8802
   -27.8792 -27.8787 -27.7313 -27.7242 -27.7241 -27.6951 -27.6947 -14.4216
   -14.4206 -14.4139 -14.4137 -14.4110 -14.4108 -14.4082 -14.4076 -14.4059
   -14.4049  -3.5907  -3.2515  -1.8488  -0.9546  -0.3284   4.7915   5.0742
     5.6580   6.1538   6.4094   6.8590   7.3847   7.8162   7.8774  10.0626
    10.2508  10.8519  11.0720  11.7648  12.0719  13.3763  13.3909  14.1941
    14.7788  16.5093  16.7255  16.8544  17.2377  17.6245  17.9514  18.2553
    18.6315  18.6836  18.9691  19.7583  20.2011  20.4532

     occupation numbers 
     1.0000   1.0000   1.0000   1.0000   1.0000   1.0000   1.0000   1.0000
     1.0000   1.0000   1.0000   1.0000   1.0000   1.0000   1.0000   1.0000
     1.0000   1.0000   1.0000   1.0000   1.0000   1.0000   1.0000   1.0000
     1.0000   1.0000   1.0000   1.0000   1.0000   1.0000   1.0000   1.0000
     1.0000   1.0000   1.0000   1.0000   1.0000   1.0000   1.0000  -0.0000
    -0.0000  -0.0000  -0.0000  -0.0000  -0.0000  -0.0000  -0.0000  -0.0000
    -0.0000  -0.0000  -0.0000  -0.0000  -0.0000  -0.0000  -0.0000  -0.0000
    -0.0000  -0.0000  -0.0000  -0.0000  -0.0000  -0.0000

          k =-0.1657-0.4457-0.2652 ( 11898 PWs)   bands (ev):

   -27.8890 -27.8889 -27.8882 -27.8880 -27.8830 -27.8829 -27.8808 -27.8803
   -27.8796 -27.8789 -27.7315 -27.7241 -27.7241 -27.6951 -27.6949 -14.4205
   -14.4192 -14.4165 -14.4154 -14.4101 -14.4092 -14.4085 -14.4082 -14.4077
   -14.4066  -4.0412  -3.6095  -2.0745  -0.6436   0.2570   5.4701   6.2263
     6.3232   6.4414   6.8855   7.0083   7.8369   7.9514   8.1890   9.5746
     9.8825  10.1404  10.9550  11.1398  11.6362  13.3621  13.8868  14.4696
    14.8412  15.5175  15.6868  16.2539  16.2543  16.4573  16.5958  17.2836
    17.6469  18.0515  19.0388  19.2501  19.5170  20.0587

     occupation numbers 
     1.0000   1.0000   1.0000   1.0000   1.0000   1.0000   1.0000   1.0000
     1.0000   1.0000   1.0000   1.0000   1.0000   1.0000   1.0000   1.0000
     1.0000   1.0000   1.0000   1.0000   1.0000   1.0000   1.0000   1.0000
     1.0000   1.0000   1.0000   1.0000   1.0000   1.0000   1.0000   1.0000
     1.0000   1.0000   1.0000   1.0000   1.0000   1.0000   1.0000  -0.0000
    -0.0000  -0.0000  -0.0000  -0.0000  -0.0000  -0.0000  -0.0000  -0.0000
    -0.0000  -0.0000  -0.0000  -0.0000  -0.0000  -0.0000  -0.0000  -0.0000
    -0.0000  -0.0000  -0.0000  -0.0000  -0.0000  -0.0000

          k =-0.1661-0.4458 0.2016 ( 11906 PWs)   bands (ev):

   -27.8890 -27.8889 -27.8882 -27.8880 -27.8830 -27.8829 -27.8808 -27.8803
   -27.8796 -27.8789 -27.7315 -27.7241 -27.7241 -27.6951 -27.6949 -14.4205
   -14.4192 -14.4165 -14.4154 -14.4101 -14.4092 -14.4085 -14.4082 -14.4077
   -14.4066  -4.0554  -3.5813  -2.1101  -0.6143   0.2576   5.5058   5.8723
     6.4418   6.5138   6.8678   7.2455   7.8167   7.9028   8.1485   9.6813
    10.0634  10.3622  10.7477  10.8779  11.3756  13.1366  14.0901  14.6548
    15.0443  15.1522  15.5428  16.1625  16.5430  17.1923  17.4555  17.5708
    17.7750  17.7806  18.1542  18.8657  19.0083  19.5630

     occupation numbers 
     1.0000   1.0000   1.0000   1.0000   1.0000   1.0000   1.0000   1.0000
     1.0000   1.0000   1.0000   1.0000   1.0000   1.0000   1.0000   1.0000
     1.0000   1.0000   1.0000   1.0000   1.0000   1.0000   1.0000   1.0000
     1.0000   1.0000   1.0000   1.0000   1.0000   1.0000   1.0000   1.0000
     1.0000   1.0000   1.0000   1.0000   1.0000   1.0000   1.0000  -0.0000
    -0.0000  -0.0000  -0.0000  -0.0000  -0.0000  -0.0000  -0.0000  -0.0000
    -0.0000  -0.0000  -0.0000  -0.0000  -0.0000  -0.0000  -0.0000  -0.0000
    -0.0000  -0.0000  -0.0000  -0.0000  -0.0000  -0.0000

          k =-0.1670-0.0358 0.4456 ( 11889 PWs)   bands (ev):

   -27.8890 -27.8889 -27.8882 -27.8880 -27.8830 -27.8829 -27.8808 -27.8803
   -27.8796 -27.8789 -27.7315 -27.7241 -27.7241 -27.6951 -27.6949 -14.4205
   -14.4192 -14.4165 -14.4154 -14.4101 -14.4092 -14.4084 -14.4082 -14.4077
   -14.4066  -4.0809  -3.5213  -2.2081  -0.4059   0.1023   5.5702   5.9320
     6.2933   6.4211   7.0952   7.2432   7.7213   7.8026   8.2401   9.7769
     9.9736  10.0702  10.8136  10.9689  11.6444  13.1953  13.8540  14.8450
    14.9031  15.5069  15.8711  16.1278  16.1388  16.7561  16.7946  17.2469
    17.4502  18.2128  18.6476  18.7618  19.4090  19.6882

     occupation numbers 
     1.0000   1.0000   1.0000   1.0000   1.0000   1.0000   1.0000   1.0000
     1.0000   1.0000   1.0000   1.0000   1.0000   1.0000   1.0000   1.0000
     1.0000   1.0000   1.0000   1.0000   1.0000   1.0000   1.0000   1.0000
     1.0000   1.0000   1.0000   1.0000   1.0000   1.0000   1.0000   1.0000
     1.0000   1.0000   1.0000   1.0000   1.0000   1.0000   1.0000  -0.0000
    -0.0000  -0.0000  -0.0000  -0.0000  -0.0000  -0.0000  -0.0000  -0.0000
    -0.0000  -0.0000  -0.0000  -0.0000  -0.0000  -0.0000  -0.0000  -0.0000
    -0.0000  -0.0000  -0.0000  -0.0000  -0.0000  -0.0000

          k =-0.1675-0.0359 0.9123 ( 11916 PWs)   bands (ev):

   -27.8889 -27.8885 -27.8881 -27.8874 -27.8833 -27.8831 -27.8813 -27.8802
   -27.8791 -27.8786 -27.7313 -27.7243 -27.7241 -27.6951 -27.6945 -14.4242
   -14.4225 -14.4128 -14.4124 -14.4110 -14.4108 -14.4074 -14.4060 -14.4055
   -14.4044  -3.4449  -2.9657  -1.9710  -0.9900  -0.5700   4.2372   5.3879
     5.7971   5.8286   6.4865   6.6053   7.0809   7.6369   7.6540   9.9729
    10.4198  11.0877  11.3108  11.4850  12.2308  12.3422  14.5618  14.9684
    15.5935  16.2110  16.6111  17.0546  17.6418  17.6823  17.7078  18.5061
    18.5286  18.6362  19.1658  21.1135  21.1651  21.5080

     occupation numbers 
     1.0000   1.0000   1.0000   1.0000   1.0000   1.0000   1.0000   1.0000
     1.0000   1.0000   1.0000   1.0000   1.0000   1.0000   1.0000   1.0000
     1.0000   1.0000   1.0000   1.0000   1.0000   1.0000   1.0000   1.0000
     1.0000   1.0000   1.0000   1.0000   1.0000   1.0000   1.0000   1.0000
     1.0000   1.0000   1.0000   1.0000   1.0000   1.0000   1.0000  -0.0000
    -0.0000  -0.0000  -0.0000  -0.0000  -0.0000  -0.0000  -0.0000  -0.0000
    -0.0000  -0.0000  -0.0000  -0.0000  -0.0000  -0.0000  -0.0000  -0.0000
    -0.0000  -0.0000  -0.0000  -0.0000  -0.0000  -0.0000

          k =-0.1679-0.0360 1.3791 ( 11935 PWs)   bands (ev):

   -27.8889 -27.8884 -27.8881 -27.8871 -27.8834 -27.8832 -27.8815 -27.8802
   -27.8788 -27.8786 -27.7311 -27.7244 -27.7241 -27.6951 -27.6943 -14.4264
   -14.4245 -14.4140 -14.4121 -14.4120 -14.4096 -14.4054 -14.4047 -14.4036
   -14.4024  -2.6676  -2.6405  -2.1050  -1.4433  -1.0347   3.8468   5.3092
     5.3589   5.6543   6.0601   6.1379   6.9413   7.7325   7.9108   9.5850
    10.1131  10.8242  11.4569  12.0698  12.2511  12.7032  13.7392  16.3717
    17.1374  17.3488  17.4991  17.9194  18.1315  18.1730  18.9502  18.9957
    19.0167  19.5185  19.6081  20.1180  20.2264  20.7378

     occupation numbers 
     1.0000   1.0000   1.0000   1.0000   1.0000   1.0000   1.0000   1.0000
     1.0000   1.0000   1.0000   1.0000   1.0000   1.0000   1.0000   1.0000
     1.0000   1.0000   1.0000   1.0000   1.0000   1.0000   1.0000   1.0000
     1.0000   1.0000   1.0000   1.0000   1.0000   1.0000   1.0000   1.0000
     1.0000   1.0000   1.0000   1.0000   1.0000   1.0000   1.0000  -0.0000
    -0.0000  -0.0000  -0.0000  -0.0000  -0.0000  -0.0000  -0.0000  -0.0000
    -0.0000  -0.0000  -0.0000  -0.0000  -0.0000  -0.0000  -0.0000  -0.0000
    -0.0000  -0.0000  -0.0000  -0.0000  -0.0000  -0.0000

          k =-0.1657-0.0355-0.9548 ( 11904 PWs)   bands (ev):

   -27.8889 -27.8885 -27.8882 -27.8874 -27.8833 -27.8831 -27.8813 -27.8802
   -27.8791 -27.8786 -27.7313 -27.7243 -27.7241 -27.6951 -27.6945 -14.4242
   -14.4225 -14.4128 -14.4124 -14.4110 -14.4108 -14.4074 -14.4060 -14.4055
   -14.4044  -3.3923  -3.0773  -1.7977  -1.1746  -0.5048   4.5314   4.9778
     5.7637   5.9430   6.1218   6.2504   7.8611   7.9175   8.2484   9.4047
     9.9736  10.0696  11.5000  11.8849  12.5008  12.9930  13.7824  15.1413
    16.1792  16.3085  16.7023  16.8141  17.4290  17.7227  18.0322  18.2488
    18.8183  19.1417  19.7813  19.8970  20.2683  20.7031

     occupation numbers 
     1.0000   1.0000   1.0000   1.0000   1.0000   1.0000   1.0000   1.0000
     1.0000   1.0000   1.0000   1.0000   1.0000   1.0000   1.0000   1.0000
     1.0000   1.0000   1.0000   1.0000   1.0000   1.0000   1.0000   1.0000
     1.0000   1.0000   1.0000   1.0000   1.0000   1.0000   1.0000   1.0000
     1.0000   1.0000   1.0000   1.0000   1.0000   1.0000   1.0000  -0.0000
    -0.0000  -0.0000  -0.0000  -0.0000  -0.0000  -0.0000  -0.0000  -0.0000
    -0.0000  -0.0000  -0.0000  -0.0000  -0.0000  -0.0000  -0.0000  -0.0000
    -0.0000  -0.0000  -0.0000  -0.0000  -0.0000  -0.0000

          k =-0.1661-0.0356-0.4880 ( 11906 PWs)   bands (ev):

   -27.8890 -27.8889 -27.8882 -27.8880 -27.8830 -27.8829 -27.8808 -27.8803
   -27.8796 -27.8789 -27.7315 -27.7241 -27.7241 -27.6951 -27.6949 -14.4205
   -14.4192 -14.4165 -14.4154 -14.4101 -14.4092 -14.4085 -14.4082 -14.4077
   -14.4066  -4.0554  -3.5813  -2.1101  -0.6143   0.2576   5.5058   5.8723
     6.4418   6.5138   6.8678   7.2455   7.8167   7.9028   8.1485   9.6813
    10.0634  10.3622  10.7477  10.8779  11.3756  13.1366  14.0901  14.6548
    15.0443  15.1522  15.5428  16.1625  16.5430  17.1923  17.4555  17.5708
    17.7750  17.7806  18.1542  18.8657  19.0083  19.5630

     occupation numbers 
     1.0000   1.0000   1.0000   1.0000   1.0000   1.0000   1.0000   1.0000
     1.0000   1.0000   1.0000   1.0000   1.0000   1.0000   1.0000   1.0000
     1.0000   1.0000   1.0000   1.0000   1.0000   1.0000   1.0000   1.0000
     1.0000   1.0000   1.0000   1.0000   1.0000   1.0000   1.0000   1.0000
     1.0000   1.0000   1.0000   1.0000   1.0000   1.0000   1.0000  -0.0000
    -0.0000  -0.0000  -0.0000  -0.0000  -0.0000  -0.0000  -0.0000  -0.0000
    -0.0000  -0.0000  -0.0000  -0.0000  -0.0000  -0.0000  -0.0000  -0.0000
    -0.0000  -0.0000  -0.0000  -0.0000  -0.0000  -0.0000

          k =-0.1666-0.0357-0.0212 ( 11900 PWs)   bands (ev):

   -27.8891 -27.8891 -27.8883 -27.8883 -27.8828 -27.8828 -27.8804 -27.8804
   -27.8798 -27.8791 -27.7316 -27.7240 -27.7240 -27.6952 -27.6952 -14.4192
   -14.4192 -14.4181 -14.4181 -14.4111 -14.4100 -14.4076 -14.4076 -14.4067
   -14.4067  -4.2959  -3.7526  -2.2924  -0.3861   0.4999   6.4035   6.9139
     7.0400   7.0400   7.2046   7.2046   7.8563   7.8563   8.5235   9.1271
     9.5567   9.5567  10.5682  10.7201  10.7201  13.7219  14.3057  14.6179
    14.6179  15.2493  15.4802  15.4802  16.1793  16.1793  16.2019  16.7244
    17.7207  17.9198  17.9198  18.3580  18.8980  18.8980

     occupation numbers 
     1.0000   1.0000   1.0000   1.0000   1.0000   1.0000   1.0000   1.0000
     1.0000   1.0000   1.0000   1.0000   1.0000   1.0000   1.0000   1.0000
     1.0000   1.0000   1.0000   1.0000   1.0000   1.0000   1.0000   1.0000
     1.0000   1.0000   1.0000   1.0000   1.0000   1.0000   1.0000   1.0000
     1.0000   1.0000   1.0000   1.0000   1.0000   1.0000   1.0038  -0.0036
    -0.0000  -0.0000  -0.0000  -0.0000  -0.0000  -0.0000  -0.0000  -0.0000
    -0.0000  -0.0000  -0.0000  -0.0000  -0.0000  -0.0000  -0.0000  -0.0000
    -0.0000  -0.0000  -0.0000  -0.0000  -0.0000  -0.0000

     the Fermi energy is     8.8242 ev

!    total energy              =    -957.44391099 Ry
     estimated scf accuracy    <          5.0E-09 Ry
     smearing contrib. (-TS)   =       0.00001516 Ry
     internal energy E=F+TS    =    -957.44392615 Ry

     The total energy is F=E-TS. E is the sum of the following terms:
     one-electron contribution =    -413.03329212 Ry
     hartree contribution      =     238.84751201 Ry
     xc contribution           =    -234.32588174 Ry
     ewald contribution        =    -548.93226430 Ry

     convergence has been achieved in  10 iterations

     Writing all to output data dir ./out_nosoc_nc_Bi2Te3/Bi2Te3_nosoc_nc.save/ :
     XML data file, charge density, pseudopotentials, collected wavefunctions

     init_run     :      8.36s CPU      8.89s WALL (       1 calls)
     electrons    :    256.29s CPU    266.85s WALL (       1 calls)

     Called by init_run:
     wfcinit      :      7.65s CPU      8.08s WALL (       1 calls)
     wfcinit:atom :      0.01s CPU      0.01s WALL (       9 calls)
     wfcinit:wfcr :      7.57s CPU      7.82s WALL (       9 calls)
     potinit      :      0.26s CPU      0.35s WALL (       1 calls)
     hinit0       :      0.43s CPU      0.44s WALL (       1 calls)

     Called by electrons:
     c_bands      :    199.49s CPU    207.41s WALL (      11 calls)
     sum_band     :     54.24s CPU     55.67s WALL (      11 calls)
     v_of_rho     :      2.42s CPU      2.78s WALL (      11 calls)
     v_h          :      0.09s CPU      0.15s WALL (      11 calls)
     v_xc         :      2.32s CPU      2.64s WALL (      11 calls)
     mix_rho      :      0.07s CPU      0.10s WALL (      11 calls)

     Called by c_bands:
     init_us_2    :      1.05s CPU      1.08s WALL (     207 calls)
     cegterg      :    183.16s CPU    188.63s WALL (      99 calls)

     Called by sum_band:
     sum_band:wei :      0.01s CPU      0.01s WALL (      11 calls)
     sum_band:loo :     48.29s CPU     49.58s WALL (      11 calls)
     sum_band:buf :      0.02s CPU      0.22s WALL (      99 calls)
     sum_band:ini :      0.42s CPU      0.43s WALL (      99 calls)

     Called by *egterg:
     cdiaghg      :      1.02s CPU      1.03s WALL (     363 calls)
     cegterg:over :      2.03s CPU      2.05s WALL (     273 calls)
     cegterg:upda :      1.21s CPU      1.23s WALL (     273 calls)
     cegterg:last :      1.70s CPU      1.71s WALL (     191 calls)
     h_psi        :    183.39s CPU    188.92s WALL (     381 calls)
     g_psi        :      0.10s CPU      0.10s WALL (     273 calls)

     Called by h_psi:
     h_psi:calbec :      1.94s CPU      1.96s WALL (     381 calls)
     vloc_psi     :    179.95s CPU    185.12s WALL (     381 calls)
                                        0.00s GPU  (     381 calls)
     add_vuspsi   :      1.34s CPU      1.35s WALL (     381 calls)

     General routines
     calbec       :      1.94s CPU      1.96s WALL (     381 calls)
     fft          :      1.17s CPU      1.25s WALL (     111 calls)
     ffts         :      0.09s CPU      0.11s WALL (      11 calls)
     fftw         :    167.28s CPU    172.59s WALL (   34438 calls)
     davcio       :      0.05s CPU      0.91s WALL (     421 calls)

     Parallel routines

     PWSCF        :    265.06s CPU    277.97s WALL


   This run was terminated on:  19:15:11  29Jul2026            

=------------------------------------------------------------------------------=
   JOB DONE.
=------------------------------------------------------------------------------=
