
     Program PWSCF v.7.5 starts on 12Jul2026 at 21:58:48 

     This program is part of the open-source Quantum ESPRESSO suite
     for quantum simulation of materials; please cite
         "P. Giannozzi et al., J. Phys.:Condens. Matter 21 395502 (2009);
         "P. Giannozzi et al., J. Phys.:Condens. Matter 29 465901 (2017);
         "P. Giannozzi et al., J. Chem. Phys. 152 154105 (2020);
          URL http://www.quantum-espresso.org", 
     in publications or presentations arising from this work. More details at
     http://www.quantum-espresso.org/quote

     Parallel version (MPI & OpenMP), running on       8 processor cores
     Number of MPI processes:                 8
     Threads/MPI process:                     1

     MPI processes distributed on     1 nodes
     0 MiB available memory on the printing compute node when the environment starts

     Reading input from BaMg2Bi2.scf.nosoc.nc.in

     Current dimensions of program PWSCF are:
     Max number of different atomic species (ntypx) = 10
     Max number of k-points (npk) =  40000
     Max angular momentum in pseudopotentials (lmaxx) =  4

     K-points division:     npool     =       8
     Subspace diagonalization in iterative solution of the eigenvalue problem:
     a serial algorithm will be used


     G-vector sticks info
     --------------------
     sticks:   dense  smooth     PW     G-vecs:    dense   smooth      PW
     Sum        1663    1663    499                92297    92297   14787

     Using Slab Decomposition



     bravais-lattice index     =            0
     lattice parameter (alat)  =       9.2706  a.u.
     unit-cell volume          =    1166.3793 (a.u.)^3
     number of atoms/cell      =            5
     number of atomic types    =            3
     number of electrons       =        60.00
     number of Kohn-Sham states=           48
     kinetic-energy cutoff     =      70.0000  Ry
     charge density cutoff     =     280.0000  Ry
     scf convergence threshold =      1.0E-08
     mixing beta               =       0.3000
     number of iterations used =            8  plain     mixing
     Exchange-correlation= PBE
                           (   1   4   3   4   0   0   0)

     celldm(1)=   9.270596  celldm(2)=   0.000000  celldm(3)=   0.000000
     celldm(4)=   0.000000  celldm(5)=   0.000000  celldm(6)=   0.000000

     crystal axes: (cart. coord. in units of alat)
               a(1) = (   0.500000  -0.866025   0.000000 )  
               a(2) = (   0.500000   0.866025   0.000000 )  
               a(3) = (   0.000000   0.000000   1.690387 )  

     reciprocal axes: (cart. coord. in units 2 pi/alat)
               b(1) = (  1.000000 -0.577350  0.000000 )  
               b(2) = (  1.000000  0.577350 -0.000000 )  
               b(3) = ( -0.000000  0.000000  0.591580 )  


     PseudoPot. # 1 for Ba read from file:
     ./pseudo_nc/Ba_SR.upf
     MD5 check sum: d1993ebf099ea5c29fdb9ecc5bd2bc91
     Pseudo is Norm-conserving + core correction, Zval = 10.0
     Generated using ONCVPSP code by D. R. Hamann
     Using radial grid of 1958 points,  6 beta functions with: 
                l(1) =   0
                l(2) =   0
                l(3) =   1
                l(4) =   1
                l(5) =   2
                l(6) =   2

     PseudoPot. # 2 for Mg read from file:
     ./pseudo_nc/Mg_SR.upf
     MD5 check sum: 4c04d8c6e0476e83eaecaf72fa8acc4d
     Pseudo is Norm-conserving, Zval = 10.0
     Generated using ONCVPSP code by D. R. Hamann
     Using radial grid of 1510 points,  4 beta functions with: 
                l(1) =   0
                l(2) =   0
                l(3) =   1
                l(4) =   1

     PseudoPot. # 3 for Bi read from file:
     ./pseudo_nc/Bi_SR.upf
     MD5 check sum: 200c63f77f1a5690b65e64056759e8a3
     Pseudo is Norm-conserving + core correction, Zval = 15.0
     Generated using ONCVPSP code by D. R. Hamann
     Using radial grid of 1490 points,  6 beta functions with: 
                l(1) =   0
                l(2) =   0
                l(3) =   1
                l(4) =   1
                l(5) =   2
                l(6) =   2

     atomic species   valence    mass     pseudopotential
     Ba               10.00   137.32700     Ba( 1.00)
     Mg               10.00    24.30500     Mg( 1.00)
     Bi               15.00   208.98000     Bi( 1.00)

     No symmetry found


                                    s                        frac. trans.

      isym =  1     identity                                     

 cryst.   s( 1) = (     1          0          0      )
                  (     0          1          0      )
                  (     0          0          1      )

 cart.    s( 1) = (  1.0000000  0.0000000  0.0000000 )
                  (  0.0000000  1.0000000  0.0000000 )
                  (  0.0000000  0.0000000  1.0000000 )


   Cartesian axes

     site n.     atom                  positions (alat units)
         1        Ba     tau(   1) = (   0.0000000   0.0000000   0.0000000  )
         2        Mg     tau(   2) = (   0.5000000  -0.2886757   0.6363463  )
         3        Mg     tau(   3) = (   0.5000000   0.2886757   1.0540410  )
         4        Bi     tau(   4) = (   0.5000000   0.2886757   0.4449133  )
         5        Bi     tau(   5) = (   0.5000000  -0.2886757   1.2454740  )

   Crystallographic axes

     site n.     atom                  positions (cryst. coord.)
         1        Ba     tau(   1) = (  0.0000000  0.0000000  0.0000000  )
         2        Mg     tau(   2) = (  0.6666670  0.3333330  0.3764500  )
         3        Mg     tau(   3) = (  0.3333330  0.6666670  0.6235500  )
         4        Bi     tau(   4) = (  0.3333330  0.6666670  0.2632020  )
         5        Bi     tau(   5) = (  0.6666670  0.3333330  0.7367980  )

     number of k points=   144  Methfessel-Paxton smearing, width (Ry)=  0.0100
                       cart. coord. in units 2pi/alat
        k(    1) = (   0.0000000   0.0000000   0.0000000), wk =   0.0138889
        k(    2) = (   0.0000000   0.0000000   0.1478951), wk =   0.0138889
        k(    3) = (   0.0000000   0.0000000  -0.2957902), wk =   0.0138889
        k(    4) = (   0.0000000   0.0000000  -0.1478951), wk =   0.0138889
        k(    5) = (   0.1666667   0.0962250   0.0000000), wk =   0.0138889
        k(    6) = (   0.1666667   0.0962250   0.1478951), wk =   0.0138889
        k(    7) = (   0.1666667   0.0962250  -0.2957902), wk =   0.0138889
        k(    8) = (   0.1666667   0.0962250  -0.1478951), wk =   0.0138889
        k(    9) = (   0.3333333   0.1924501   0.0000000), wk =   0.0138889
        k(   10) = (   0.3333333   0.1924501   0.1478951), wk =   0.0138889
        k(   11) = (   0.3333333   0.1924501  -0.2957902), wk =   0.0138889
        k(   12) = (   0.3333333   0.1924501  -0.1478951), wk =   0.0138889
        k(   13) = (  -0.5000000  -0.2886751   0.0000000), wk =   0.0138889
        k(   14) = (  -0.5000000  -0.2886751   0.1478951), wk =   0.0138889
        k(   15) = (  -0.5000000  -0.2886751  -0.2957902), wk =   0.0138889
        k(   16) = (  -0.5000000  -0.2886751  -0.1478951), wk =   0.0138889
        k(   17) = (  -0.3333333  -0.1924501   0.0000000), wk =   0.0138889
        k(   18) = (  -0.3333333  -0.1924501   0.1478951), wk =   0.0138889
        k(   19) = (  -0.3333333  -0.1924501  -0.2957902), wk =   0.0138889
        k(   20) = (  -0.3333333  -0.1924501  -0.1478951), wk =   0.0138889
        k(   21) = (  -0.1666667  -0.0962250   0.0000000), wk =   0.0138889
        k(   22) = (  -0.1666667  -0.0962250   0.1478951), wk =   0.0138889
        k(   23) = (  -0.1666667  -0.0962250  -0.2957902), wk =   0.0138889
        k(   24) = (  -0.1666667  -0.0962250  -0.1478951), wk =   0.0138889
        k(   25) = (   0.1666667  -0.0962250   0.0000000), wk =   0.0138889
        k(   26) = (   0.1666667  -0.0962250   0.1478951), wk =   0.0138889
        k(   27) = (   0.1666667  -0.0962250  -0.2957902), wk =   0.0138889
        k(   28) = (   0.1666667  -0.0962250  -0.1478951), wk =   0.0138889
        k(   29) = (   0.3333333   0.0000000   0.0000000), wk =   0.0138889
        k(   30) = (   0.3333333   0.0000000   0.1478951), wk =   0.0138889
        k(   31) = (   0.3333333   0.0000000  -0.2957902), wk =   0.0138889
        k(   32) = (   0.3333333   0.0000000  -0.1478951), wk =   0.0138889
        k(   33) = (   0.5000000   0.0962250   0.0000000), wk =   0.0138889
        k(   34) = (   0.5000000   0.0962250   0.1478951), wk =   0.0138889
        k(   35) = (   0.5000000   0.0962250  -0.2957902), wk =   0.0138889
        k(   36) = (   0.5000000   0.0962250  -0.1478951), wk =   0.0138889
        k(   37) = (  -0.3333333  -0.3849002   0.0000000), wk =   0.0138889
        k(   38) = (  -0.3333333  -0.3849002   0.1478951), wk =   0.0138889
        k(   39) = (  -0.3333333  -0.3849002  -0.2957902), wk =   0.0138889
        k(   40) = (  -0.3333333  -0.3849002  -0.1478951), wk =   0.0138889
        k(   41) = (  -0.1666667  -0.2886751   0.0000000), wk =   0.0138889
        k(   42) = (  -0.1666667  -0.2886751   0.1478951), wk =   0.0138889
        k(   43) = (  -0.1666667  -0.2886751  -0.2957902), wk =   0.0138889
        k(   44) = (  -0.1666667  -0.2886751  -0.1478951), wk =   0.0138889
        k(   45) = (   0.0000000  -0.1924501   0.0000000), wk =   0.0138889
        k(   46) = (   0.0000000  -0.1924501   0.1478951), wk =   0.0138889
        k(   47) = (   0.0000000  -0.1924501  -0.2957902), wk =   0.0138889
        k(   48) = (   0.0000000  -0.1924501  -0.1478951), wk =   0.0138889
        k(   49) = (   0.3333333  -0.1924501   0.0000000), wk =   0.0138889
        k(   50) = (   0.3333333  -0.1924501   0.1478951), wk =   0.0138889
        k(   51) = (   0.3333333  -0.1924501  -0.2957902), wk =   0.0138889
        k(   52) = (   0.3333333  -0.1924501  -0.1478951), wk =   0.0138889
        k(   53) = (   0.5000000  -0.0962250   0.0000000), wk =   0.0138889
        k(   54) = (   0.5000000  -0.0962250   0.1478951), wk =   0.0138889
        k(   55) = (   0.5000000  -0.0962250  -0.2957902), wk =   0.0138889
        k(   56) = (   0.5000000  -0.0962250  -0.1478951), wk =   0.0138889
        k(   57) = (   0.6666667   0.0000000   0.0000000), wk =   0.0138889
        k(   58) = (   0.6666667   0.0000000   0.1478951), wk =   0.0138889
        k(   59) = (   0.6666667   0.0000000  -0.2957902), wk =   0.0138889
        k(   60) = (   0.6666667   0.0000000  -0.1478951), wk =   0.0138889
        k(   61) = (  -0.1666667  -0.4811252   0.0000000), wk =   0.0138889
        k(   62) = (  -0.1666667  -0.4811252   0.1478951), wk =   0.0138889
        k(   63) = (  -0.1666667  -0.4811252  -0.2957902), wk =   0.0138889
        k(   64) = (  -0.1666667  -0.4811252  -0.1478951), wk =   0.0138889
        k(   65) = (  -0.0000000  -0.3849002   0.0000000), wk =   0.0138889
        k(   66) = (  -0.0000000  -0.3849002   0.1478951), wk =   0.0138889
        k(   67) = (  -0.0000000  -0.3849002  -0.2957902), wk =   0.0138889
        k(   68) = (  -0.0000000  -0.3849002  -0.1478951), wk =   0.0138889
        k(   69) = (   0.1666667  -0.2886751   0.0000000), wk =   0.0138889
        k(   70) = (   0.1666667  -0.2886751   0.1478951), wk =   0.0138889
        k(   71) = (   0.1666667  -0.2886751  -0.2957902), wk =   0.0138889
        k(   72) = (   0.1666667  -0.2886751  -0.1478951), wk =   0.0138889
        k(   73) = (  -0.5000000   0.2886751   0.0000000), wk =   0.0138889
        k(   74) = (  -0.5000000   0.2886751   0.1478951), wk =   0.0138889
        k(   75) = (  -0.5000000   0.2886751  -0.2957902), wk =   0.0138889
        k(   76) = (  -0.5000000   0.2886751  -0.1478951), wk =   0.0138889
        k(   77) = (  -0.3333333   0.3849002   0.0000000), wk =   0.0138889
        k(   78) = (  -0.3333333   0.3849002   0.1478951), wk =   0.0138889
        k(   79) = (  -0.3333333   0.3849002  -0.2957902), wk =   0.0138889
        k(   80) = (  -0.3333333   0.3849002  -0.1478951), wk =   0.0138889
        k(   81) = (  -0.1666667   0.4811252   0.0000000), wk =   0.0138889
        k(   82) = (  -0.1666667   0.4811252   0.1478951), wk =   0.0138889
        k(   83) = (  -0.1666667   0.4811252  -0.2957902), wk =   0.0138889
        k(   84) = (  -0.1666667   0.4811252  -0.1478951), wk =   0.0138889
        k(   85) = (  -1.0000000   0.0000000   0.0000000), wk =   0.0138889
        k(   86) = (  -1.0000000   0.0000000   0.1478951), wk =   0.0138889
        k(   87) = (  -1.0000000   0.0000000  -0.2957902), wk =   0.0138889
        k(   88) = (  -1.0000000   0.0000000  -0.1478951), wk =   0.0138889
        k(   89) = (  -0.8333333   0.0962250   0.0000000), wk =   0.0138889
        k(   90) = (  -0.8333333   0.0962250   0.1478951), wk =   0.0138889
        k(   91) = (  -0.8333333   0.0962250  -0.2957902), wk =   0.0138889
        k(   92) = (  -0.8333333   0.0962250  -0.1478951), wk =   0.0138889
        k(   93) = (  -0.6666667   0.1924501   0.0000000), wk =   0.0138889
        k(   94) = (  -0.6666667   0.1924501   0.1478951), wk =   0.0138889
        k(   95) = (  -0.6666667   0.1924501  -0.2957902), wk =   0.0138889
        k(   96) = (  -0.6666667   0.1924501  -0.1478951), wk =   0.0138889
        k(   97) = (  -0.3333333   0.1924501   0.0000000), wk =   0.0138889
        k(   98) = (  -0.3333333   0.1924501   0.1478951), wk =   0.0138889
        k(   99) = (  -0.3333333   0.1924501  -0.2957902), wk =   0.0138889
        k(  100) = (  -0.3333333   0.1924501  -0.1478951), wk =   0.0138889
        k(  101) = (  -0.1666667   0.2886751   0.0000000), wk =   0.0138889
        k(  102) = (  -0.1666667   0.2886751   0.1478951), wk =   0.0138889
        k(  103) = (  -0.1666667   0.2886751  -0.2957902), wk =   0.0138889
        k(  104) = (  -0.1666667   0.2886751  -0.1478951), wk =   0.0138889
        k(  105) = (  -0.0000000   0.3849002   0.0000000), wk =   0.0138889
        k(  106) = (  -0.0000000   0.3849002   0.1478951), wk =   0.0138889
        k(  107) = (  -0.0000000   0.3849002  -0.2957902), wk =   0.0138889
        k(  108) = (  -0.0000000   0.3849002  -0.1478951), wk =   0.0138889
        k(  109) = (  -0.8333333  -0.0962250   0.0000000), wk =   0.0138889
        k(  110) = (  -0.8333333  -0.0962250   0.1478951), wk =   0.0138889
        k(  111) = (  -0.8333333  -0.0962250  -0.2957902), wk =   0.0138889
        k(  112) = (  -0.8333333  -0.0962250  -0.1478951), wk =   0.0138889
        k(  113) = (  -0.6666667   0.0000000   0.0000000), wk =   0.0138889
        k(  114) = (  -0.6666667   0.0000000   0.1478951), wk =   0.0138889
        k(  115) = (  -0.6666667   0.0000000  -0.2957902), wk =   0.0138889
        k(  116) = (  -0.6666667   0.0000000  -0.1478951), wk =   0.0138889
        k(  117) = (  -0.5000000   0.0962250   0.0000000), wk =   0.0138889
        k(  118) = (  -0.5000000   0.0962250   0.1478951), wk =   0.0138889
        k(  119) = (  -0.5000000   0.0962250  -0.2957902), wk =   0.0138889
        k(  120) = (  -0.5000000   0.0962250  -0.1478951), wk =   0.0138889
        k(  121) = (  -0.1666667   0.0962250   0.0000000), wk =   0.0138889
        k(  122) = (  -0.1666667   0.0962250   0.1478951), wk =   0.0138889
        k(  123) = (  -0.1666667   0.0962250  -0.2957902), wk =   0.0138889
        k(  124) = (  -0.1666667   0.0962250  -0.1478951), wk =   0.0138889
        k(  125) = (   0.0000000   0.1924501   0.0000000), wk =   0.0138889
        k(  126) = (   0.0000000   0.1924501   0.1478951), wk =   0.0138889
        k(  127) = (   0.0000000   0.1924501  -0.2957902), wk =   0.0138889
        k(  128) = (   0.0000000   0.1924501  -0.1478951), wk =   0.0138889
        k(  129) = (   0.1666667   0.2886751   0.0000000), wk =   0.0138889
        k(  130) = (   0.1666667   0.2886751   0.1478951), wk =   0.0138889
        k(  131) = (   0.1666667   0.2886751  -0.2957902), wk =   0.0138889
        k(  132) = (   0.1666667   0.2886751  -0.1478951), wk =   0.0138889
        k(  133) = (  -0.6666667  -0.1924501   0.0000000), wk =   0.0138889
        k(  134) = (  -0.6666667  -0.1924501   0.1478951), wk =   0.0138889
        k(  135) = (  -0.6666667  -0.1924501  -0.2957902), wk =   0.0138889
        k(  136) = (  -0.6666667  -0.1924501  -0.1478951), wk =   0.0138889
        k(  137) = (  -0.5000000  -0.0962250   0.0000000), wk =   0.0138889
        k(  138) = (  -0.5000000  -0.0962250   0.1478951), wk =   0.0138889
        k(  139) = (  -0.5000000  -0.0962250  -0.2957902), wk =   0.0138889
        k(  140) = (  -0.5000000  -0.0962250  -0.1478951), wk =   0.0138889
        k(  141) = (  -0.3333333   0.0000000   0.0000000), wk =   0.0138889
        k(  142) = (  -0.3333333   0.0000000   0.1478951), wk =   0.0138889
        k(  143) = (  -0.3333333   0.0000000  -0.2957902), wk =   0.0138889
        k(  144) = (  -0.3333333   0.0000000  -0.1478951), wk =   0.0138889

                       cryst. coord.
        k(    1) = (   0.0000000   0.0000000   0.0000000), wk =   0.0138889
        k(    2) = (   0.0000000   0.0000000   0.2500000), wk =   0.0138889
        k(    3) = (   0.0000000   0.0000000  -0.5000000), wk =   0.0138889
        k(    4) = (   0.0000000   0.0000000  -0.2500000), wk =   0.0138889
        k(    5) = (  -0.0000000   0.1666667   0.0000000), wk =   0.0138889
        k(    6) = (  -0.0000000   0.1666667   0.2500000), wk =   0.0138889
        k(    7) = (  -0.0000000   0.1666667  -0.5000000), wk =   0.0138889
        k(    8) = (  -0.0000000   0.1666667  -0.2500000), wk =   0.0138889
        k(    9) = (  -0.0000000   0.3333333   0.0000000), wk =   0.0138889
        k(   10) = (  -0.0000000   0.3333333   0.2500000), wk =   0.0138889
        k(   11) = (  -0.0000000   0.3333333  -0.5000000), wk =   0.0138889
        k(   12) = (  -0.0000000   0.3333333  -0.2500000), wk =   0.0138889
        k(   13) = (   0.0000000  -0.5000000   0.0000000), wk =   0.0138889
        k(   14) = (   0.0000000  -0.5000000   0.2500000), wk =   0.0138889
        k(   15) = (   0.0000000  -0.5000000  -0.5000000), wk =   0.0138889
        k(   16) = (   0.0000000  -0.5000000  -0.2500000), wk =   0.0138889
        k(   17) = (   0.0000000  -0.3333333   0.0000000), wk =   0.0138889
        k(   18) = (   0.0000000  -0.3333333   0.2500000), wk =   0.0138889
        k(   19) = (   0.0000000  -0.3333333  -0.5000000), wk =   0.0138889
        k(   20) = (   0.0000000  -0.3333333  -0.2500000), wk =   0.0138889
        k(   21) = (   0.0000000  -0.1666667   0.0000000), wk =   0.0138889
        k(   22) = (   0.0000000  -0.1666667   0.2500000), wk =   0.0138889
        k(   23) = (   0.0000000  -0.1666667  -0.5000000), wk =   0.0138889
        k(   24) = (   0.0000000  -0.1666667  -0.2500000), wk =   0.0138889
        k(   25) = (   0.1666667  -0.0000000   0.0000000), wk =   0.0138889
        k(   26) = (   0.1666667  -0.0000000   0.2500000), wk =   0.0138889
        k(   27) = (   0.1666667  -0.0000000  -0.5000000), wk =   0.0138889
        k(   28) = (   0.1666667  -0.0000000  -0.2500000), wk =   0.0138889
        k(   29) = (   0.1666667   0.1666667   0.0000000), wk =   0.0138889
        k(   30) = (   0.1666667   0.1666667   0.2500000), wk =   0.0138889
        k(   31) = (   0.1666667   0.1666667  -0.5000000), wk =   0.0138889
        k(   32) = (   0.1666667   0.1666667  -0.2500000), wk =   0.0138889
        k(   33) = (   0.1666667   0.3333333   0.0000000), wk =   0.0138889
        k(   34) = (   0.1666667   0.3333333   0.2500000), wk =   0.0138889
        k(   35) = (   0.1666667   0.3333333  -0.5000000), wk =   0.0138889
        k(   36) = (   0.1666667   0.3333333  -0.2500000), wk =   0.0138889
        k(   37) = (   0.1666667  -0.5000000   0.0000000), wk =   0.0138889
        k(   38) = (   0.1666667  -0.5000000   0.2500000), wk =   0.0138889
        k(   39) = (   0.1666667  -0.5000000  -0.5000000), wk =   0.0138889
        k(   40) = (   0.1666667  -0.5000000  -0.2500000), wk =   0.0138889
        k(   41) = (   0.1666667  -0.3333333   0.0000000), wk =   0.0138889
        k(   42) = (   0.1666667  -0.3333333   0.2500000), wk =   0.0138889
        k(   43) = (   0.1666667  -0.3333333  -0.5000000), wk =   0.0138889
        k(   44) = (   0.1666667  -0.3333333  -0.2500000), wk =   0.0138889
        k(   45) = (   0.1666667  -0.1666667   0.0000000), wk =   0.0138889
        k(   46) = (   0.1666667  -0.1666667   0.2500000), wk =   0.0138889
        k(   47) = (   0.1666667  -0.1666667  -0.5000000), wk =   0.0138889
        k(   48) = (   0.1666667  -0.1666667  -0.2500000), wk =   0.0138889
        k(   49) = (   0.3333333  -0.0000000   0.0000000), wk =   0.0138889
        k(   50) = (   0.3333333  -0.0000000   0.2500000), wk =   0.0138889
        k(   51) = (   0.3333333  -0.0000000  -0.5000000), wk =   0.0138889
        k(   52) = (   0.3333333  -0.0000000  -0.2500000), wk =   0.0138889
        k(   53) = (   0.3333333   0.1666667   0.0000000), wk =   0.0138889
        k(   54) = (   0.3333333   0.1666667   0.2500000), wk =   0.0138889
        k(   55) = (   0.3333333   0.1666667  -0.5000000), wk =   0.0138889
        k(   56) = (   0.3333333   0.1666667  -0.2500000), wk =   0.0138889
        k(   57) = (   0.3333333   0.3333333   0.0000000), wk =   0.0138889
        k(   58) = (   0.3333333   0.3333333   0.2500000), wk =   0.0138889
        k(   59) = (   0.3333333   0.3333333  -0.5000000), wk =   0.0138889
        k(   60) = (   0.3333333   0.3333333  -0.2500000), wk =   0.0138889
        k(   61) = (   0.3333333  -0.5000000   0.0000000), wk =   0.0138889
        k(   62) = (   0.3333333  -0.5000000   0.2500000), wk =   0.0138889
        k(   63) = (   0.3333333  -0.5000000  -0.5000000), wk =   0.0138889
        k(   64) = (   0.3333333  -0.5000000  -0.2500000), wk =   0.0138889
        k(   65) = (   0.3333333  -0.3333333   0.0000000), wk =   0.0138889
        k(   66) = (   0.3333333  -0.3333333   0.2500000), wk =   0.0138889
        k(   67) = (   0.3333333  -0.3333333  -0.5000000), wk =   0.0138889
        k(   68) = (   0.3333333  -0.3333333  -0.2500000), wk =   0.0138889
        k(   69) = (   0.3333333  -0.1666667   0.0000000), wk =   0.0138889
        k(   70) = (   0.3333333  -0.1666667   0.2500000), wk =   0.0138889
        k(   71) = (   0.3333333  -0.1666667  -0.5000000), wk =   0.0138889
        k(   72) = (   0.3333333  -0.1666667  -0.2500000), wk =   0.0138889
        k(   73) = (  -0.5000000   0.0000000   0.0000000), wk =   0.0138889
        k(   74) = (  -0.5000000   0.0000000   0.2500000), wk =   0.0138889
        k(   75) = (  -0.5000000   0.0000000  -0.5000000), wk =   0.0138889
        k(   76) = (  -0.5000000   0.0000000  -0.2500000), wk =   0.0138889
        k(   77) = (  -0.5000000   0.1666667   0.0000000), wk =   0.0138889
        k(   78) = (  -0.5000000   0.1666667   0.2500000), wk =   0.0138889
        k(   79) = (  -0.5000000   0.1666667  -0.5000000), wk =   0.0138889
        k(   80) = (  -0.5000000   0.1666667  -0.2500000), wk =   0.0138889
        k(   81) = (  -0.5000000   0.3333333   0.0000000), wk =   0.0138889
        k(   82) = (  -0.5000000   0.3333333   0.2500000), wk =   0.0138889
        k(   83) = (  -0.5000000   0.3333333  -0.5000000), wk =   0.0138889
        k(   84) = (  -0.5000000   0.3333333  -0.2500000), wk =   0.0138889
        k(   85) = (  -0.5000000  -0.5000000   0.0000000), wk =   0.0138889
        k(   86) = (  -0.5000000  -0.5000000   0.2500000), wk =   0.0138889
        k(   87) = (  -0.5000000  -0.5000000  -0.5000000), wk =   0.0138889
        k(   88) = (  -0.5000000  -0.5000000  -0.2500000), wk =   0.0138889
        k(   89) = (  -0.5000000  -0.3333333   0.0000000), wk =   0.0138889
        k(   90) = (  -0.5000000  -0.3333333   0.2500000), wk =   0.0138889
        k(   91) = (  -0.5000000  -0.3333333  -0.5000000), wk =   0.0138889
        k(   92) = (  -0.5000000  -0.3333333  -0.2500000), wk =   0.0138889
        k(   93) = (  -0.5000000  -0.1666667   0.0000000), wk =   0.0138889
        k(   94) = (  -0.5000000  -0.1666667   0.2500000), wk =   0.0138889
        k(   95) = (  -0.5000000  -0.1666667  -0.5000000), wk =   0.0138889
        k(   96) = (  -0.5000000  -0.1666667  -0.2500000), wk =   0.0138889
        k(   97) = (  -0.3333333   0.0000000   0.0000000), wk =   0.0138889
        k(   98) = (  -0.3333333   0.0000000   0.2500000), wk =   0.0138889
        k(   99) = (  -0.3333333   0.0000000  -0.5000000), wk =   0.0138889
        k(  100) = (  -0.3333333   0.0000000  -0.2500000), wk =   0.0138889
        k(  101) = (  -0.3333333   0.1666667   0.0000000), wk =   0.0138889
        k(  102) = (  -0.3333333   0.1666667   0.2500000), wk =   0.0138889
        k(  103) = (  -0.3333333   0.1666667  -0.5000000), wk =   0.0138889
        k(  104) = (  -0.3333333   0.1666667  -0.2500000), wk =   0.0138889
        k(  105) = (  -0.3333333   0.3333333   0.0000000), wk =   0.0138889
        k(  106) = (  -0.3333333   0.3333333   0.2500000), wk =   0.0138889
        k(  107) = (  -0.3333333   0.3333333  -0.5000000), wk =   0.0138889
        k(  108) = (  -0.3333333   0.3333333  -0.2500000), wk =   0.0138889
        k(  109) = (  -0.3333333  -0.5000000   0.0000000), wk =   0.0138889
        k(  110) = (  -0.3333333  -0.5000000   0.2500000), wk =   0.0138889
        k(  111) = (  -0.3333333  -0.5000000  -0.5000000), wk =   0.0138889
        k(  112) = (  -0.3333333  -0.5000000  -0.2500000), wk =   0.0138889
        k(  113) = (  -0.3333333  -0.3333333   0.0000000), wk =   0.0138889
        k(  114) = (  -0.3333333  -0.3333333   0.2500000), wk =   0.0138889
        k(  115) = (  -0.3333333  -0.3333333  -0.5000000), wk =   0.0138889
        k(  116) = (  -0.3333333  -0.3333333  -0.2500000), wk =   0.0138889
        k(  117) = (  -0.3333333  -0.1666667   0.0000000), wk =   0.0138889
        k(  118) = (  -0.3333333  -0.1666667   0.2500000), wk =   0.0138889
        k(  119) = (  -0.3333333  -0.1666667  -0.5000000), wk =   0.0138889
        k(  120) = (  -0.3333333  -0.1666667  -0.2500000), wk =   0.0138889
        k(  121) = (  -0.1666667   0.0000000   0.0000000), wk =   0.0138889
        k(  122) = (  -0.1666667   0.0000000   0.2500000), wk =   0.0138889
        k(  123) = (  -0.1666667   0.0000000  -0.5000000), wk =   0.0138889
        k(  124) = (  -0.1666667   0.0000000  -0.2500000), wk =   0.0138889
        k(  125) = (  -0.1666667   0.1666667   0.0000000), wk =   0.0138889
        k(  126) = (  -0.1666667   0.1666667   0.2500000), wk =   0.0138889
        k(  127) = (  -0.1666667   0.1666667  -0.5000000), wk =   0.0138889
        k(  128) = (  -0.1666667   0.1666667  -0.2500000), wk =   0.0138889
        k(  129) = (  -0.1666667   0.3333333   0.0000000), wk =   0.0138889
        k(  130) = (  -0.1666667   0.3333333   0.2500000), wk =   0.0138889
        k(  131) = (  -0.1666667   0.3333333  -0.5000000), wk =   0.0138889
        k(  132) = (  -0.1666667   0.3333333  -0.2500000), wk =   0.0138889
        k(  133) = (  -0.1666667  -0.5000000   0.0000000), wk =   0.0138889
        k(  134) = (  -0.1666667  -0.5000000   0.2500000), wk =   0.0138889
        k(  135) = (  -0.1666667  -0.5000000  -0.5000000), wk =   0.0138889
        k(  136) = (  -0.1666667  -0.5000000  -0.2500000), wk =   0.0138889
        k(  137) = (  -0.1666667  -0.3333333   0.0000000), wk =   0.0138889
        k(  138) = (  -0.1666667  -0.3333333   0.2500000), wk =   0.0138889
        k(  139) = (  -0.1666667  -0.3333333  -0.5000000), wk =   0.0138889
        k(  140) = (  -0.1666667  -0.3333333  -0.2500000), wk =   0.0138889
        k(  141) = (  -0.1666667  -0.1666667   0.0000000), wk =   0.0138889
        k(  142) = (  -0.1666667  -0.1666667   0.2500000), wk =   0.0138889
        k(  143) = (  -0.1666667  -0.1666667  -0.5000000), wk =   0.0138889
        k(  144) = (  -0.1666667  -0.1666667  -0.2500000), wk =   0.0138889

     Dense  grid:    92297 G-vectors     FFT dimensions: (  50,  50,  90)

     Dynamical RAM for                 wfc:       8.45 MB

     Dynamical RAM for     wfc (w. buffer):       8.45 MB

     Dynamical RAM for           str. fact:       4.23 MB

     Dynamical RAM for           local pot:       0.00 MB

     Dynamical RAM for          nlocal pot:      12.32 MB

     Dynamical RAM for                qrad:       4.03 MB

     Dynamical RAM for          rho,v,vnew:       9.37 MB

     Dynamical RAM for               rhoin:       3.12 MB

     Dynamical RAM for           G-vectors:       5.99 MB

     Dynamical RAM for          h,s,v(r/c):       0.42 MB

     Dynamical RAM for          <psi|beta>:       0.05 MB

     Dynamical RAM for                 psi:      16.90 MB

     Dynamical RAM for                hpsi:      16.90 MB

     Dynamical RAM for      wfcinit/wfcrot:      16.95 MB

     Estimated static dynamical RAM per process >      61.73 MB

     Estimated max dynamical RAM per process >      95.99 MB

     Estimated total dynamical RAM >     767.95 MB

     Initial potential from superposition of free atoms

     starting charge      59.9801, renormalised to      60.0000
     Starting wfcs are   33 randomized atomic wfcs +   15 random wfcs

     total cpu time spent up to now is        5.9 secs

     Self-consistent Calculation

     iteration #  1     ecut=    70.00 Ry     beta= 0.30
     Davidson diagonalization with overlap

---- Real-time Memory Report at c_bands before calling an iterative solver
             0 MiB given to the printing process from OS
             0 MiB allocation reported by mallinfo(arena+hblkhd)
             0 MiB available memory on the node where the printing process lives
------------------
     ethr =  1.00E-02,  avg # of iterations =  7.6

     Threshold (ethr) on eigenvalues was too large:
     Diagonalizing with lowered threshold

     Davidson diagonalization with overlap

---- Real-time Memory Report at c_bands before calling an iterative solver
             0 MiB given to the printing process from OS
             0 MiB allocation reported by mallinfo(arena+hblkhd)
             0 MiB available memory on the node where the printing process lives
------------------
     ethr =  2.74E-04,  avg # of iterations =  2.4

     total cpu time spent up to now is       36.6 secs

     total energy              =    -622.17804178 Ry
     estimated scf accuracy    <       0.16393114 Ry

     iteration #  2     ecut=    70.00 Ry     beta= 0.30
     Davidson diagonalization with overlap

---- Real-time Memory Report at c_bands before calling an iterative solver
             0 MiB given to the printing process from OS
             0 MiB allocation reported by mallinfo(arena+hblkhd)
             0 MiB available memory on the node where the printing process lives
------------------
     ethr =  2.73E-04,  avg # of iterations =  2.3

     total cpu time spent up to now is       49.0 secs

     total energy              =    -622.19188429 Ry
     estimated scf accuracy    <       0.04257725 Ry

     iteration #  3     ecut=    70.00 Ry     beta= 0.30
     Davidson diagonalization with overlap

---- Real-time Memory Report at c_bands before calling an iterative solver
             0 MiB given to the printing process from OS
             0 MiB allocation reported by mallinfo(arena+hblkhd)
             0 MiB available memory on the node where the printing process lives
------------------
     ethr =  7.10E-05,  avg # of iterations =  2.1

     total cpu time spent up to now is       60.8 secs

     total energy              =    -622.19309776 Ry
     estimated scf accuracy    <       0.01258872 Ry

     iteration #  4     ecut=    70.00 Ry     beta= 0.30
     Davidson diagonalization with overlap

---- Real-time Memory Report at c_bands before calling an iterative solver
             0 MiB given to the printing process from OS
             0 MiB allocation reported by mallinfo(arena+hblkhd)
             0 MiB available memory on the node where the printing process lives
------------------
     ethr =  2.10E-05,  avg # of iterations =  4.2

     total cpu time spent up to now is       74.1 secs

     total energy              =    -622.19441572 Ry
     estimated scf accuracy    <       0.00115592 Ry

     iteration #  5     ecut=    70.00 Ry     beta= 0.30
     Davidson diagonalization with overlap

---- Real-time Memory Report at c_bands before calling an iterative solver
             0 MiB given to the printing process from OS
             0 MiB allocation reported by mallinfo(arena+hblkhd)
             0 MiB available memory on the node where the printing process lives
------------------
     ethr =  1.93E-06,  avg # of iterations =  7.1

     total cpu time spent up to now is       87.8 secs

     total energy              =    -622.19451606 Ry
     estimated scf accuracy    <       0.00013489 Ry

     iteration #  6     ecut=    70.00 Ry     beta= 0.30
     Davidson diagonalization with overlap

---- Real-time Memory Report at c_bands before calling an iterative solver
             0 MiB given to the printing process from OS
             0 MiB allocation reported by mallinfo(arena+hblkhd)
             0 MiB available memory on the node where the printing process lives
------------------
     ethr =  2.25E-07,  avg # of iterations =  2.0

     total cpu time spent up to now is       99.2 secs

     total energy              =    -622.19452391 Ry
     estimated scf accuracy    <       0.00000620 Ry

     iteration #  7     ecut=    70.00 Ry     beta= 0.30
     Davidson diagonalization with overlap

---- Real-time Memory Report at c_bands before calling an iterative solver
             0 MiB given to the printing process from OS
             0 MiB allocation reported by mallinfo(arena+hblkhd)
             0 MiB available memory on the node where the printing process lives
------------------
     ethr =  1.03E-08,  avg # of iterations =  2.0

     total cpu time spent up to now is      111.6 secs

     total energy              =    -622.19452517 Ry
     estimated scf accuracy    <       0.00000085 Ry

     iteration #  8     ecut=    70.00 Ry     beta= 0.30
     Davidson diagonalization with overlap

---- Real-time Memory Report at c_bands before calling an iterative solver
             0 MiB given to the printing process from OS
             0 MiB allocation reported by mallinfo(arena+hblkhd)
             0 MiB available memory on the node where the printing process lives
------------------
     ethr =  1.42E-09,  avg # of iterations =  2.0

     total cpu time spent up to now is      123.9 secs

     total energy              =    -622.19452534 Ry
     estimated scf accuracy    <       0.00000012 Ry

     iteration #  9     ecut=    70.00 Ry     beta= 0.30
     Davidson diagonalization with overlap

---- Real-time Memory Report at c_bands before calling an iterative solver
             0 MiB given to the printing process from OS
             0 MiB allocation reported by mallinfo(arena+hblkhd)
             0 MiB available memory on the node where the printing process lives
------------------
     ethr =  1.97E-10,  avg # of iterations =  2.0

     total cpu time spent up to now is      136.0 secs

     End of self-consistent calculation

          k = 0.0000 0.0000 0.0000 ( 11573 PWs)   bands (ev):

   -69.0161 -69.0157 -35.7615 -35.7615 -35.7611 -35.7593 -35.7593 -35.7592
   -20.8498 -14.5724 -14.5724 -14.5714 -14.5714 -14.5619 -14.5613 -14.5426
   -14.5426 -14.5418 -14.5418  -6.2050  -5.9895  -5.9895  -3.3329  -2.6423
     3.6244   6.2195   6.2195   7.1767   7.2377   7.2377   7.6927   8.1410
     9.1604   9.7143   9.7143  10.0941  10.0941  11.0500  11.0500  12.3487
    12.5099  13.9304  13.9304  14.5961  14.6222  15.3913  15.3913  15.4481

     occupation numbers 
     1.0000   1.0000   1.0000   1.0000   1.0000   1.0000   1.0000   1.0000
     1.0000   1.0000   1.0000   1.0000   1.0000   1.0000   1.0000   1.0000
     1.0000   1.0000   1.0000   1.0000   1.0000   1.0000   1.0000   1.0000
     1.0000   1.0000   1.0000   1.0027   1.0126   1.0126  -0.0279  -0.0000
    -0.0000  -0.0000  -0.0000  -0.0000  -0.0000  -0.0000  -0.0000  -0.0000
    -0.0000  -0.0000  -0.0000  -0.0000  -0.0000  -0.0000  -0.0000  -0.0000

          k = 0.0000 0.0000 0.1479 ( 11574 PWs)   bands (ev):

   -69.0161 -69.0157 -35.7615 -35.7615 -35.7612 -35.7593 -35.7593 -35.7590
   -20.8498 -14.5731 -14.5731 -14.5707 -14.5707 -14.5618 -14.5614 -14.5426
   -14.5426 -14.5418 -14.5418  -6.2089  -5.9895  -5.9895  -3.2390  -2.7524
     3.8700   6.0980   6.3220   6.3220   7.0276   7.0276   8.1158   8.6264
     9.5758   9.6229   9.6229  10.4648  10.4648  11.3881  11.3881  11.7336
    13.0169  13.0169  13.0456  13.4735  14.3595  14.3595  14.3833  16.2533

     occupation numbers 
     1.0000   1.0000   1.0000   1.0000   1.0000   1.0000   1.0000   1.0000
     1.0000   1.0000   1.0000   1.0000   1.0000   1.0000   1.0000   1.0000
     1.0000   1.0000   1.0000   1.0000   1.0000   1.0000   1.0000   1.0000
     1.0000   1.0000   1.0000   1.0000   1.0000   1.0000  -0.0000  -0.0000
    -0.0000  -0.0000  -0.0000  -0.0000  -0.0000  -0.0000  -0.0000  -0.0000
    -0.0000  -0.0000  -0.0000  -0.0000  -0.0000  -0.0000  -0.0000  -0.0000

          k = 0.0000 0.0000-0.2958 ( 11550 PWs)   bands (ev):

   -69.0161 -69.0157 -35.7612 -35.7612 -35.7608 -35.7593 -35.7593 -35.7589
   -20.8498 -14.5735 -14.5735 -14.5702 -14.5702 -14.5617 -14.5615 -14.5426
   -14.5426 -14.5418 -14.5418  -6.2128  -5.9895  -5.9895  -3.0155  -2.9917
     4.2665   5.3501   6.5412   6.5412   6.7152   6.7152   8.0983   8.9217
     9.5380   9.5380  10.4112  11.1542  11.1542  11.5681  11.5681  11.6180
    12.0508  12.3323  12.3323  13.1950  13.6018  13.6018  14.9354  16.0509

     occupation numbers 
     1.0000   1.0000   1.0000   1.0000   1.0000   1.0000   1.0000   1.0000
     1.0000   1.0000   1.0000   1.0000   1.0000   1.0000   1.0000   1.0000
     1.0000   1.0000   1.0000   1.0000   1.0000   1.0000   1.0000   1.0000
     1.0000   1.0000   1.0000   1.0000   1.0000   1.0000  -0.0000  -0.0000
    -0.0000  -0.0000  -0.0000  -0.0000  -0.0000  -0.0000  -0.0000  -0.0000
    -0.0000  -0.0000  -0.0000  -0.0000  -0.0000  -0.0000  -0.0000  -0.0000

          k = 0.0000 0.0000-0.1479 ( 11574 PWs)   bands (ev):

   -69.0161 -69.0157 -35.7615 -35.7615 -35.7612 -35.7593 -35.7593 -35.7590
   -20.8498 -14.5731 -14.5731 -14.5707 -14.5707 -14.5618 -14.5614 -14.5426
   -14.5426 -14.5418 -14.5418  -6.2089  -5.9895  -5.9895  -3.2390  -2.7524
     3.8700   6.0980   6.3220   6.3220   7.0276   7.0276   8.1158   8.6264
     9.5758   9.6229   9.6229  10.4648  10.4648  11.3881  11.3881  11.7336
    13.0169  13.0169  13.0456  13.4735  14.3595  14.3595  14.3833  16.2533

     occupation numbers 
     1.0000   1.0000   1.0000   1.0000   1.0000   1.0000   1.0000   1.0000
     1.0000   1.0000   1.0000   1.0000   1.0000   1.0000   1.0000   1.0000
     1.0000   1.0000   1.0000   1.0000   1.0000   1.0000   1.0000   1.0000
     1.0000   1.0000   1.0000   1.0000   1.0000   1.0000  -0.0000  -0.0000
    -0.0000  -0.0000  -0.0000  -0.0000  -0.0000  -0.0000  -0.0000  -0.0000
    -0.0000  -0.0000  -0.0000  -0.0000  -0.0000  -0.0000  -0.0000  -0.0000

          k = 0.1667 0.0962 0.0000 ( 11541 PWs)   bands (ev):

   -69.0161 -69.0158 -35.7614 -35.7612 -35.7612 -35.7591 -35.7588 -35.7587
   -20.8477 -14.5730 -14.5723 -14.5709 -14.5704 -14.5613 -14.5607 -14.5429
   -14.5424 -14.5419 -14.5412  -6.1738  -6.0584  -6.0002  -3.1974  -2.6548
     3.8256   5.3791   5.8077   6.1360   6.8041   6.8747   8.6349   8.7449
     9.5976   9.9482   9.9983  10.4240  10.6372  11.2016  11.8288  12.3402
    13.1083  13.2806  13.4343  13.6147  14.6092  14.8836  15.4967  15.9431

     occupation numbers 
     1.0000   1.0000   1.0000   1.0000   1.0000   1.0000   1.0000   1.0000
     1.0000   1.0000   1.0000   1.0000   1.0000   1.0000   1.0000   1.0000
     1.0000   1.0000   1.0000   1.0000   1.0000   1.0000   1.0000   1.0000
     1.0000   1.0000   1.0000   1.0000   1.0000   1.0000  -0.0000  -0.0000
    -0.0000  -0.0000  -0.0000  -0.0000  -0.0000  -0.0000  -0.0000  -0.0000
    -0.0000  -0.0000  -0.0000  -0.0000  -0.0000  -0.0000  -0.0000  -0.0000

          k = 0.1667 0.0962 0.1479 ( 11537 PWs)   bands (ev):

   -69.0161 -69.0158 -35.7611 -35.7611 -35.7610 -35.7593 -35.7589 -35.7587
   -20.8477 -14.5730 -14.5720 -14.5709 -14.5707 -14.5612 -14.5607 -14.5425
   -14.5424 -14.5423 -14.5411  -6.1767  -6.0580  -6.0002  -3.1338  -2.7247
     3.9258   5.2434   5.8123   6.0772   6.7550   6.9770   8.7406   9.1021
     9.2138  10.0093  10.0180  10.1646  10.8293  11.0989  11.6498  12.3300
    13.0956  13.3790  13.6192  14.0577  14.3911  14.7852  15.4013  15.5283

     occupation numbers 
     1.0000   1.0000   1.0000   1.0000   1.0000   1.0000   1.0000   1.0000
     1.0000   1.0000   1.0000   1.0000   1.0000   1.0000   1.0000   1.0000
     1.0000   1.0000   1.0000   1.0000   1.0000   1.0000   1.0000   1.0000
     1.0000   1.0000   1.0000   1.0000   1.0000   1.0000  -0.0000  -0.0000
    -0.0000  -0.0000  -0.0000  -0.0000  -0.0000  -0.0000  -0.0000  -0.0000
    -0.0000  -0.0000  -0.0000  -0.0000  -0.0000  -0.0000  -0.0000  -0.0000

          k = 0.1667 0.0962-0.2958 ( 11564 PWs)   bands (ev):

   -69.0161 -69.0158 -35.7615 -35.7613 -35.7613 -35.7594 -35.7591 -35.7590
   -20.8477 -14.5728 -14.5727 -14.5711 -14.5698 -14.5611 -14.5609 -14.5428
   -14.5422 -14.5419 -14.5414  -6.1798  -6.0574  -6.0002  -2.9868  -2.8818
     4.1236   5.0754   6.0112   6.2125   6.2484   6.7300   8.7343   9.4226
     9.6846  10.0457  10.1069  10.2446  10.7207  11.2523  11.7145  12.0879
    12.7181  12.8060  13.2756  14.0799  14.2671  14.4996  15.9065  16.4681

     occupation numbers 
     1.0000   1.0000   1.0000   1.0000   1.0000   1.0000   1.0000   1.0000
     1.0000   1.0000   1.0000   1.0000   1.0000   1.0000   1.0000   1.0000
     1.0000   1.0000   1.0000   1.0000   1.0000   1.0000   1.0000   1.0000
     1.0000   1.0000   1.0000   1.0000   1.0000   1.0000  -0.0000  -0.0000
    -0.0000  -0.0000  -0.0000  -0.0000  -0.0000  -0.0000  -0.0000  -0.0000
    -0.0000  -0.0000  -0.0000  -0.0000  -0.0000  -0.0000  -0.0000  -0.0000

          k = 0.1667 0.0962-0.1479 ( 11537 PWs)   bands (ev):

   -69.0161 -69.0158 -35.7613 -35.7612 -35.7609 -35.7591 -35.7589 -35.7587
   -20.8477 -14.5729 -14.5728 -14.5711 -14.5697 -14.5611 -14.5608 -14.5430
   -14.5420 -14.5417 -14.5416  -6.1770  -6.0578  -6.0002  -3.1161  -2.7462
     3.9819   5.4179   5.6244   6.3586   6.5453   6.5463   8.5964   9.0105
     9.9055  10.0064  10.1106  10.5163  10.9737  11.5702  11.8319  12.1130
    12.2468  12.4138  12.8468  14.1209  14.7486  15.2827  15.3979  16.1394

     occupation numbers 
     1.0000   1.0000   1.0000   1.0000   1.0000   1.0000   1.0000   1.0000
     1.0000   1.0000   1.0000   1.0000   1.0000   1.0000   1.0000   1.0000
     1.0000   1.0000   1.0000   1.0000   1.0000   1.0000   1.0000   1.0000
     1.0000   1.0000   1.0000   1.0000   1.0000   1.0000  -0.0000  -0.0000
    -0.0000  -0.0000  -0.0000  -0.0000  -0.0000  -0.0000  -0.0000  -0.0000
    -0.0000  -0.0000  -0.0000  -0.0000  -0.0000  -0.0000  -0.0000  -0.0000

          k = 0.3333 0.1925 0.0000 ( 11530 PWs)   bands (ev):

   -69.0160 -69.0158 -35.7617 -35.7615 -35.7610 -35.7590 -35.7588 -35.7585
   -20.8435 -14.5734 -14.5718 -14.5707 -14.5687 -14.5601 -14.5593 -14.5432
   -14.5421 -14.5417 -14.5401  -6.1928  -6.1014  -6.0216  -2.9173  -2.6797
     3.9778   4.2942   5.1918   5.9738   6.1649   6.3716   8.2188   9.3546
    10.2173  10.3691  10.5434  11.2379  11.4134  11.9853  12.2682  12.5187
    12.9492  13.3746  13.5453  14.0036  14.8290  15.0704  15.9748  16.5214

     occupation numbers 
     1.0000   1.0000   1.0000   1.0000   1.0000   1.0000   1.0000   1.0000
     1.0000   1.0000   1.0000   1.0000   1.0000   1.0000   1.0000   1.0000
     1.0000   1.0000   1.0000   1.0000   1.0000   1.0000   1.0000   1.0000
     1.0000   1.0000   1.0000   1.0000   1.0000   1.0000  -0.0000  -0.0000
    -0.0000  -0.0000  -0.0000  -0.0000  -0.0000  -0.0000  -0.0000  -0.0000
    -0.0000  -0.0000  -0.0000  -0.0000  -0.0000  -0.0000  -0.0000  -0.0000

          k = 0.3333 0.1925 0.1479 ( 11525 PWs)   bands (ev):

   -69.0160 -69.0158 -35.7616 -35.7612 -35.7608 -35.7592 -35.7590 -35.7584
   -20.8435 -14.5725 -14.5715 -14.5709 -14.5695 -14.5601 -14.5592 -14.5429
   -14.5424 -14.5416 -14.5402  -6.1916  -6.1028  -6.0215  -2.9623  -2.6256
     3.8880   4.0358   5.5708   5.7892   6.5922   6.6491   8.3441   9.1077
     9.2707   9.8130  10.3704  10.9519  10.9758  12.4925  13.0343  13.3044
    13.5565  13.9011  13.9300  14.5684  14.6762  14.7638  15.7202  15.9101

     occupation numbers 
     1.0000   1.0000   1.0000   1.0000   1.0000   1.0000   1.0000   1.0000
     1.0000   1.0000   1.0000   1.0000   1.0000   1.0000   1.0000   1.0000
     1.0000   1.0000   1.0000   1.0000   1.0000   1.0000   1.0000   1.0000
     1.0000   1.0000   1.0000   1.0000   1.0000   1.0000  -0.0000  -0.0000
    -0.0000  -0.0000  -0.0000  -0.0000  -0.0000  -0.0000  -0.0000  -0.0000
    -0.0000  -0.0000  -0.0000  -0.0000  -0.0000  -0.0000  -0.0000  -0.0000

          k = 0.3333 0.1925-0.2958 ( 11510 PWs)   bands (ev):

   -69.0160 -69.0158 -35.7614 -35.7611 -35.7610 -35.7589 -35.7587 -35.7584
   -20.8435 -14.5736 -14.5712 -14.5705 -14.5693 -14.5600 -14.5594 -14.5433
   -14.5420 -14.5412 -14.5407  -6.1915  -6.1035  -6.0215  -2.9259  -2.6664
     3.8522   4.1295   5.6898   5.7680   6.3139   6.6762   8.4208   9.1207
     9.4185   9.5284  10.5012  10.8971  11.2263  12.3095  12.8432  13.0414
    13.1649  14.1896  14.3153  14.4415  15.0299  15.1011  15.6745  16.2868

     occupation numbers 
     1.0000   1.0000   1.0000   1.0000   1.0000   1.0000   1.0000   1.0000
     1.0000   1.0000   1.0000   1.0000   1.0000   1.0000   1.0000   1.0000
     1.0000   1.0000   1.0000   1.0000   1.0000   1.0000   1.0000   1.0000
     1.0000   1.0000   1.0000   1.0000   1.0000   1.0000  -0.0000  -0.0000
    -0.0000  -0.0000  -0.0000  -0.0000  -0.0000  -0.0000  -0.0000  -0.0000
    -0.0000  -0.0000  -0.0000  -0.0000  -0.0000  -0.0000  -0.0000  -0.0000

          k = 0.3333 0.1925-0.1479 ( 11525 PWs)   bands (ev):

   -69.0160 -69.0158 -35.7615 -35.7613 -35.7611 -35.7589 -35.7588 -35.7586
   -20.8435 -14.5740 -14.5719 -14.5701 -14.5686 -14.5599 -14.5595 -14.5435
   -14.5418 -14.5413 -14.5405  -6.1928  -6.1020  -6.0216  -2.8525  -2.7490
     3.9444   4.4329   5.1957   5.9307   6.0197   6.4201   8.2071   9.2617
    10.1767  10.5047  10.6835  11.3371  11.5278  11.8215  12.3083  12.4193
    12.6163  13.1495  13.4586  13.9148  15.4946  15.6389  16.5402  16.6209

     occupation numbers 
     1.0000   1.0000   1.0000   1.0000   1.0000   1.0000   1.0000   1.0000
     1.0000   1.0000   1.0000   1.0000   1.0000   1.0000   1.0000   1.0000
     1.0000   1.0000   1.0000   1.0000   1.0000   1.0000   1.0000   1.0000
     1.0000   1.0000   1.0000   1.0000   1.0000   1.0000  -0.0000  -0.0000
    -0.0000  -0.0000  -0.0000  -0.0000  -0.0000  -0.0000  -0.0000  -0.0000
    -0.0000  -0.0000  -0.0000  -0.0000  -0.0000  -0.0000  -0.0000  -0.0000

          k =-0.5000-0.2887 0.0000 ( 11530 PWs)   bands (ev):

   -69.0160 -69.0158 -35.7618 -35.7613 -35.7611 -35.7592 -35.7590 -35.7586
   -20.8414 -14.5732 -14.5715 -14.5710 -14.5680 -14.5595 -14.5585 -14.5433
   -14.5423 -14.5412 -14.5395  -6.2510  -6.0686  -6.0322  -2.7754  -2.6859
     3.5875   4.1214   5.5523   5.6527   5.9008   6.1688   7.9818   9.6919
     9.8043  10.6559  11.3999  11.5811  11.5984  11.7119  11.9381  12.5341
    12.6939  14.4327  14.7480  15.0153  15.4331  15.4631  15.5336  16.6098

     occupation numbers 
     1.0000   1.0000   1.0000   1.0000   1.0000   1.0000   1.0000   1.0000
     1.0000   1.0000   1.0000   1.0000   1.0000   1.0000   1.0000   1.0000
     1.0000   1.0000   1.0000   1.0000   1.0000   1.0000   1.0000   1.0000
     1.0000   1.0000   1.0000   1.0000   1.0000   1.0000  -0.0000  -0.0000
    -0.0000  -0.0000  -0.0000  -0.0000  -0.0000  -0.0000  -0.0000  -0.0000
    -0.0000  -0.0000  -0.0000  -0.0000  -0.0000  -0.0000  -0.0000  -0.0000

          k =-0.5000-0.2887 0.1479 ( 11496 PWs)   bands (ev):

   -69.0160 -69.0158 -35.7615 -35.7611 -35.7609 -35.7589 -35.7585 -35.7584
   -20.8414 -14.5741 -14.5711 -14.5702 -14.5684 -14.5595 -14.5586 -14.5434
   -14.5421 -14.5410 -14.5398  -6.2501  -6.0689  -6.0322  -2.8507  -2.6065
     3.6176   3.9502   5.4907   5.6992   6.0827   6.4455   8.0749   9.2052
     9.6015  10.0747  10.8079  11.4083  11.6046  12.2831  12.6178  12.9246
    13.4350  14.6692  14.9751  14.9943  15.1764  15.2768  15.8738  16.2022

     occupation numbers 
     1.0000   1.0000   1.0000   1.0000   1.0000   1.0000   1.0000   1.0000
     1.0000   1.0000   1.0000   1.0000   1.0000   1.0000   1.0000   1.0000
     1.0000   1.0000   1.0000   1.0000   1.0000   1.0000   1.0000   1.0000
     1.0000   1.0000   1.0000   1.0000   1.0000   1.0000  -0.0000  -0.0000
    -0.0000  -0.0000  -0.0000  -0.0000  -0.0000  -0.0000  -0.0000  -0.0000
    -0.0000  -0.0000  -0.0000  -0.0000  -0.0000  -0.0000  -0.0000  -0.0000

          k =-0.5000-0.2887-0.2958 ( 11528 PWs)   bands (ev):

   -69.0160 -69.0158 -35.7620 -35.7618 -35.7609 -35.7588 -35.7588 -35.7586
   -20.8414 -14.5746 -14.5702 -14.5696 -14.5692 -14.5595 -14.5586 -14.5435
   -14.5420 -14.5405 -14.5404  -6.2492  -6.0693  -6.0321  -2.8936  -2.5596
     3.6209   3.8548   5.4255   5.5923   6.5653   6.6347   8.2090   8.7083
     9.1906   9.8575  10.4268  11.4141  11.6110  12.5010  13.1392  13.8574
    13.9558  14.1737  14.9490  15.1229  15.2062  15.4019  15.9528  16.3408

     occupation numbers 
     1.0000   1.0000   1.0000   1.0000   1.0000   1.0000   1.0000   1.0000
     1.0000   1.0000   1.0000   1.0000   1.0000   1.0000   1.0000   1.0000
     1.0000   1.0000   1.0000   1.0000   1.0000   1.0000   1.0000   1.0000
     1.0000   1.0000   1.0000   1.0000   1.0000   1.0000  -0.0000  -0.0000
    -0.0000  -0.0000  -0.0000  -0.0000  -0.0000  -0.0000  -0.0000  -0.0000
    -0.0000  -0.0000  -0.0000  -0.0000  -0.0000  -0.0000  -0.0000  -0.0000

          k =-0.5000-0.2887-0.1479 ( 11496 PWs)   bands (ev):

   -69.0160 -69.0158 -35.7615 -35.7611 -35.7609 -35.7589 -35.7585 -35.7584
   -20.8414 -14.5741 -14.5711 -14.5702 -14.5684 -14.5595 -14.5586 -14.5434
   -14.5421 -14.5410 -14.5398  -6.2501  -6.0689  -6.0322  -2.8507  -2.6065
     3.6176   3.9502   5.4907   5.6992   6.0827   6.4455   8.0749   9.2052
     9.6015  10.0747  10.8079  11.4083  11.6046  12.2831  12.6178  12.9246
    13.4350  14.6692  14.9751  14.9943  15.1764  15.2767  15.8738  16.2022

     occupation numbers 
     1.0000   1.0000   1.0000   1.0000   1.0000   1.0000   1.0000   1.0000
     1.0000   1.0000   1.0000   1.0000   1.0000   1.0000   1.0000   1.0000
     1.0000   1.0000   1.0000   1.0000   1.0000   1.0000   1.0000   1.0000
     1.0000   1.0000   1.0000   1.0000   1.0000   1.0000  -0.0000  -0.0000
    -0.0000  -0.0000  -0.0000  -0.0000  -0.0000  -0.0000  -0.0000  -0.0000
    -0.0000  -0.0000  -0.0000  -0.0000  -0.0000  -0.0000  -0.0000  -0.0000

          k =-0.3333-0.1925 0.0000 ( 11530 PWs)   bands (ev):

   -69.0160 -69.0158 -35.7617 -35.7615 -35.7610 -35.7590 -35.7588 -35.7585
   -20.8435 -14.5734 -14.5718 -14.5707 -14.5687 -14.5601 -14.5593 -14.5432
   -14.5421 -14.5417 -14.5401  -6.1928  -6.1014  -6.0216  -2.9173  -2.6797
     3.9778   4.2942   5.1918   5.9738   6.1649   6.3716   8.2188   9.3546
    10.2173  10.3691  10.5434  11.2379  11.4134  11.9853  12.2682  12.5187
    12.9492  13.3746  13.5453  14.0036  14.8290  15.0704  15.9748  16.5214

     occupation numbers 
     1.0000   1.0000   1.0000   1.0000   1.0000   1.0000   1.0000   1.0000
     1.0000   1.0000   1.0000   1.0000   1.0000   1.0000   1.0000   1.0000
     1.0000   1.0000   1.0000   1.0000   1.0000   1.0000   1.0000   1.0000
     1.0000   1.0000   1.0000   1.0000   1.0000   1.0000  -0.0000  -0.0000
    -0.0000  -0.0000  -0.0000  -0.0000  -0.0000  -0.0000  -0.0000  -0.0000
    -0.0000  -0.0000  -0.0000  -0.0000  -0.0000  -0.0000  -0.0000  -0.0000

          k =-0.3333-0.1925 0.1479 ( 11525 PWs)   bands (ev):

   -69.0160 -69.0158 -35.7615 -35.7613 -35.7611 -35.7589 -35.7588 -35.7586
   -20.8435 -14.5740 -14.5719 -14.5701 -14.5686 -14.5599 -14.5595 -14.5435
   -14.5418 -14.5413 -14.5405  -6.1928  -6.1020  -6.0216  -2.8525  -2.7490
     3.9444   4.4329   5.1957   5.9307   6.0197   6.4201   8.2071   9.2617
    10.1767  10.5047  10.6835  11.3371  11.5278  11.8215  12.3083  12.4193
    12.6163  13.1495  13.4586  13.9148  15.4946  15.6389  16.5402  16.6208

     occupation numbers 
     1.0000   1.0000   1.0000   1.0000   1.0000   1.0000   1.0000   1.0000
     1.0000   1.0000   1.0000   1.0000   1.0000   1.0000   1.0000   1.0000
     1.0000   1.0000   1.0000   1.0000   1.0000   1.0000   1.0000   1.0000
     1.0000   1.0000   1.0000   1.0000   1.0000   1.0000  -0.0000  -0.0000
    -0.0000  -0.0000  -0.0000  -0.0000  -0.0000  -0.0000  -0.0000  -0.0000
    -0.0000  -0.0000  -0.0000  -0.0000  -0.0000  -0.0000  -0.0000  -0.0000

          k =-0.3333-0.1925-0.2958 ( 11510 PWs)   bands (ev):

   -69.0160 -69.0158 -35.7614 -35.7611 -35.7610 -35.7589 -35.7587 -35.7584
   -20.8435 -14.5736 -14.5712 -14.5705 -14.5693 -14.5600 -14.5594 -14.5433
   -14.5420 -14.5412 -14.5407  -6.1915  -6.1035  -6.0215  -2.9259  -2.6664
     3.8522   4.1295   5.6898   5.7680   6.3139   6.6762   8.4208   9.1207
     9.4185   9.5284  10.5012  10.8971  11.2263  12.3095  12.8432  13.0414
    13.1649  14.1896  14.3153  14.4415  15.0299  15.1011  15.6745  16.2868

     occupation numbers 
     1.0000   1.0000   1.0000   1.0000   1.0000   1.0000   1.0000   1.0000
     1.0000   1.0000   1.0000   1.0000   1.0000   1.0000   1.0000   1.0000
     1.0000   1.0000   1.0000   1.0000   1.0000   1.0000   1.0000   1.0000
     1.0000   1.0000   1.0000   1.0000   1.0000   1.0000  -0.0000  -0.0000
    -0.0000  -0.0000  -0.0000  -0.0000  -0.0000  -0.0000  -0.0000  -0.0000
    -0.0000  -0.0000  -0.0000  -0.0000  -0.0000  -0.0000  -0.0000  -0.0000

          k =-0.3333-0.1925-0.1479 ( 11525 PWs)   bands (ev):

   -69.0160 -69.0158 -35.7616 -35.7612 -35.7608 -35.7592 -35.7590 -35.7584
   -20.8435 -14.5725 -14.5715 -14.5709 -14.5695 -14.5601 -14.5592 -14.5429
   -14.5424 -14.5416 -14.5402  -6.1916  -6.1028  -6.0215  -2.9623  -2.6256
     3.8880   4.0358   5.5708   5.7892   6.5922   6.6491   8.3441   9.1077
     9.2707   9.8130  10.3704  10.9519  10.9758  12.4925  13.0343  13.3044
    13.5565  13.9011  13.9300  14.5684  14.6762  14.7638  15.7202  15.9101

     occupation numbers 
     1.0000   1.0000   1.0000   1.0000   1.0000   1.0000   1.0000   1.0000
     1.0000   1.0000   1.0000   1.0000   1.0000   1.0000   1.0000   1.0000
     1.0000   1.0000   1.0000   1.0000   1.0000   1.0000   1.0000   1.0000
     1.0000   1.0000   1.0000   1.0000   1.0000   1.0000  -0.0000  -0.0000
    -0.0000  -0.0000  -0.0000  -0.0000  -0.0000  -0.0000  -0.0000  -0.0000
    -0.0000  -0.0000  -0.0000  -0.0000  -0.0000  -0.0000  -0.0000  -0.0000

          k =-0.1667-0.0962 0.0000 ( 11541 PWs)   bands (ev):

   -69.0161 -69.0158 -35.7614 -35.7612 -35.7612 -35.7591 -35.7588 -35.7587
   -20.8477 -14.5730 -14.5723 -14.5709 -14.5704 -14.5613 -14.5607 -14.5429
   -14.5424 -14.5419 -14.5412  -6.1738  -6.0584  -6.0002  -3.1974  -2.6548
     3.8256   5.3791   5.8077   6.1360   6.8041   6.8747   8.6349   8.7449
     9.5976   9.9482   9.9983  10.4240  10.6372  11.2016  11.8288  12.3402
    13.1083  13.2806  13.4343  13.6147  14.6092  14.8836  15.4967  15.9432

     occupation numbers 
     1.0000   1.0000   1.0000   1.0000   1.0000   1.0000   1.0000   1.0000
     1.0000   1.0000   1.0000   1.0000   1.0000   1.0000   1.0000   1.0000
     1.0000   1.0000   1.0000   1.0000   1.0000   1.0000   1.0000   1.0000
     1.0000   1.0000   1.0000   1.0000   1.0000   1.0000  -0.0000  -0.0000
    -0.0000  -0.0000  -0.0000  -0.0000  -0.0000  -0.0000  -0.0000  -0.0000
    -0.0000  -0.0000  -0.0000  -0.0000  -0.0000  -0.0000  -0.0000  -0.0000

          k =-0.1667-0.0962 0.1479 ( 11537 PWs)   bands (ev):

   -69.0161 -69.0158 -35.7613 -35.7612 -35.7609 -35.7591 -35.7589 -35.7587
   -20.8477 -14.5729 -14.5728 -14.5711 -14.5697 -14.5611 -14.5608 -14.5430
   -14.5420 -14.5417 -14.5416  -6.1770  -6.0578  -6.0002  -3.1161  -2.7462
     3.9819   5.4179   5.6244   6.3586   6.5453   6.5463   8.5964   9.0105
     9.9055  10.0064  10.1106  10.5163  10.9737  11.5702  11.8319  12.1130
    12.2468  12.4138  12.8468  14.1209  14.7486  15.2827  15.3979  16.1393

     occupation numbers 
     1.0000   1.0000   1.0000   1.0000   1.0000   1.0000   1.0000   1.0000
     1.0000   1.0000   1.0000   1.0000   1.0000   1.0000   1.0000   1.0000
     1.0000   1.0000   1.0000   1.0000   1.0000   1.0000   1.0000   1.0000
     1.0000   1.0000   1.0000   1.0000   1.0000   1.0000  -0.0000  -0.0000
    -0.0000  -0.0000  -0.0000  -0.0000  -0.0000  -0.0000  -0.0000  -0.0000
    -0.0000  -0.0000  -0.0000  -0.0000  -0.0000  -0.0000  -0.0000  -0.0000

          k =-0.1667-0.0962-0.2958 ( 11564 PWs)   bands (ev):

   -69.0161 -69.0158 -35.7615 -35.7613 -35.7613 -35.7594 -35.7591 -35.7590
   -20.8477 -14.5728 -14.5727 -14.5711 -14.5698 -14.5611 -14.5609 -14.5428
   -14.5422 -14.5419 -14.5414  -6.1798  -6.0574  -6.0002  -2.9868  -2.8818
     4.1236   5.0754   6.0112   6.2125   6.2484   6.7300   8.7343   9.4226
     9.6846  10.0457  10.1069  10.2446  10.7207  11.2523  11.7145  12.0879
    12.7181  12.8060  13.2756  14.0799  14.2671  14.4996  15.9064  16.4681

     occupation numbers 
     1.0000   1.0000   1.0000   1.0000   1.0000   1.0000   1.0000   1.0000
     1.0000   1.0000   1.0000   1.0000   1.0000   1.0000   1.0000   1.0000
     1.0000   1.0000   1.0000   1.0000   1.0000   1.0000   1.0000   1.0000
     1.0000   1.0000   1.0000   1.0000   1.0000   1.0000  -0.0000  -0.0000
    -0.0000  -0.0000  -0.0000  -0.0000  -0.0000  -0.0000  -0.0000  -0.0000
    -0.0000  -0.0000  -0.0000  -0.0000  -0.0000  -0.0000  -0.0000  -0.0000

          k =-0.1667-0.0962-0.1479 ( 11537 PWs)   bands (ev):

   -69.0161 -69.0158 -35.7611 -35.7611 -35.7610 -35.7593 -35.7589 -35.7587
   -20.8477 -14.5730 -14.5720 -14.5709 -14.5707 -14.5612 -14.5607 -14.5425
   -14.5424 -14.5423 -14.5411  -6.1767  -6.0580  -6.0002  -3.1338  -2.7247
     3.9258   5.2434   5.8123   6.0772   6.7550   6.9770   8.7406   9.1021
     9.2138  10.0093  10.0180  10.1646  10.8293  11.0989  11.6498  12.3300
    13.0956  13.3790  13.6192  14.0577  14.3911  14.7852  15.4012  15.5282

     occupation numbers 
     1.0000   1.0000   1.0000   1.0000   1.0000   1.0000   1.0000   1.0000
     1.0000   1.0000   1.0000   1.0000   1.0000   1.0000   1.0000   1.0000
     1.0000   1.0000   1.0000   1.0000   1.0000   1.0000   1.0000   1.0000
     1.0000   1.0000   1.0000   1.0000   1.0000   1.0000  -0.0000  -0.0000
    -0.0000  -0.0000  -0.0000  -0.0000  -0.0000  -0.0000  -0.0000  -0.0000
    -0.0000  -0.0000  -0.0000  -0.0000  -0.0000  -0.0000  -0.0000  -0.0000

          k = 0.1667-0.0962 0.0000 ( 11541 PWs)   bands (ev):

   -69.0161 -69.0158 -35.7614 -35.7612 -35.7612 -35.7591 -35.7588 -35.7587
   -20.8477 -14.5730 -14.5723 -14.5709 -14.5704 -14.5613 -14.5607 -14.5429
   -14.5424 -14.5419 -14.5412  -6.1738  -6.0584  -6.0002  -3.1974  -2.6548
     3.8256   5.3791   5.8077   6.1360   6.8041   6.8747   8.6349   8.7449
     9.5976   9.9482   9.9983  10.4240  10.6372  11.2016  11.8288  12.3402
    13.1083  13.2806  13.4343  13.6147  14.6092  14.8836  15.4967  15.9431

     occupation numbers 
     1.0000   1.0000   1.0000   1.0000   1.0000   1.0000   1.0000   1.0000
     1.0000   1.0000   1.0000   1.0000   1.0000   1.0000   1.0000   1.0000
     1.0000   1.0000   1.0000   1.0000   1.0000   1.0000   1.0000   1.0000
     1.0000   1.0000   1.0000   1.0000   1.0000   1.0000  -0.0000  -0.0000
    -0.0000  -0.0000  -0.0000  -0.0000  -0.0000  -0.0000  -0.0000  -0.0000
    -0.0000  -0.0000  -0.0000  -0.0000  -0.0000  -0.0000  -0.0000  -0.0000

          k = 0.1667-0.0962 0.1479 ( 11537 PWs)   bands (ev):

   -69.0161 -69.0158 -35.7613 -35.7612 -35.7609 -35.7591 -35.7589 -35.7587
   -20.8477 -14.5729 -14.5728 -14.5711 -14.5697 -14.5611 -14.5608 -14.5430
   -14.5420 -14.5417 -14.5416  -6.1770  -6.0578  -6.0002  -3.1161  -2.7462
     3.9819   5.4179   5.6244   6.3586   6.5453   6.5463   8.5964   9.0105
     9.9055  10.0064  10.1106  10.5163  10.9737  11.5702  11.8319  12.1130
    12.2468  12.4138  12.8468  14.1209  14.7486  15.2827  15.3980  16.1393

     occupation numbers 
     1.0000   1.0000   1.0000   1.0000   1.0000   1.0000   1.0000   1.0000
     1.0000   1.0000   1.0000   1.0000   1.0000   1.0000   1.0000   1.0000
     1.0000   1.0000   1.0000   1.0000   1.0000   1.0000   1.0000   1.0000
     1.0000   1.0000   1.0000   1.0000   1.0000   1.0000  -0.0000  -0.0000
    -0.0000  -0.0000  -0.0000  -0.0000  -0.0000  -0.0000  -0.0000  -0.0000
    -0.0000  -0.0000  -0.0000  -0.0000  -0.0000  -0.0000  -0.0000  -0.0000

          k = 0.1667-0.0962-0.2958 ( 11564 PWs)   bands (ev):

   -69.0161 -69.0158 -35.7615 -35.7613 -35.7613 -35.7594 -35.7591 -35.7590
   -20.8477 -14.5728 -14.5727 -14.5711 -14.5698 -14.5611 -14.5609 -14.5428
   -14.5422 -14.5419 -14.5414  -6.1798  -6.0574  -6.0002  -2.9868  -2.8818
     4.1236   5.0754   6.0112   6.2125   6.2484   6.7300   8.7343   9.4226
     9.6846  10.0457  10.1069  10.2446  10.7207  11.2523  11.7145  12.0879
    12.7181  12.8060  13.2756  14.0799  14.2671  14.4996  15.9065  16.4686

     occupation numbers 
     1.0000   1.0000   1.0000   1.0000   1.0000   1.0000   1.0000   1.0000
     1.0000   1.0000   1.0000   1.0000   1.0000   1.0000   1.0000   1.0000
     1.0000   1.0000   1.0000   1.0000   1.0000   1.0000   1.0000   1.0000
     1.0000   1.0000   1.0000   1.0000   1.0000   1.0000  -0.0000  -0.0000
    -0.0000  -0.0000  -0.0000  -0.0000  -0.0000  -0.0000  -0.0000  -0.0000
    -0.0000  -0.0000  -0.0000  -0.0000  -0.0000  -0.0000  -0.0000  -0.0000

          k = 0.1667-0.0962-0.1479 ( 11537 PWs)   bands (ev):

   -69.0161 -69.0158 -35.7611 -35.7611 -35.7610 -35.7593 -35.7589 -35.7587
   -20.8477 -14.5730 -14.5720 -14.5709 -14.5707 -14.5612 -14.5607 -14.5425
   -14.5424 -14.5423 -14.5411  -6.1767  -6.0580  -6.0002  -3.1338  -2.7247
     3.9258   5.2434   5.8123   6.0772   6.7550   6.9770   8.7406   9.1021
     9.2138  10.0093  10.0180  10.1646  10.8293  11.0989  11.6498  12.3300
    13.0956  13.3790  13.6192  14.0577  14.3911  14.7852  15.4012  15.5282

     occupation numbers 
     1.0000   1.0000   1.0000   1.0000   1.0000   1.0000   1.0000   1.0000
     1.0000   1.0000   1.0000   1.0000   1.0000   1.0000   1.0000   1.0000
     1.0000   1.0000   1.0000   1.0000   1.0000   1.0000   1.0000   1.0000
     1.0000   1.0000   1.0000   1.0000   1.0000   1.0000  -0.0000  -0.0000
    -0.0000  -0.0000  -0.0000  -0.0000  -0.0000  -0.0000  -0.0000  -0.0000
    -0.0000  -0.0000  -0.0000  -0.0000  -0.0000  -0.0000  -0.0000  -0.0000

          k = 0.3333 0.0000 0.0000 ( 11513 PWs)   bands (ev):

   -69.0160 -69.0158 -35.7615 -35.7613 -35.7612 -35.7586 -35.7585 -35.7585
   -20.8445 -14.5736 -14.5713 -14.5702 -14.5699 -14.5603 -14.5598 -14.5428
   -14.5426 -14.5414 -14.5406  -6.1429  -6.1273  -6.0274  -2.9879  -2.6731
     4.0286   4.7074   5.0436   5.7862   6.1150   6.7176   8.9005   9.2831
     9.6840  10.3194  10.4620  11.1783  11.3440  11.7705  11.9573  12.0671
    13.1224  13.1277  13.3026  14.3846  14.9091  15.0537  16.0249  16.2572

     occupation numbers 
     1.0000   1.0000   1.0000   1.0000   1.0000   1.0000   1.0000   1.0000
     1.0000   1.0000   1.0000   1.0000   1.0000   1.0000   1.0000   1.0000
     1.0000   1.0000   1.0000   1.0000   1.0000   1.0000   1.0000   1.0000
     1.0000   1.0000   1.0000   1.0000   1.0000   1.0000  -0.0000  -0.0000
    -0.0000  -0.0000  -0.0000  -0.0000  -0.0000  -0.0000  -0.0000  -0.0000
    -0.0000  -0.0000  -0.0000  -0.0000  -0.0000  -0.0000  -0.0000  -0.0000

          k = 0.3333 0.0000 0.1479 ( 11553 PWs)   bands (ev):

   -69.0160 -69.0158 -35.7617 -35.7616 -35.7616 -35.7590 -35.7589 -35.7588
   -20.8445 -14.5731 -14.5717 -14.5707 -14.5694 -14.5602 -14.5598 -14.5429
   -14.5423 -14.5415 -14.5407  -6.1422  -6.1289  -6.0273  -2.9606  -2.7008
     3.9889   4.5169   5.3958   5.8120   6.2227   6.5303   8.8416   9.3954
     9.7856   9.9735  10.3677  10.7917  11.3374  11.4610  12.1032  12.7579
    12.8556  13.6351  13.7323  14.0352  15.0354  15.3983  15.6398  16.5042

     occupation numbers 
     1.0000   1.0000   1.0000   1.0000   1.0000   1.0000   1.0000   1.0000
     1.0000   1.0000   1.0000   1.0000   1.0000   1.0000   1.0000   1.0000
     1.0000   1.0000   1.0000   1.0000   1.0000   1.0000   1.0000   1.0000
     1.0000   1.0000   1.0000   1.0000   1.0000   1.0000  -0.0000  -0.0000
    -0.0000  -0.0000  -0.0000  -0.0000  -0.0000  -0.0000  -0.0000  -0.0000
    -0.0000  -0.0000  -0.0000  -0.0000  -0.0000  -0.0000  -0.0000  -0.0000

          k = 0.3333 0.0000-0.2958 ( 11552 PWs)   bands (ev):

   -69.0160 -69.0158 -35.7617 -35.7615 -35.7613 -35.7592 -35.7589 -35.7589
   -20.8445 -14.5723 -14.5718 -14.5717 -14.5691 -14.5600 -14.5600 -14.5429
   -14.5422 -14.5414 -14.5410  -6.1413  -6.1307  -6.0273  -2.9257  -2.7361
     3.9594   4.3966   5.8055   5.9500   6.1031   6.3102   8.9929   9.1933
     9.8809   9.9498  10.0311  10.7726  11.2288  11.2853  12.0327  12.9532
    13.2240  13.5328  14.0932  14.8452  14.8577  15.4191  15.5137  16.0790

     occupation numbers 
     1.0000   1.0000   1.0000   1.0000   1.0000   1.0000   1.0000   1.0000
     1.0000   1.0000   1.0000   1.0000   1.0000   1.0000   1.0000   1.0000
     1.0000   1.0000   1.0000   1.0000   1.0000   1.0000   1.0000   1.0000
     1.0000   1.0000   1.0000   1.0000   1.0000   1.0000  -0.0000  -0.0000
    -0.0000  -0.0000  -0.0000  -0.0000  -0.0000  -0.0000  -0.0000  -0.0000
    -0.0000  -0.0000  -0.0000  -0.0000  -0.0000  -0.0000  -0.0000  -0.0000

          k = 0.3333 0.0000-0.1479 ( 11553 PWs)   bands (ev):

   -69.0160 -69.0158 -35.7617 -35.7616 -35.7616 -35.7590 -35.7589 -35.7588
   -20.8445 -14.5731 -14.5717 -14.5707 -14.5694 -14.5602 -14.5598 -14.5429
   -14.5423 -14.5415 -14.5407  -6.1422  -6.1289  -6.0273  -2.9606  -2.7008
     3.9889   4.5169   5.3958   5.8120   6.2227   6.5303   8.8416   9.3954
     9.7856   9.9735  10.3677  10.7917  11.3374  11.4610  12.1032  12.7579
    12.8556  13.6351  13.7323  14.0352  15.0354  15.3983  15.6399  16.5043

     occupation numbers 
     1.0000   1.0000   1.0000   1.0000   1.0000   1.0000   1.0000   1.0000
     1.0000   1.0000   1.0000   1.0000   1.0000   1.0000   1.0000   1.0000
     1.0000   1.0000   1.0000   1.0000   1.0000   1.0000   1.0000   1.0000
     1.0000   1.0000   1.0000   1.0000   1.0000   1.0000  -0.0000  -0.0000
    -0.0000  -0.0000  -0.0000  -0.0000  -0.0000  -0.0000  -0.0000  -0.0000
    -0.0000  -0.0000  -0.0000  -0.0000  -0.0000  -0.0000  -0.0000  -0.0000

          k = 0.5000 0.0962 0.0000 ( 11514 PWs)   bands (ev):

   -69.0160 -69.0158 -35.7616 -35.7614 -35.7613 -35.7588 -35.7587 -35.7584
   -20.8414 -14.5731 -14.5715 -14.5698 -14.5691 -14.5594 -14.5588 -14.5430
   -14.5422 -14.5414 -14.5400  -6.2140  -6.0814  -6.0605  -2.7682  -2.6877
     3.8075   4.1005   5.1040   5.5401   5.8436   6.2015   8.9697   9.6347
    10.0398  10.3731  10.8504  11.0813  11.5019  11.7848  12.4014  12.9131
    13.3119  13.5740  14.1551  14.8218  15.0001  15.2850  15.9223  16.6061

     occupation numbers 
     1.0000   1.0000   1.0000   1.0000   1.0000   1.0000   1.0000   1.0000
     1.0000   1.0000   1.0000   1.0000   1.0000   1.0000   1.0000   1.0000
     1.0000   1.0000   1.0000   1.0000   1.0000   1.0000   1.0000   1.0000
     1.0000   1.0000   1.0000   1.0000   1.0000   1.0000  -0.0000  -0.0000
    -0.0000  -0.0000  -0.0000  -0.0000  -0.0000  -0.0000  -0.0000  -0.0000
    -0.0000  -0.0000  -0.0000  -0.0000  -0.0000  -0.0000  -0.0000  -0.0000

          k = 0.5000 0.0962 0.1479 ( 11540 PWs)   bands (ev):

   -69.0160 -69.0158 -35.7617 -35.7617 -35.7614 -35.7590 -35.7588 -35.7586
   -20.8414 -14.5729 -14.5718 -14.5704 -14.5683 -14.5594 -14.5588 -14.5429
   -14.5422 -14.5413 -14.5402  -6.2131  -6.0819  -6.0604  -2.8359  -2.6173
     3.8245   3.9288   5.2461   5.6152   5.8826   6.3426   8.6737   9.5558
     9.8923  10.0563  10.6934  10.9437  11.5247  12.2840  12.5836  13.2692
    13.4155  13.8502  14.4205  14.6611  15.2178  15.2898  15.7015  16.3764

     occupation numbers 
     1.0000   1.0000   1.0000   1.0000   1.0000   1.0000   1.0000   1.0000
     1.0000   1.0000   1.0000   1.0000   1.0000   1.0000   1.0000   1.0000
     1.0000   1.0000   1.0000   1.0000   1.0000   1.0000   1.0000   1.0000
     1.0000   1.0000   1.0000   1.0000   1.0000   1.0000  -0.0000  -0.0000
    -0.0000  -0.0000  -0.0000  -0.0000  -0.0000  -0.0000  -0.0000  -0.0000
    -0.0000  -0.0000  -0.0000  -0.0000  -0.0000  -0.0000  -0.0000  -0.0000

          k = 0.5000 0.0962-0.2958 ( 11530 PWs)   bands (ev):

   -69.0160 -69.0158 -35.7618 -35.7615 -35.7613 -35.7590 -35.7587 -35.7583
   -20.8414 -14.5736 -14.5712 -14.5710 -14.5677 -14.5593 -14.5588 -14.5430
   -14.5419 -14.5409 -14.5407  -6.2125  -6.0820  -6.0606  -2.8424  -2.6129
     3.8149   3.9390   5.3052   5.5787   5.9766   6.3017   8.6088   9.1957
     9.7559  10.1327  10.9709  11.2352  11.5130  11.8280  12.8007  13.2615
    13.4283  13.8405  14.4976  14.8468  15.0500  15.7454  15.9462  16.7250

     occupation numbers 
     1.0000   1.0000   1.0000   1.0000   1.0000   1.0000   1.0000   1.0000
     1.0000   1.0000   1.0000   1.0000   1.0000   1.0000   1.0000   1.0000
     1.0000   1.0000   1.0000   1.0000   1.0000   1.0000   1.0000   1.0000
     1.0000   1.0000   1.0000   1.0000   1.0000   1.0000  -0.0000  -0.0000
    -0.0000  -0.0000  -0.0000  -0.0000  -0.0000  -0.0000  -0.0000  -0.0000
    -0.0000  -0.0000  -0.0000  -0.0000  -0.0000  -0.0000  -0.0000  -0.0000

          k = 0.5000 0.0962-0.1479 ( 11540 PWs)   bands (ev):

   -69.0160 -69.0158 -35.7618 -35.7617 -35.7616 -35.7589 -35.7587 -35.7586
   -20.8414 -14.5736 -14.5715 -14.5701 -14.5682 -14.5593 -14.5589 -14.5431
   -14.5420 -14.5412 -14.5403  -6.2134  -6.0815  -6.0606  -2.7823  -2.6758
     3.8147   4.0818   5.2067   5.4677   5.9925   6.0980   8.8496   9.4464
     9.9019  10.3721  10.8135  11.4035  11.5111  11.9547  12.4334  12.7932
    13.0227  13.9369  14.1248  14.8004  15.2107  15.6899  15.7572  16.9224

     occupation numbers 
     1.0000   1.0000   1.0000   1.0000   1.0000   1.0000   1.0000   1.0000
     1.0000   1.0000   1.0000   1.0000   1.0000   1.0000   1.0000   1.0000
     1.0000   1.0000   1.0000   1.0000   1.0000   1.0000   1.0000   1.0000
     1.0000   1.0000   1.0000   1.0000   1.0000   1.0000  -0.0000  -0.0000
    -0.0000  -0.0000  -0.0000  -0.0000  -0.0000  -0.0000  -0.0000  -0.0000
    -0.0000  -0.0000  -0.0000  -0.0000  -0.0000  -0.0000  -0.0000  -0.0000

          k =-0.3333-0.3849 0.0000 ( 11514 PWs)   bands (ev):

   -69.0160 -69.0158 -35.7616 -35.7614 -35.7613 -35.7588 -35.7587 -35.7584
   -20.8414 -14.5731 -14.5715 -14.5698 -14.5691 -14.5594 -14.5588 -14.5430
   -14.5422 -14.5414 -14.5400  -6.2140  -6.0814  -6.0605  -2.7682  -2.6877
     3.8075   4.1005   5.1040   5.5401   5.8436   6.2015   8.9697   9.6347
    10.0398  10.3731  10.8504  11.0813  11.5019  11.7848  12.4014  12.9131
    13.3119  13.5740  14.1551  14.8218  15.0001  15.2850  15.9223  16.6060

     occupation numbers 
     1.0000   1.0000   1.0000   1.0000   1.0000   1.0000   1.0000   1.0000
     1.0000   1.0000   1.0000   1.0000   1.0000   1.0000   1.0000   1.0000
     1.0000   1.0000   1.0000   1.0000   1.0000   1.0000   1.0000   1.0000
     1.0000   1.0000   1.0000   1.0000   1.0000   1.0000  -0.0000  -0.0000
    -0.0000  -0.0000  -0.0000  -0.0000  -0.0000  -0.0000  -0.0000  -0.0000
    -0.0000  -0.0000  -0.0000  -0.0000  -0.0000  -0.0000  -0.0000  -0.0000

          k =-0.3333-0.3849 0.1479 ( 11540 PWs)   bands (ev):

   -69.0160 -69.0158 -35.7618 -35.7617 -35.7616 -35.7589 -35.7587 -35.7586
   -20.8414 -14.5736 -14.5715 -14.5701 -14.5682 -14.5593 -14.5589 -14.5431
   -14.5420 -14.5412 -14.5403  -6.2134  -6.0815  -6.0606  -2.7823  -2.6758
     3.8148   4.0818   5.2067   5.4677   5.9925   6.0980   8.8496   9.4464
     9.9019  10.3721  10.8135  11.4035  11.5111  11.9547  12.4334  12.7932
    13.0227  13.9369  14.1248  14.8004  15.2107  15.6899  15.7572  16.9224

     occupation numbers 
     1.0000   1.0000   1.0000   1.0000   1.0000   1.0000   1.0000   1.0000
     1.0000   1.0000   1.0000   1.0000   1.0000   1.0000   1.0000   1.0000
     1.0000   1.0000   1.0000   1.0000   1.0000   1.0000   1.0000   1.0000
     1.0000   1.0000   1.0000   1.0000   1.0000   1.0000  -0.0000  -0.0000
    -0.0000  -0.0000  -0.0000  -0.0000  -0.0000  -0.0000  -0.0000  -0.0000
    -0.0000  -0.0000  -0.0000  -0.0000  -0.0000  -0.0000  -0.0000  -0.0000

          k =-0.3333-0.3849-0.2958 ( 11530 PWs)   bands (ev):

   -69.0160 -69.0158 -35.7618 -35.7615 -35.7613 -35.7590 -35.7587 -35.7583
   -20.8414 -14.5736 -14.5712 -14.5710 -14.5677 -14.5593 -14.5588 -14.5430
   -14.5419 -14.5409 -14.5407  -6.2125  -6.0820  -6.0606  -2.8424  -2.6129
     3.8149   3.9390   5.3052   5.5787   5.9766   6.3017   8.6088   9.1957
     9.7559  10.1327  10.9709  11.2352  11.5130  11.8280  12.8007  13.2615
    13.4283  13.8405  14.4976  14.8468  15.0500  15.7454  15.9462  16.7249

     occupation numbers 
     1.0000   1.0000   1.0000   1.0000   1.0000   1.0000   1.0000   1.0000
     1.0000   1.0000   1.0000   1.0000   1.0000   1.0000   1.0000   1.0000
     1.0000   1.0000   1.0000   1.0000   1.0000   1.0000   1.0000   1.0000
     1.0000   1.0000   1.0000   1.0000   1.0000   1.0000  -0.0000  -0.0000
    -0.0000  -0.0000  -0.0000  -0.0000  -0.0000  -0.0000  -0.0000  -0.0000
    -0.0000  -0.0000  -0.0000  -0.0000  -0.0000  -0.0000  -0.0000  -0.0000

          k =-0.3333-0.3849-0.1479 ( 11540 PWs)   bands (ev):

   -69.0160 -69.0158 -35.7617 -35.7617 -35.7614 -35.7590 -35.7588 -35.7586
   -20.8414 -14.5729 -14.5718 -14.5704 -14.5683 -14.5594 -14.5588 -14.5429
   -14.5422 -14.5413 -14.5402  -6.2131  -6.0819  -6.0604  -2.8359  -2.6173
     3.8245   3.9288   5.2461   5.6152   5.8826   6.3426   8.6737   9.5558
     9.8923  10.0563  10.6934  10.9437  11.5247  12.2840  12.5836  13.2692
    13.4155  13.8502  14.4205  14.6611  15.2178  15.2898  15.7015  16.3765

     occupation numbers 
     1.0000   1.0000   1.0000   1.0000   1.0000   1.0000   1.0000   1.0000
     1.0000   1.0000   1.0000   1.0000   1.0000   1.0000   1.0000   1.0000
     1.0000   1.0000   1.0000   1.0000   1.0000   1.0000   1.0000   1.0000
     1.0000   1.0000   1.0000   1.0000   1.0000   1.0000  -0.0000  -0.0000
    -0.0000  -0.0000  -0.0000  -0.0000  -0.0000  -0.0000  -0.0000  -0.0000
    -0.0000  -0.0000  -0.0000  -0.0000  -0.0000  -0.0000  -0.0000  -0.0000

          k =-0.1667-0.2887 0.0000 ( 11513 PWs)   bands (ev):

   -69.0160 -69.0158 -35.7615 -35.7613 -35.7612 -35.7586 -35.7585 -35.7585
   -20.8445 -14.5736 -14.5713 -14.5702 -14.5699 -14.5603 -14.5598 -14.5428
   -14.5426 -14.5414 -14.5406  -6.1429  -6.1273  -6.0274  -2.9879  -2.6731
     4.0286   4.7074   5.0436   5.7862   6.1150   6.7176   8.9005   9.2831
     9.6840  10.3194  10.4620  11.1783  11.3440  11.7705  11.9573  12.0671
    13.1224  13.1277  13.3026  14.3846  14.9091  15.0537  16.0249  16.2572

     occupation numbers 
     1.0000   1.0000   1.0000   1.0000   1.0000   1.0000   1.0000   1.0000
     1.0000   1.0000   1.0000   1.0000   1.0000   1.0000   1.0000   1.0000
     1.0000   1.0000   1.0000   1.0000   1.0000   1.0000   1.0000   1.0000
     1.0000   1.0000   1.0000   1.0000   1.0000   1.0000  -0.0000  -0.0000
    -0.0000  -0.0000  -0.0000  -0.0000  -0.0000  -0.0000  -0.0000  -0.0000
    -0.0000  -0.0000  -0.0000  -0.0000  -0.0000  -0.0000  -0.0000  -0.0000

          k =-0.1667-0.2887 0.1479 ( 11553 PWs)   bands (ev):

   -69.0160 -69.0158 -35.7617 -35.7616 -35.7616 -35.7590 -35.7589 -35.7588
   -20.8445 -14.5731 -14.5717 -14.5707 -14.5694 -14.5602 -14.5598 -14.5429
   -14.5423 -14.5415 -14.5407  -6.1422  -6.1289  -6.0273  -2.9606  -2.7008
     3.9889   4.5169   5.3958   5.8120   6.2227   6.5303   8.8416   9.3954
     9.7856   9.9735  10.3677  10.7917  11.3374  11.4610  12.1032  12.7579
    12.8556  13.6351  13.7323  14.0352  15.0354  15.3983  15.6398  16.5043

     occupation numbers 
     1.0000   1.0000   1.0000   1.0000   1.0000   1.0000   1.0000   1.0000
     1.0000   1.0000   1.0000   1.0000   1.0000   1.0000   1.0000   1.0000
     1.0000   1.0000   1.0000   1.0000   1.0000   1.0000   1.0000   1.0000
     1.0000   1.0000   1.0000   1.0000   1.0000   1.0000  -0.0000  -0.0000
    -0.0000  -0.0000  -0.0000  -0.0000  -0.0000  -0.0000  -0.0000  -0.0000
    -0.0000  -0.0000  -0.0000  -0.0000  -0.0000  -0.0000  -0.0000  -0.0000

          k =-0.1667-0.2887-0.2958 ( 11552 PWs)   bands (ev):

   -69.0160 -69.0158 -35.7617 -35.7615 -35.7613 -35.7592 -35.7589 -35.7589
   -20.8445 -14.5723 -14.5718 -14.5717 -14.5691 -14.5600 -14.5600 -14.5429
   -14.5422 -14.5414 -14.5410  -6.1413  -6.1307  -6.0273  -2.9257  -2.7361
     3.9594   4.3967   5.8055   5.9500   6.1031   6.3102   8.9929   9.1933
     9.8809   9.9498  10.0311  10.7726  11.2288  11.2853  12.0327  12.9532
    13.2241  13.5328  14.0932  14.8452  14.8577  15.4191  15.5137  16.0790

     occupation numbers 
     1.0000   1.0000   1.0000   1.0000   1.0000   1.0000   1.0000   1.0000
     1.0000   1.0000   1.0000   1.0000   1.0000   1.0000   1.0000   1.0000
     1.0000   1.0000   1.0000   1.0000   1.0000   1.0000   1.0000   1.0000
     1.0000   1.0000   1.0000   1.0000   1.0000   1.0000  -0.0000  -0.0000
    -0.0000  -0.0000  -0.0000  -0.0000  -0.0000  -0.0000  -0.0000  -0.0000
    -0.0000  -0.0000  -0.0000  -0.0000  -0.0000  -0.0000  -0.0000  -0.0000

          k =-0.1667-0.2887-0.1479 ( 11553 PWs)   bands (ev):

   -69.0160 -69.0158 -35.7617 -35.7616 -35.7616 -35.7590 -35.7589 -35.7588
   -20.8445 -14.5731 -14.5717 -14.5707 -14.5694 -14.5602 -14.5598 -14.5429
   -14.5423 -14.5415 -14.5407  -6.1422  -6.1289  -6.0273  -2.9606  -2.7008
     3.9889   4.5169   5.3958   5.8120   6.2227   6.5303   8.8416   9.3953
     9.7856   9.9735  10.3677  10.7917  11.3374  11.4610  12.1032  12.7579
    12.8556  13.6351  13.7323  14.0352  15.0354  15.3983  15.6398  16.5043

     occupation numbers 
     1.0000   1.0000   1.0000   1.0000   1.0000   1.0000   1.0000   1.0000
     1.0000   1.0000   1.0000   1.0000   1.0000   1.0000   1.0000   1.0000
     1.0000   1.0000   1.0000   1.0000   1.0000   1.0000   1.0000   1.0000
     1.0000   1.0000   1.0000   1.0000   1.0000   1.0000  -0.0000  -0.0000
    -0.0000  -0.0000  -0.0000  -0.0000  -0.0000  -0.0000  -0.0000  -0.0000
    -0.0000  -0.0000  -0.0000  -0.0000  -0.0000  -0.0000  -0.0000  -0.0000

          k = 0.0000-0.1925 0.0000 ( 11541 PWs)   bands (ev):

   -69.0161 -69.0158 -35.7614 -35.7612 -35.7612 -35.7591 -35.7588 -35.7587
   -20.8477 -14.5730 -14.5723 -14.5709 -14.5704 -14.5613 -14.5607 -14.5429
   -14.5424 -14.5419 -14.5412  -6.1738  -6.0584  -6.0002  -3.1974  -2.6548
     3.8256   5.3791   5.8077   6.1360   6.8041   6.8747   8.6349   8.7449
     9.5976   9.9482   9.9983  10.4240  10.6372  11.2016  11.8288  12.3402
    13.1083  13.2806  13.4343  13.6147  14.6092  14.8836  15.4967  15.9432

     occupation numbers 
     1.0000   1.0000   1.0000   1.0000   1.0000   1.0000   1.0000   1.0000
     1.0000   1.0000   1.0000   1.0000   1.0000   1.0000   1.0000   1.0000
     1.0000   1.0000   1.0000   1.0000   1.0000   1.0000   1.0000   1.0000
     1.0000   1.0000   1.0000   1.0000   1.0000   1.0000  -0.0000  -0.0000
    -0.0000  -0.0000  -0.0000  -0.0000  -0.0000  -0.0000  -0.0000  -0.0000
    -0.0000  -0.0000  -0.0000  -0.0000  -0.0000  -0.0000  -0.0000  -0.0000

          k = 0.0000-0.1925 0.1479 ( 11537 PWs)   bands (ev):

   -69.0161 -69.0158 -35.7611 -35.7611 -35.7610 -35.7593 -35.7589 -35.7587
   -20.8477 -14.5730 -14.5720 -14.5709 -14.5707 -14.5612 -14.5607 -14.5425
   -14.5424 -14.5423 -14.5411  -6.1767  -6.0580  -6.0002  -3.1338  -2.7247
     3.9258   5.2434   5.8123   6.0772   6.7550   6.9770   8.7406   9.1021
     9.2138  10.0093  10.0180  10.1646  10.8293  11.0989  11.6498  12.3300
    13.0956  13.3790  13.6192  14.0577  14.3911  14.7852  15.4012  15.5282

     occupation numbers 
     1.0000   1.0000   1.0000   1.0000   1.0000   1.0000   1.0000   1.0000
     1.0000   1.0000   1.0000   1.0000   1.0000   1.0000   1.0000   1.0000
     1.0000   1.0000   1.0000   1.0000   1.0000   1.0000   1.0000   1.0000
     1.0000   1.0000   1.0000   1.0000   1.0000   1.0000  -0.0000  -0.0000
    -0.0000  -0.0000  -0.0000  -0.0000  -0.0000  -0.0000  -0.0000  -0.0000
    -0.0000  -0.0000  -0.0000  -0.0000  -0.0000  -0.0000  -0.0000  -0.0000

          k = 0.0000-0.1925-0.2958 ( 11564 PWs)   bands (ev):

   -69.0161 -69.0158 -35.7615 -35.7613 -35.7613 -35.7594 -35.7591 -35.7590
   -20.8477 -14.5728 -14.5727 -14.5711 -14.5698 -14.5611 -14.5609 -14.5428
   -14.5422 -14.5419 -14.5414  -6.1798  -6.0574  -6.0002  -2.9868  -2.8818
     4.1236   5.0754   6.0112   6.2125   6.2484   6.7300   8.7343   9.4226
     9.6846  10.0457  10.1069  10.2446  10.7207  11.2523  11.7145  12.0879
    12.7181  12.8060  13.2756  14.0799  14.2671  14.4996  15.9064  16.4682

     occupation numbers 
     1.0000   1.0000   1.0000   1.0000   1.0000   1.0000   1.0000   1.0000
     1.0000   1.0000   1.0000   1.0000   1.0000   1.0000   1.0000   1.0000
     1.0000   1.0000   1.0000   1.0000   1.0000   1.0000   1.0000   1.0000
     1.0000   1.0000   1.0000   1.0000   1.0000   1.0000  -0.0000  -0.0000
    -0.0000  -0.0000  -0.0000  -0.0000  -0.0000  -0.0000  -0.0000  -0.0000
    -0.0000  -0.0000  -0.0000  -0.0000  -0.0000  -0.0000  -0.0000  -0.0000

          k = 0.0000-0.1925-0.1479 ( 11537 PWs)   bands (ev):

   -69.0161 -69.0158 -35.7613 -35.7612 -35.7609 -35.7591 -35.7589 -35.7587
   -20.8477 -14.5729 -14.5728 -14.5711 -14.5697 -14.5611 -14.5608 -14.5430
   -14.5420 -14.5417 -14.5416  -6.1770  -6.0578  -6.0002  -3.1161  -2.7462
     3.9819   5.4179   5.6244   6.3586   6.5453   6.5463   8.5964   9.0105
     9.9055  10.0064  10.1106  10.5163  10.9737  11.5702  11.8319  12.1130
    12.2468  12.4138  12.8468  14.1209  14.7486  15.2827  15.3979  16.1393

     occupation numbers 
     1.0000   1.0000   1.0000   1.0000   1.0000   1.0000   1.0000   1.0000
     1.0000   1.0000   1.0000   1.0000   1.0000   1.0000   1.0000   1.0000
     1.0000   1.0000   1.0000   1.0000   1.0000   1.0000   1.0000   1.0000
     1.0000   1.0000   1.0000   1.0000   1.0000   1.0000  -0.0000  -0.0000
    -0.0000  -0.0000  -0.0000  -0.0000  -0.0000  -0.0000  -0.0000  -0.0000
    -0.0000  -0.0000  -0.0000  -0.0000  -0.0000  -0.0000  -0.0000  -0.0000

          k = 0.3333-0.1925 0.0000 ( 11530 PWs)   bands (ev):

   -69.0160 -69.0158 -35.7617 -35.7615 -35.7610 -35.7590 -35.7588 -35.7585
   -20.8435 -14.5734 -14.5718 -14.5707 -14.5687 -14.5601 -14.5593 -14.5432
   -14.5421 -14.5417 -14.5401  -6.1928  -6.1014  -6.0216  -2.9173  -2.6797
     3.9778   4.2942   5.1918   5.9738   6.1649   6.3716   8.2188   9.3546
    10.2173  10.3691  10.5434  11.2379  11.4134  11.9853  12.2682  12.5187
    12.9492  13.3746  13.5453  14.0036  14.8290  15.0704  15.9749  16.5214

     occupation numbers 
     1.0000   1.0000   1.0000   1.0000   1.0000   1.0000   1.0000   1.0000
     1.0000   1.0000   1.0000   1.0000   1.0000   1.0000   1.0000   1.0000
     1.0000   1.0000   1.0000   1.0000   1.0000   1.0000   1.0000   1.0000
     1.0000   1.0000   1.0000   1.0000   1.0000   1.0000  -0.0000  -0.0000
    -0.0000  -0.0000  -0.0000  -0.0000  -0.0000  -0.0000  -0.0000  -0.0000
    -0.0000  -0.0000  -0.0000  -0.0000  -0.0000  -0.0000  -0.0000  -0.0000

          k = 0.3333-0.1925 0.1479 ( 11525 PWs)   bands (ev):

   -69.0160 -69.0158 -35.7615 -35.7613 -35.7611 -35.7589 -35.7588 -35.7586
   -20.8435 -14.5740 -14.5719 -14.5701 -14.5686 -14.5599 -14.5595 -14.5435
   -14.5418 -14.5413 -14.5405  -6.1928  -6.1020  -6.0216  -2.8525  -2.7490
     3.9444   4.4329   5.1957   5.9307   6.0197   6.4201   8.2071   9.2617
    10.1767  10.5047  10.6835  11.3371  11.5278  11.8215  12.3083  12.4193
    12.6163  13.1495  13.4586  13.9148  15.4946  15.6389  16.5402  16.6208

     occupation numbers 
     1.0000   1.0000   1.0000   1.0000   1.0000   1.0000   1.0000   1.0000
     1.0000   1.0000   1.0000   1.0000   1.0000   1.0000   1.0000   1.0000
     1.0000   1.0000   1.0000   1.0000   1.0000   1.0000   1.0000   1.0000
     1.0000   1.0000   1.0000   1.0000   1.0000   1.0000  -0.0000  -0.0000
    -0.0000  -0.0000  -0.0000  -0.0000  -0.0000  -0.0000  -0.0000  -0.0000
    -0.0000  -0.0000  -0.0000  -0.0000  -0.0000  -0.0000  -0.0000  -0.0000

          k = 0.3333-0.1925-0.2958 ( 11510 PWs)   bands (ev):

   -69.0160 -69.0158 -35.7614 -35.7611 -35.7610 -35.7589 -35.7587 -35.7584
   -20.8435 -14.5736 -14.5712 -14.5705 -14.5693 -14.5600 -14.5594 -14.5433
   -14.5420 -14.5412 -14.5407  -6.1915  -6.1035  -6.0215  -2.9259  -2.6664
     3.8522   4.1295   5.6898   5.7680   6.3139   6.6762   8.4208   9.1207
     9.4185   9.5284  10.5012  10.8971  11.2263  12.3095  12.8432  13.0414
    13.1649  14.1896  14.3153  14.4415  15.0299  15.1011  15.6745  16.2868

     occupation numbers 
     1.0000   1.0000   1.0000   1.0000   1.0000   1.0000   1.0000   1.0000
     1.0000   1.0000   1.0000   1.0000   1.0000   1.0000   1.0000   1.0000
     1.0000   1.0000   1.0000   1.0000   1.0000   1.0000   1.0000   1.0000
     1.0000   1.0000   1.0000   1.0000   1.0000   1.0000  -0.0000  -0.0000
    -0.0000  -0.0000  -0.0000  -0.0000  -0.0000  -0.0000  -0.0000  -0.0000
    -0.0000  -0.0000  -0.0000  -0.0000  -0.0000  -0.0000  -0.0000  -0.0000

          k = 0.3333-0.1925-0.1479 ( 11525 PWs)   bands (ev):

   -69.0160 -69.0158 -35.7616 -35.7612 -35.7608 -35.7592 -35.7590 -35.7584
   -20.8435 -14.5725 -14.5715 -14.5709 -14.5695 -14.5601 -14.5592 -14.5429
   -14.5424 -14.5416 -14.5402  -6.1916  -6.1028  -6.0215  -2.9623  -2.6256
     3.8880   4.0358   5.5708   5.7892   6.5922   6.6491   8.3441   9.1077
     9.2707   9.8130  10.3704  10.9519  10.9758  12.4925  13.0343  13.3044
    13.5565  13.9011  13.9300  14.5684  14.6762  14.7638  15.7202  15.9101

     occupation numbers 
     1.0000   1.0000   1.0000   1.0000   1.0000   1.0000   1.0000   1.0000
     1.0000   1.0000   1.0000   1.0000   1.0000   1.0000   1.0000   1.0000
     1.0000   1.0000   1.0000   1.0000   1.0000   1.0000   1.0000   1.0000
     1.0000   1.0000   1.0000   1.0000   1.0000   1.0000  -0.0000  -0.0000
    -0.0000  -0.0000  -0.0000  -0.0000  -0.0000  -0.0000  -0.0000  -0.0000
    -0.0000  -0.0000  -0.0000  -0.0000  -0.0000  -0.0000  -0.0000  -0.0000

          k = 0.5000-0.0962 0.0000 ( 11514 PWs)   bands (ev):

   -69.0160 -69.0158 -35.7616 -35.7614 -35.7613 -35.7588 -35.7587 -35.7584
   -20.8414 -14.5731 -14.5715 -14.5698 -14.5691 -14.5594 -14.5588 -14.5430
   -14.5422 -14.5414 -14.5400  -6.2140  -6.0814  -6.0605  -2.7682  -2.6877
     3.8075   4.1005   5.1040   5.5401   5.8436   6.2015   8.9697   9.6347
    10.0398  10.3731  10.8504  11.0813  11.5019  11.7848  12.4014  12.9131
    13.3119  13.5740  14.1551  14.8218  15.0001  15.2850  15.9223  16.6060

     occupation numbers 
     1.0000   1.0000   1.0000   1.0000   1.0000   1.0000   1.0000   1.0000
     1.0000   1.0000   1.0000   1.0000   1.0000   1.0000   1.0000   1.0000
     1.0000   1.0000   1.0000   1.0000   1.0000   1.0000   1.0000   1.0000
     1.0000   1.0000   1.0000   1.0000   1.0000   1.0000  -0.0000  -0.0000
    -0.0000  -0.0000  -0.0000  -0.0000  -0.0000  -0.0000  -0.0000  -0.0000
    -0.0000  -0.0000  -0.0000  -0.0000  -0.0000  -0.0000  -0.0000  -0.0000

          k = 0.5000-0.0962 0.1479 ( 11540 PWs)   bands (ev):

   -69.0160 -69.0158 -35.7618 -35.7617 -35.7616 -35.7589 -35.7587 -35.7586
   -20.8414 -14.5736 -14.5715 -14.5701 -14.5682 -14.5593 -14.5589 -14.5431
   -14.5420 -14.5412 -14.5403  -6.2134  -6.0815  -6.0606  -2.7823  -2.6758
     3.8147   4.0818   5.2067   5.4677   5.9925   6.0980   8.8496   9.4464
     9.9019  10.3721  10.8135  11.4035  11.5111  11.9547  12.4334  12.7932
    13.0227  13.9369  14.1248  14.8004  15.2107  15.6899  15.7572  16.9225

     occupation numbers 
     1.0000   1.0000   1.0000   1.0000   1.0000   1.0000   1.0000   1.0000
     1.0000   1.0000   1.0000   1.0000   1.0000   1.0000   1.0000   1.0000
     1.0000   1.0000   1.0000   1.0000   1.0000   1.0000   1.0000   1.0000
     1.0000   1.0000   1.0000   1.0000   1.0000   1.0000  -0.0000  -0.0000
    -0.0000  -0.0000  -0.0000  -0.0000  -0.0000  -0.0000  -0.0000  -0.0000
    -0.0000  -0.0000  -0.0000  -0.0000  -0.0000  -0.0000  -0.0000  -0.0000

          k = 0.5000-0.0962-0.2958 ( 11530 PWs)   bands (ev):

   -69.0160 -69.0158 -35.7618 -35.7615 -35.7613 -35.7590 -35.7587 -35.7583
   -20.8414 -14.5736 -14.5712 -14.5710 -14.5677 -14.5593 -14.5588 -14.5430
   -14.5419 -14.5409 -14.5407  -6.2125  -6.0820  -6.0606  -2.8424  -2.6129
     3.8149   3.9390   5.3052   5.5787   5.9766   6.3017   8.6088   9.1957
     9.7559  10.1327  10.9709  11.2352  11.5130  11.8280  12.8007  13.2615
    13.4283  13.8405  14.4976  14.8468  15.0500  15.7454  15.9462  16.7253

     occupation numbers 
     1.0000   1.0000   1.0000   1.0000   1.0000   1.0000   1.0000   1.0000
     1.0000   1.0000   1.0000   1.0000   1.0000   1.0000   1.0000   1.0000
     1.0000   1.0000   1.0000   1.0000   1.0000   1.0000   1.0000   1.0000
     1.0000   1.0000   1.0000   1.0000   1.0000   1.0000  -0.0000  -0.0000
    -0.0000  -0.0000  -0.0000  -0.0000  -0.0000  -0.0000  -0.0000  -0.0000
    -0.0000  -0.0000  -0.0000  -0.0000  -0.0000  -0.0000  -0.0000  -0.0000

          k = 0.5000-0.0962-0.1479 ( 11540 PWs)   bands (ev):

   -69.0160 -69.0158 -35.7617 -35.7617 -35.7614 -35.7590 -35.7588 -35.7586
   -20.8414 -14.5729 -14.5718 -14.5704 -14.5683 -14.5594 -14.5588 -14.5429
   -14.5422 -14.5413 -14.5402  -6.2131  -6.0819  -6.0604  -2.8359  -2.6173
     3.8245   3.9288   5.2461   5.6152   5.8826   6.3426   8.6737   9.5558
     9.8923  10.0563  10.6934  10.9437  11.5247  12.2840  12.5836  13.2692
    13.4155  13.8502  14.4205  14.6611  15.2178  15.2897  15.7015  16.3765

     occupation numbers 
     1.0000   1.0000   1.0000   1.0000   1.0000   1.0000   1.0000   1.0000
     1.0000   1.0000   1.0000   1.0000   1.0000   1.0000   1.0000   1.0000
     1.0000   1.0000   1.0000   1.0000   1.0000   1.0000   1.0000   1.0000
     1.0000   1.0000   1.0000   1.0000   1.0000   1.0000  -0.0000  -0.0000
    -0.0000  -0.0000  -0.0000  -0.0000  -0.0000  -0.0000  -0.0000  -0.0000
    -0.0000  -0.0000  -0.0000  -0.0000  -0.0000  -0.0000  -0.0000  -0.0000

          k = 0.6667 0.0000 0.0000 ( 11514 PWs)   bands (ev):

   -69.0159 -69.0159 -35.7618 -35.7616 -35.7616 -35.7584 -35.7584 -35.7583
   -20.8403 -14.5716 -14.5716 -14.5705 -14.5687 -14.5589 -14.5589 -14.5424
   -14.5418 -14.5418 -14.5403  -6.1598  -6.1598  -6.0580  -2.6893  -2.6893
     3.9470   3.9470   4.5046   5.8142   5.8142   5.9347   9.7120   9.9193
     9.9193  10.2961  10.2961  10.6406  12.6375  12.6375  12.7447  12.7447
    12.9159  13.7523  13.9490  13.9490  14.9979  14.9979  15.9742  16.4099

     occupation numbers 
     1.0000   1.0000   1.0000   1.0000   1.0000   1.0000   1.0000   1.0000
     1.0000   1.0000   1.0000   1.0000   1.0000   1.0000   1.0000   1.0000
     1.0000   1.0000   1.0000   1.0000   1.0000   1.0000   1.0000   1.0000
     1.0000   1.0000   1.0000   1.0000   1.0000   1.0000  -0.0000  -0.0000
    -0.0000  -0.0000  -0.0000  -0.0000  -0.0000  -0.0000  -0.0000  -0.0000
    -0.0000  -0.0000  -0.0000  -0.0000  -0.0000  -0.0000  -0.0000  -0.0000

          k = 0.6667 0.0000 0.1479 ( 11511 PWs)   bands (ev):

   -69.0159 -69.0159 -35.7615 -35.7613 -35.7613 -35.7587 -35.7587 -35.7582
   -20.8403 -14.5719 -14.5717 -14.5717 -14.5674 -14.5588 -14.5588 -14.5422
   -14.5418 -14.5418 -14.5405  -6.1594  -6.1594  -6.0582  -2.6918  -2.6918
     3.9546   3.9546   4.6506   5.6533   5.8666   5.8666   9.3429   9.3429
    10.0822  10.7281  10.9857  10.9857  11.8911  11.8912  12.5271  13.4619
    13.4619  13.8965  13.8965  13.9562  14.8408  15.1917  15.1917  17.3304

     occupation numbers 
     1.0000   1.0000   1.0000   1.0000   1.0000   1.0000   1.0000   1.0000
     1.0000   1.0000   1.0000   1.0000   1.0000   1.0000   1.0000   1.0000
     1.0000   1.0000   1.0000   1.0000   1.0000   1.0000   1.0000   1.0000
     1.0000   1.0000   1.0000   1.0000   1.0000   1.0000  -0.0000  -0.0000
    -0.0000  -0.0000  -0.0000  -0.0000  -0.0000  -0.0000  -0.0000  -0.0000
    -0.0000  -0.0000  -0.0000  -0.0000  -0.0000  -0.0000  -0.0000  -0.0000

          k = 0.6667 0.0000-0.2958 ( 11538 PWs)   bands (ev):

   -69.0159 -69.0159 -35.7618 -35.7618 -35.7617 -35.7586 -35.7586 -35.7585
   -20.8403 -14.5727 -14.5718 -14.5718 -14.5666 -14.5587 -14.5587 -14.5419
   -14.5418 -14.5418 -14.5408  -6.1590  -6.1590  -6.0584  -2.6943  -2.6943
     3.9621   3.9621   4.9466   5.2384   5.9235   5.9235   9.0359   9.0359
    10.5416  10.7411  11.3981  11.3982  11.7442  11.7442  12.7649  12.8465
    13.0183  13.0183  14.3567  14.3567  15.1533  15.7801  15.7802  17.4618

     occupation numbers 
     1.0000   1.0000   1.0000   1.0000   1.0000   1.0000   1.0000   1.0000
     1.0000   1.0000   1.0000   1.0000   1.0000   1.0000   1.0000   1.0000
     1.0000   1.0000   1.0000   1.0000   1.0000   1.0000   1.0000   1.0000
     1.0000   1.0000   1.0000   1.0000   1.0000   1.0000  -0.0000  -0.0000
    -0.0000  -0.0000  -0.0000  -0.0000  -0.0000  -0.0000  -0.0000  -0.0000
    -0.0000  -0.0000  -0.0000  -0.0000  -0.0000  -0.0000  -0.0000  -0.0000

          k = 0.6667 0.0000-0.1479 ( 11511 PWs)   bands (ev):

   -69.0159 -69.0159 -35.7615 -35.7613 -35.7613 -35.7587 -35.7587 -35.7582
   -20.8403 -14.5719 -14.5717 -14.5717 -14.5674 -14.5588 -14.5588 -14.5422
   -14.5418 -14.5418 -14.5405  -6.1594  -6.1594  -6.0582  -2.6918  -2.6918
     3.9546   3.9546   4.6506   5.6533   5.8666   5.8666   9.3429   9.3429
    10.0822  10.7281  10.9857  10.9857  11.8911  11.8912  12.5271  13.4619
    13.4619  13.8965  13.8965  13.9562  14.8408  15.1917  15.1917  17.3302

     occupation numbers 
     1.0000   1.0000   1.0000   1.0000   1.0000   1.0000   1.0000   1.0000
     1.0000   1.0000   1.0000   1.0000   1.0000   1.0000   1.0000   1.0000
     1.0000   1.0000   1.0000   1.0000   1.0000   1.0000   1.0000   1.0000
     1.0000   1.0000   1.0000   1.0000   1.0000   1.0000  -0.0000  -0.0000
    -0.0000  -0.0000  -0.0000  -0.0000  -0.0000  -0.0000  -0.0000  -0.0000
    -0.0000  -0.0000  -0.0000  -0.0000  -0.0000  -0.0000  -0.0000  -0.0000

          k =-0.1667-0.4811 0.0000 ( 11514 PWs)   bands (ev):

   -69.0160 -69.0158 -35.7616 -35.7614 -35.7613 -35.7588 -35.7587 -35.7584
   -20.8414 -14.5731 -14.5715 -14.5698 -14.5691 -14.5594 -14.5588 -14.5430
   -14.5422 -14.5414 -14.5400  -6.2140  -6.0814  -6.0605  -2.7682  -2.6877
     3.8075   4.1005   5.1040   5.5401   5.8436   6.2015   8.9697   9.6347
    10.0397  10.3731  10.8504  11.0813  11.5019  11.7848  12.4014  12.9131
    13.3119  13.5740  14.1551  14.8218  15.0001  15.2850  15.9223  16.6061

     occupation numbers 
     1.0000   1.0000   1.0000   1.0000   1.0000   1.0000   1.0000   1.0000
     1.0000   1.0000   1.0000   1.0000   1.0000   1.0000   1.0000   1.0000
     1.0000   1.0000   1.0000   1.0000   1.0000   1.0000   1.0000   1.0000
     1.0000   1.0000   1.0000   1.0000   1.0000   1.0000  -0.0000  -0.0000
    -0.0000  -0.0000  -0.0000  -0.0000  -0.0000  -0.0000  -0.0000  -0.0000
    -0.0000  -0.0000  -0.0000  -0.0000  -0.0000  -0.0000  -0.0000  -0.0000

          k =-0.1667-0.4811 0.1479 ( 11540 PWs)   bands (ev):

   -69.0160 -69.0158 -35.7617 -35.7617 -35.7614 -35.7590 -35.7588 -35.7586
   -20.8414 -14.5729 -14.5718 -14.5704 -14.5683 -14.5594 -14.5588 -14.5429
   -14.5422 -14.5413 -14.5402  -6.2131  -6.0819  -6.0604  -2.8359  -2.6173
     3.8245   3.9288   5.2461   5.6152   5.8826   6.3426   8.6737   9.5558
     9.8923  10.0563  10.6934  10.9437  11.5247  12.2840  12.5836  13.2692
    13.4155  13.8502  14.4205  14.6611  15.2178  15.2898  15.7015  16.3764

     occupation numbers 
     1.0000   1.0000   1.0000   1.0000   1.0000   1.0000   1.0000   1.0000
     1.0000   1.0000   1.0000   1.0000   1.0000   1.0000   1.0000   1.0000
     1.0000   1.0000   1.0000   1.0000   1.0000   1.0000   1.0000   1.0000
     1.0000   1.0000   1.0000   1.0000   1.0000   1.0000  -0.0000  -0.0000
    -0.0000  -0.0000  -0.0000  -0.0000  -0.0000  -0.0000  -0.0000  -0.0000
    -0.0000  -0.0000  -0.0000  -0.0000  -0.0000  -0.0000  -0.0000  -0.0000

          k =-0.1667-0.4811-0.2958 ( 11530 PWs)   bands (ev):

   -69.0160 -69.0158 -35.7618 -35.7615 -35.7613 -35.7590 -35.7587 -35.7583
   -20.8414 -14.5736 -14.5712 -14.5710 -14.5677 -14.5593 -14.5588 -14.5430
   -14.5419 -14.5409 -14.5407  -6.2125  -6.0820  -6.0606  -2.8424  -2.6129
     3.8149   3.9390   5.3052   5.5787   5.9766   6.3017   8.6088   9.1957
     9.7559  10.1327  10.9709  11.2352  11.5130  11.8280  12.8007  13.2615
    13.4283  13.8405  14.4976  14.8468  15.0500  15.7454  15.9462  16.7249

     occupation numbers 
     1.0000   1.0000   1.0000   1.0000   1.0000   1.0000   1.0000   1.0000
     1.0000   1.0000   1.0000   1.0000   1.0000   1.0000   1.0000   1.0000
     1.0000   1.0000   1.0000   1.0000   1.0000   1.0000   1.0000   1.0000
     1.0000   1.0000   1.0000   1.0000   1.0000   1.0000  -0.0000  -0.0000
    -0.0000  -0.0000  -0.0000  -0.0000  -0.0000  -0.0000  -0.0000  -0.0000
    -0.0000  -0.0000  -0.0000  -0.0000  -0.0000  -0.0000  -0.0000  -0.0000

          k =-0.1667-0.4811-0.1479 ( 11540 PWs)   bands (ev):

   -69.0160 -69.0158 -35.7618 -35.7617 -35.7616 -35.7589 -35.7587 -35.7586
   -20.8414 -14.5736 -14.5715 -14.5701 -14.5682 -14.5593 -14.5589 -14.5431
   -14.5420 -14.5412 -14.5403  -6.2134  -6.0815  -6.0606  -2.7823  -2.6758
     3.8148   4.0818   5.2067   5.4677   5.9925   6.0980   8.8496   9.4464
     9.9019  10.3721  10.8135  11.4035  11.5111  11.9547  12.4334  12.7932
    13.0227  13.9369  14.1248  14.8004  15.2107  15.6899  15.7572  16.9224

     occupation numbers 
     1.0000   1.0000   1.0000   1.0000   1.0000   1.0000   1.0000   1.0000
     1.0000   1.0000   1.0000   1.0000   1.0000   1.0000   1.0000   1.0000
     1.0000   1.0000   1.0000   1.0000   1.0000   1.0000   1.0000   1.0000
     1.0000   1.0000   1.0000   1.0000   1.0000   1.0000  -0.0000  -0.0000
    -0.0000  -0.0000  -0.0000  -0.0000  -0.0000  -0.0000  -0.0000  -0.0000
    -0.0000  -0.0000  -0.0000  -0.0000  -0.0000  -0.0000  -0.0000  -0.0000

          k =-0.0000-0.3849 0.0000 ( 11530 PWs)   bands (ev):

   -69.0160 -69.0158 -35.7617 -35.7615 -35.7610 -35.7590 -35.7588 -35.7585
   -20.8435 -14.5734 -14.5718 -14.5707 -14.5687 -14.5601 -14.5593 -14.5432
   -14.5421 -14.5417 -14.5401  -6.1928  -6.1014  -6.0216  -2.9173  -2.6797
     3.9778   4.2942   5.1918   5.9738   6.1649   6.3716   8.2188   9.3546
    10.2173  10.3691  10.5434  11.2379  11.4134  11.9853  12.2682  12.5187
    12.9492  13.3746  13.5453  14.0036  14.8290  15.0704  15.9748  16.5214

     occupation numbers 
     1.0000   1.0000   1.0000   1.0000   1.0000   1.0000   1.0000   1.0000
     1.0000   1.0000   1.0000   1.0000   1.0000   1.0000   1.0000   1.0000
     1.0000   1.0000   1.0000   1.0000   1.0000   1.0000   1.0000   1.0000
     1.0000   1.0000   1.0000   1.0000   1.0000   1.0000  -0.0000  -0.0000
    -0.0000  -0.0000  -0.0000  -0.0000  -0.0000  -0.0000  -0.0000  -0.0000
    -0.0000  -0.0000  -0.0000  -0.0000  -0.0000  -0.0000  -0.0000  -0.0000

          k =-0.0000-0.3849 0.1479 ( 11525 PWs)   bands (ev):

   -69.0160 -69.0158 -35.7616 -35.7612 -35.7608 -35.7592 -35.7590 -35.7584
   -20.8435 -14.5725 -14.5715 -14.5709 -14.5695 -14.5601 -14.5592 -14.5429
   -14.5424 -14.5416 -14.5402  -6.1916  -6.1028  -6.0215  -2.9623  -2.6256
     3.8880   4.0358   5.5708   5.7892   6.5922   6.6491   8.3441   9.1077
     9.2707   9.8130  10.3704  10.9519  10.9758  12.4925  13.0343  13.3044
    13.5565  13.9011  13.9300  14.5684  14.6762  14.7638  15.7202  15.9101

     occupation numbers 
     1.0000   1.0000   1.0000   1.0000   1.0000   1.0000   1.0000   1.0000
     1.0000   1.0000   1.0000   1.0000   1.0000   1.0000   1.0000   1.0000
     1.0000   1.0000   1.0000   1.0000   1.0000   1.0000   1.0000   1.0000
     1.0000   1.0000   1.0000   1.0000   1.0000   1.0000  -0.0000  -0.0000
    -0.0000  -0.0000  -0.0000  -0.0000  -0.0000  -0.0000  -0.0000  -0.0000
    -0.0000  -0.0000  -0.0000  -0.0000  -0.0000  -0.0000  -0.0000  -0.0000

          k =-0.0000-0.3849-0.2958 ( 11510 PWs)   bands (ev):

   -69.0160 -69.0158 -35.7614 -35.7611 -35.7610 -35.7589 -35.7587 -35.7584
   -20.8435 -14.5736 -14.5712 -14.5705 -14.5693 -14.5600 -14.5594 -14.5433
   -14.5420 -14.5412 -14.5407  -6.1915  -6.1035  -6.0215  -2.9259  -2.6664
     3.8522   4.1295   5.6898   5.7680   6.3139   6.6762   8.4208   9.1207
     9.4185   9.5284  10.5012  10.8971  11.2263  12.3095  12.8432  13.0414
    13.1650  14.1896  14.3153  14.4415  15.0298  15.1011  15.6745  16.2868

     occupation numbers 
     1.0000   1.0000   1.0000   1.0000   1.0000   1.0000   1.0000   1.0000
     1.0000   1.0000   1.0000   1.0000   1.0000   1.0000   1.0000   1.0000
     1.0000   1.0000   1.0000   1.0000   1.0000   1.0000   1.0000   1.0000
     1.0000   1.0000   1.0000   1.0000   1.0000   1.0000  -0.0000  -0.0000
    -0.0000  -0.0000  -0.0000  -0.0000  -0.0000  -0.0000  -0.0000  -0.0000
    -0.0000  -0.0000  -0.0000  -0.0000  -0.0000  -0.0000  -0.0000  -0.0000

          k =-0.0000-0.3849-0.1479 ( 11525 PWs)   bands (ev):

   -69.0160 -69.0158 -35.7615 -35.7613 -35.7611 -35.7589 -35.7588 -35.7586
   -20.8435 -14.5740 -14.5719 -14.5701 -14.5686 -14.5599 -14.5595 -14.5435
   -14.5418 -14.5413 -14.5405  -6.1928  -6.1020  -6.0216  -2.8525  -2.7490
     3.9444   4.4329   5.1957   5.9307   6.0197   6.4201   8.2071   9.2617
    10.1767  10.5047  10.6835  11.3371  11.5278  11.8215  12.3083  12.4193
    12.6163  13.1496  13.4586  13.9148  15.4946  15.6389  16.5402  16.6208

     occupation numbers 
     1.0000   1.0000   1.0000   1.0000   1.0000   1.0000   1.0000   1.0000
     1.0000   1.0000   1.0000   1.0000   1.0000   1.0000   1.0000   1.0000
     1.0000   1.0000   1.0000   1.0000   1.0000   1.0000   1.0000   1.0000
     1.0000   1.0000   1.0000   1.0000   1.0000   1.0000  -0.0000  -0.0000
    -0.0000  -0.0000  -0.0000  -0.0000  -0.0000  -0.0000  -0.0000  -0.0000
    -0.0000  -0.0000  -0.0000  -0.0000  -0.0000  -0.0000  -0.0000  -0.0000

          k = 0.1667-0.2887 0.0000 ( 11513 PWs)   bands (ev):

   -69.0160 -69.0158 -35.7615 -35.7613 -35.7612 -35.7586 -35.7585 -35.7585
   -20.8445 -14.5736 -14.5713 -14.5702 -14.5699 -14.5603 -14.5598 -14.5428
   -14.5426 -14.5414 -14.5406  -6.1429  -6.1273  -6.0274  -2.9879  -2.6731
     4.0286   4.7074   5.0436   5.7862   6.1150   6.7176   8.9005   9.2831
     9.6840  10.3194  10.4620  11.1783  11.3440  11.7705  11.9573  12.0671
    13.1224  13.1277  13.3026  14.3846  14.9091  15.0537  16.0249  16.2572

     occupation numbers 
     1.0000   1.0000   1.0000   1.0000   1.0000   1.0000   1.0000   1.0000
     1.0000   1.0000   1.0000   1.0000   1.0000   1.0000   1.0000   1.0000
     1.0000   1.0000   1.0000   1.0000   1.0000   1.0000   1.0000   1.0000
     1.0000   1.0000   1.0000   1.0000   1.0000   1.0000  -0.0000  -0.0000
    -0.0000  -0.0000  -0.0000  -0.0000  -0.0000  -0.0000  -0.0000  -0.0000
    -0.0000  -0.0000  -0.0000  -0.0000  -0.0000  -0.0000  -0.0000  -0.0000

          k = 0.1667-0.2887 0.1479 ( 11553 PWs)   bands (ev):

   -69.0160 -69.0158 -35.7617 -35.7616 -35.7616 -35.7590 -35.7589 -35.7588
   -20.8445 -14.5731 -14.5717 -14.5707 -14.5694 -14.5602 -14.5598 -14.5429
   -14.5423 -14.5415 -14.5407  -6.1422  -6.1289  -6.0273  -2.9606  -2.7008
     3.9889   4.5169   5.3958   5.8120   6.2227   6.5303   8.8416   9.3954
     9.7856   9.9735  10.3677  10.7917  11.3374  11.4610  12.1032  12.7579
    12.8556  13.6351  13.7323  14.0352  15.0354  15.3983  15.6398  16.5043

     occupation numbers 
     1.0000   1.0000   1.0000   1.0000   1.0000   1.0000   1.0000   1.0000
     1.0000   1.0000   1.0000   1.0000   1.0000   1.0000   1.0000   1.0000
     1.0000   1.0000   1.0000   1.0000   1.0000   1.0000   1.0000   1.0000
     1.0000   1.0000   1.0000   1.0000   1.0000   1.0000  -0.0000  -0.0000
    -0.0000  -0.0000  -0.0000  -0.0000  -0.0000  -0.0000  -0.0000  -0.0000
    -0.0000  -0.0000  -0.0000  -0.0000  -0.0000  -0.0000  -0.0000  -0.0000

          k = 0.1667-0.2887-0.2958 ( 11552 PWs)   bands (ev):

   -69.0160 -69.0158 -35.7617 -35.7615 -35.7613 -35.7592 -35.7589 -35.7589
   -20.8445 -14.5723 -14.5718 -14.5717 -14.5691 -14.5600 -14.5600 -14.5429
   -14.5422 -14.5414 -14.5410  -6.1413  -6.1307  -6.0273  -2.9257  -2.7361
     3.9594   4.3967   5.8055   5.9500   6.1031   6.3102   8.9929   9.1933
     9.8809   9.9498  10.0311  10.7726  11.2288  11.2853  12.0327  12.9532
    13.2241  13.5328  14.0932  14.8452  14.8577  15.4191  15.5137  16.0790

     occupation numbers 
     1.0000   1.0000   1.0000   1.0000   1.0000   1.0000   1.0000   1.0000
     1.0000   1.0000   1.0000   1.0000   1.0000   1.0000   1.0000   1.0000
     1.0000   1.0000   1.0000   1.0000   1.0000   1.0000   1.0000   1.0000
     1.0000   1.0000   1.0000   1.0000   1.0000   1.0000  -0.0000  -0.0000
    -0.0000  -0.0000  -0.0000  -0.0000  -0.0000  -0.0000  -0.0000  -0.0000
    -0.0000  -0.0000  -0.0000  -0.0000  -0.0000  -0.0000  -0.0000  -0.0000

          k = 0.1667-0.2887-0.1479 ( 11553 PWs)   bands (ev):

   -69.0160 -69.0158 -35.7617 -35.7616 -35.7616 -35.7590 -35.7589 -35.7588
   -20.8445 -14.5731 -14.5717 -14.5707 -14.5694 -14.5602 -14.5598 -14.5429
   -14.5423 -14.5415 -14.5407  -6.1422  -6.1289  -6.0273  -2.9606  -2.7008
     3.9889   4.5169   5.3958   5.8120   6.2227   6.5303   8.8416   9.3953
     9.7856   9.9735  10.3677  10.7917  11.3374  11.4610  12.1032  12.7579
    12.8556  13.6351  13.7323  14.0352  15.0354  15.3983  15.6398  16.5044

     occupation numbers 
     1.0000   1.0000   1.0000   1.0000   1.0000   1.0000   1.0000   1.0000
     1.0000   1.0000   1.0000   1.0000   1.0000   1.0000   1.0000   1.0000
     1.0000   1.0000   1.0000   1.0000   1.0000   1.0000   1.0000   1.0000
     1.0000   1.0000   1.0000   1.0000   1.0000   1.0000  -0.0000  -0.0000
    -0.0000  -0.0000  -0.0000  -0.0000  -0.0000  -0.0000  -0.0000  -0.0000
    -0.0000  -0.0000  -0.0000  -0.0000  -0.0000  -0.0000  -0.0000  -0.0000

          k =-0.5000 0.2887 0.0000 ( 11530 PWs)   bands (ev):

   -69.0160 -69.0158 -35.7618 -35.7613 -35.7611 -35.7592 -35.7590 -35.7586
   -20.8414 -14.5732 -14.5715 -14.5710 -14.5680 -14.5595 -14.5585 -14.5433
   -14.5423 -14.5412 -14.5395  -6.2510  -6.0686  -6.0322  -2.7754  -2.6859
     3.5875   4.1214   5.5523   5.6527   5.9008   6.1688   7.9818   9.6919
     9.8043  10.6559  11.3999  11.5811  11.5984  11.7119  11.9381  12.5341
    12.6939  14.4327  14.7480  15.0153  15.4331  15.4631  15.5336  16.6097

     occupation numbers 
     1.0000   1.0000   1.0000   1.0000   1.0000   1.0000   1.0000   1.0000
     1.0000   1.0000   1.0000   1.0000   1.0000   1.0000   1.0000   1.0000
     1.0000   1.0000   1.0000   1.0000   1.0000   1.0000   1.0000   1.0000
     1.0000   1.0000   1.0000   1.0000   1.0000   1.0000  -0.0000  -0.0000
    -0.0000  -0.0000  -0.0000  -0.0000  -0.0000  -0.0000  -0.0000  -0.0000
    -0.0000  -0.0000  -0.0000  -0.0000  -0.0000  -0.0000  -0.0000  -0.0000

          k =-0.5000 0.2887 0.1479 ( 11496 PWs)   bands (ev):

   -69.0160 -69.0158 -35.7615 -35.7611 -35.7609 -35.7589 -35.7585 -35.7584
   -20.8414 -14.5741 -14.5711 -14.5702 -14.5684 -14.5595 -14.5586 -14.5434
   -14.5421 -14.5410 -14.5398  -6.2501  -6.0689  -6.0322  -2.8507  -2.6065
     3.6176   3.9502   5.4907   5.6992   6.0827   6.4455   8.0749   9.2052
     9.6015  10.0747  10.8079  11.4083  11.6046  12.2831  12.6178  12.9246
    13.4350  14.6692  14.9751  14.9943  15.1764  15.2767  15.8738  16.2022

     occupation numbers 
     1.0000   1.0000   1.0000   1.0000   1.0000   1.0000   1.0000   1.0000
     1.0000   1.0000   1.0000   1.0000   1.0000   1.0000   1.0000   1.0000
     1.0000   1.0000   1.0000   1.0000   1.0000   1.0000   1.0000   1.0000
     1.0000   1.0000   1.0000   1.0000   1.0000   1.0000  -0.0000  -0.0000
    -0.0000  -0.0000  -0.0000  -0.0000  -0.0000  -0.0000  -0.0000  -0.0000
    -0.0000  -0.0000  -0.0000  -0.0000  -0.0000  -0.0000  -0.0000  -0.0000

          k =-0.5000 0.2887-0.2958 ( 11528 PWs)   bands (ev):

   -69.0160 -69.0158 -35.7620 -35.7618 -35.7609 -35.7588 -35.7588 -35.7586
   -20.8414 -14.5746 -14.5702 -14.5696 -14.5692 -14.5595 -14.5586 -14.5435
   -14.5420 -14.5405 -14.5404  -6.2492  -6.0693  -6.0321  -2.8936  -2.5596
     3.6209   3.8548   5.4255   5.5923   6.5653   6.6347   8.2090   8.7083
     9.1906   9.8575  10.4268  11.4141  11.6110  12.5010  13.1392  13.8574
    13.9558  14.1737  14.9490  15.1229  15.2062  15.4019  15.9527  16.3409

     occupation numbers 
     1.0000   1.0000   1.0000   1.0000   1.0000   1.0000   1.0000   1.0000
     1.0000   1.0000   1.0000   1.0000   1.0000   1.0000   1.0000   1.0000
     1.0000   1.0000   1.0000   1.0000   1.0000   1.0000   1.0000   1.0000
     1.0000   1.0000   1.0000   1.0000   1.0000   1.0000  -0.0000  -0.0000
    -0.0000  -0.0000  -0.0000  -0.0000  -0.0000  -0.0000  -0.0000  -0.0000
    -0.0000  -0.0000  -0.0000  -0.0000  -0.0000  -0.0000  -0.0000  -0.0000

          k =-0.5000 0.2887-0.1479 ( 11496 PWs)   bands (ev):

   -69.0160 -69.0158 -35.7615 -35.7611 -35.7609 -35.7589 -35.7585 -35.7584
   -20.8414 -14.5741 -14.5711 -14.5702 -14.5684 -14.5595 -14.5586 -14.5434
   -14.5421 -14.5410 -14.5398  -6.2501  -6.0689  -6.0322  -2.8507  -2.6065
     3.6176   3.9502   5.4907   5.6992   6.0827   6.4455   8.0749   9.2052
     9.6015  10.0747  10.8079  11.4083  11.6046  12.2831  12.6178  12.9246
    13.4350  14.6692  14.9751  14.9943  15.1764  15.2767  15.8738  16.2022

     occupation numbers 
     1.0000   1.0000   1.0000   1.0000   1.0000   1.0000   1.0000   1.0000
     1.0000   1.0000   1.0000   1.0000   1.0000   1.0000   1.0000   1.0000
     1.0000   1.0000   1.0000   1.0000   1.0000   1.0000   1.0000   1.0000
     1.0000   1.0000   1.0000   1.0000   1.0000   1.0000  -0.0000  -0.0000
    -0.0000  -0.0000  -0.0000  -0.0000  -0.0000  -0.0000  -0.0000  -0.0000
    -0.0000  -0.0000  -0.0000  -0.0000  -0.0000  -0.0000  -0.0000  -0.0000

          k =-0.3333 0.3849 0.0000 ( 11514 PWs)   bands (ev):

   -69.0160 -69.0158 -35.7616 -35.7614 -35.7613 -35.7588 -35.7587 -35.7583
   -20.8414 -14.5731 -14.5715 -14.5698 -14.5691 -14.5594 -14.5588 -14.5430
   -14.5422 -14.5414 -14.5400  -6.2140  -6.0814  -6.0605  -2.7682  -2.6877
     3.8075   4.1005   5.1040   5.5401   5.8436   6.2015   8.9697   9.6347
    10.0398  10.3731  10.8504  11.0813  11.5019  11.7848  12.4014  12.9131
    13.3119  13.5740  14.1551  14.8218  15.0001  15.2850  15.9223  16.6060

     occupation numbers 
     1.0000   1.0000   1.0000   1.0000   1.0000   1.0000   1.0000   1.0000
     1.0000   1.0000   1.0000   1.0000   1.0000   1.0000   1.0000   1.0000
     1.0000   1.0000   1.0000   1.0000   1.0000   1.0000   1.0000   1.0000
     1.0000   1.0000   1.0000   1.0000   1.0000   1.0000  -0.0000  -0.0000
    -0.0000  -0.0000  -0.0000  -0.0000  -0.0000  -0.0000  -0.0000  -0.0000
    -0.0000  -0.0000  -0.0000  -0.0000  -0.0000  -0.0000  -0.0000  -0.0000

          k =-0.3333 0.3849 0.1479 ( 11540 PWs)   bands (ev):

   -69.0160 -69.0158 -35.7617 -35.7617 -35.7614 -35.7590 -35.7588 -35.7586
   -20.8414 -14.5729 -14.5718 -14.5704 -14.5683 -14.5594 -14.5588 -14.5429
   -14.5422 -14.5413 -14.5402  -6.2131  -6.0819  -6.0604  -2.8359  -2.6173
     3.8245   3.9288   5.2461   5.6152   5.8826   6.3426   8.6737   9.5558
     9.8923  10.0563  10.6934  10.9437  11.5247  12.2840  12.5836  13.2692
    13.4155  13.8502  14.4205  14.6611  15.2178  15.2898  15.7015  16.3764

     occupation numbers 
     1.0000   1.0000   1.0000   1.0000   1.0000   1.0000   1.0000   1.0000
     1.0000   1.0000   1.0000   1.0000   1.0000   1.0000   1.0000   1.0000
     1.0000   1.0000   1.0000   1.0000   1.0000   1.0000   1.0000   1.0000
     1.0000   1.0000   1.0000   1.0000   1.0000   1.0000  -0.0000  -0.0000
    -0.0000  -0.0000  -0.0000  -0.0000  -0.0000  -0.0000  -0.0000  -0.0000
    -0.0000  -0.0000  -0.0000  -0.0000  -0.0000  -0.0000  -0.0000  -0.0000

          k =-0.3333 0.3849-0.2958 ( 11530 PWs)   bands (ev):

   -69.0160 -69.0158 -35.7618 -35.7615 -35.7613 -35.7590 -35.7587 -35.7583
   -20.8414 -14.5736 -14.5712 -14.5710 -14.5677 -14.5593 -14.5588 -14.5430
   -14.5419 -14.5409 -14.5407  -6.2125  -6.0820  -6.0606  -2.8424  -2.6129
     3.8149   3.9390   5.3052   5.5787   5.9766   6.3017   8.6088   9.1957
     9.7559  10.1327  10.9709  11.2352  11.5130  11.8280  12.8007  13.2615
    13.4283  13.8405  14.4976  14.8468  15.0500  15.7454  15.9463  16.7250

     occupation numbers 
     1.0000   1.0000   1.0000   1.0000   1.0000   1.0000   1.0000   1.0000
     1.0000   1.0000   1.0000   1.0000   1.0000   1.0000   1.0000   1.0000
     1.0000   1.0000   1.0000   1.0000   1.0000   1.0000   1.0000   1.0000
     1.0000   1.0000   1.0000   1.0000   1.0000   1.0000  -0.0000  -0.0000
    -0.0000  -0.0000  -0.0000  -0.0000  -0.0000  -0.0000  -0.0000  -0.0000
    -0.0000  -0.0000  -0.0000  -0.0000  -0.0000  -0.0000  -0.0000  -0.0000

          k =-0.3333 0.3849-0.1479 ( 11540 PWs)   bands (ev):

   -69.0160 -69.0158 -35.7618 -35.7617 -35.7616 -35.7589 -35.7587 -35.7586
   -20.8414 -14.5736 -14.5715 -14.5701 -14.5682 -14.5593 -14.5589 -14.5431
   -14.5420 -14.5412 -14.5403  -6.2134  -6.0815  -6.0606  -2.7823  -2.6758
     3.8148   4.0818   5.2067   5.4677   5.9925   6.0980   8.8496   9.4464
     9.9019  10.3721  10.8135  11.4035  11.5111  11.9547  12.4334  12.7932
    13.0227  13.9369  14.1248  14.8004  15.2107  15.6899  15.7572  16.9224

     occupation numbers 
     1.0000   1.0000   1.0000   1.0000   1.0000   1.0000   1.0000   1.0000
     1.0000   1.0000   1.0000   1.0000   1.0000   1.0000   1.0000   1.0000
     1.0000   1.0000   1.0000   1.0000   1.0000   1.0000   1.0000   1.0000
     1.0000   1.0000   1.0000   1.0000   1.0000   1.0000  -0.0000  -0.0000
    -0.0000  -0.0000  -0.0000  -0.0000  -0.0000  -0.0000  -0.0000  -0.0000
    -0.0000  -0.0000  -0.0000  -0.0000  -0.0000  -0.0000  -0.0000  -0.0000

          k =-0.1667 0.4811 0.0000 ( 11514 PWs)   bands (ev):

   -69.0160 -69.0158 -35.7616 -35.7614 -35.7613 -35.7588 -35.7587 -35.7584
   -20.8414 -14.5731 -14.5715 -14.5698 -14.5691 -14.5594 -14.5588 -14.5430
   -14.5422 -14.5414 -14.5400  -6.2140  -6.0814  -6.0605  -2.7682  -2.6877
     3.8075   4.1005   5.1040   5.5401   5.8436   6.2015   8.9697   9.6347
    10.0397  10.3731  10.8504  11.0813  11.5019  11.7848  12.4014  12.9131
    13.3119  13.5740  14.1551  14.8218  15.0001  15.2850  15.9223  16.6060

     occupation numbers 
     1.0000   1.0000   1.0000   1.0000   1.0000   1.0000   1.0000   1.0000
     1.0000   1.0000   1.0000   1.0000   1.0000   1.0000   1.0000   1.0000
     1.0000   1.0000   1.0000   1.0000   1.0000   1.0000   1.0000   1.0000
     1.0000   1.0000   1.0000   1.0000   1.0000   1.0000  -0.0000  -0.0000
    -0.0000  -0.0000  -0.0000  -0.0000  -0.0000  -0.0000  -0.0000  -0.0000
    -0.0000  -0.0000  -0.0000  -0.0000  -0.0000  -0.0000  -0.0000  -0.0000

          k =-0.1667 0.4811 0.1479 ( 11540 PWs)   bands (ev):

   -69.0160 -69.0158 -35.7618 -35.7617 -35.7616 -35.7589 -35.7587 -35.7586
   -20.8414 -14.5736 -14.5715 -14.5701 -14.5682 -14.5593 -14.5589 -14.5431
   -14.5420 -14.5412 -14.5403  -6.2134  -6.0815  -6.0606  -2.7823  -2.6758
     3.8148   4.0818   5.2067   5.4677   5.9925   6.0980   8.8496   9.4464
     9.9019  10.3721  10.8135  11.4035  11.5111  11.9547  12.4334  12.7932
    13.0227  13.9369  14.1248  14.8004  15.2107  15.6899  15.7572  16.9225

     occupation numbers 
     1.0000   1.0000   1.0000   1.0000   1.0000   1.0000   1.0000   1.0000
     1.0000   1.0000   1.0000   1.0000   1.0000   1.0000   1.0000   1.0000
     1.0000   1.0000   1.0000   1.0000   1.0000   1.0000   1.0000   1.0000
     1.0000   1.0000   1.0000   1.0000   1.0000   1.0000  -0.0000  -0.0000
    -0.0000  -0.0000  -0.0000  -0.0000  -0.0000  -0.0000  -0.0000  -0.0000
    -0.0000  -0.0000  -0.0000  -0.0000  -0.0000  -0.0000  -0.0000  -0.0000

          k =-0.1667 0.4811-0.2958 ( 11530 PWs)   bands (ev):

   -69.0160 -69.0158 -35.7618 -35.7615 -35.7613 -35.7590 -35.7587 -35.7583
   -20.8414 -14.5736 -14.5712 -14.5710 -14.5677 -14.5593 -14.5588 -14.5430
   -14.5419 -14.5409 -14.5407  -6.2125  -6.0820  -6.0606  -2.8424  -2.6129
     3.8149   3.9390   5.3052   5.5787   5.9766   6.3017   8.6088   9.1957
     9.7559  10.1327  10.9709  11.2352  11.5130  11.8280  12.8007  13.2615
    13.4283  13.8405  14.4976  14.8468  15.0500  15.7454  15.9462  16.7251

     occupation numbers 
     1.0000   1.0000   1.0000   1.0000   1.0000   1.0000   1.0000   1.0000
     1.0000   1.0000   1.0000   1.0000   1.0000   1.0000   1.0000   1.0000
     1.0000   1.0000   1.0000   1.0000   1.0000   1.0000   1.0000   1.0000
     1.0000   1.0000   1.0000   1.0000   1.0000   1.0000  -0.0000  -0.0000
    -0.0000  -0.0000  -0.0000  -0.0000  -0.0000  -0.0000  -0.0000  -0.0000
    -0.0000  -0.0000  -0.0000  -0.0000  -0.0000  -0.0000  -0.0000  -0.0000

          k =-0.1667 0.4811-0.1479 ( 11540 PWs)   bands (ev):

   -69.0160 -69.0158 -35.7617 -35.7617 -35.7614 -35.7590 -35.7588 -35.7586
   -20.8414 -14.5729 -14.5718 -14.5704 -14.5683 -14.5594 -14.5588 -14.5429
   -14.5422 -14.5413 -14.5402  -6.2131  -6.0819  -6.0604  -2.8359  -2.6173
     3.8245   3.9288   5.2461   5.6152   5.8826   6.3426   8.6737   9.5558
     9.8923  10.0563  10.6934  10.9437  11.5247  12.2840  12.5836  13.2692
    13.4155  13.8502  14.4205  14.6611  15.2178  15.2898  15.7015  16.3764

     occupation numbers 
     1.0000   1.0000   1.0000   1.0000   1.0000   1.0000   1.0000   1.0000
     1.0000   1.0000   1.0000   1.0000   1.0000   1.0000   1.0000   1.0000
     1.0000   1.0000   1.0000   1.0000   1.0000   1.0000   1.0000   1.0000
     1.0000   1.0000   1.0000   1.0000   1.0000   1.0000  -0.0000  -0.0000
    -0.0000  -0.0000  -0.0000  -0.0000  -0.0000  -0.0000  -0.0000  -0.0000
    -0.0000  -0.0000  -0.0000  -0.0000  -0.0000  -0.0000  -0.0000  -0.0000

          k =-1.0000 0.0000 0.0000 ( 11530 PWs)   bands (ev):

   -69.0160 -69.0158 -35.7618 -35.7613 -35.7611 -35.7592 -35.7590 -35.7586
   -20.8414 -14.5732 -14.5716 -14.5710 -14.5680 -14.5595 -14.5585 -14.5433
   -14.5423 -14.5412 -14.5395  -6.2510  -6.0686  -6.0322  -2.7754  -2.6859
     3.5875   4.1214   5.5522   5.6527   5.9008   6.1688   7.9818   9.6919
     9.8043  10.6559  11.3999  11.5811  11.5984  11.7119  11.9381  12.5341
    12.6939  14.4327  14.7480  15.0153  15.4331  15.4631  15.5336  16.6096

     occupation numbers 
     1.0000   1.0000   1.0000   1.0000   1.0000   1.0000   1.0000   1.0000
     1.0000   1.0000   1.0000   1.0000   1.0000   1.0000   1.0000   1.0000
     1.0000   1.0000   1.0000   1.0000   1.0000   1.0000   1.0000   1.0000
     1.0000   1.0000   1.0000   1.0000   1.0000   1.0000  -0.0000  -0.0000
    -0.0000  -0.0000  -0.0000  -0.0000  -0.0000  -0.0000  -0.0000  -0.0000
    -0.0000  -0.0000  -0.0000  -0.0000  -0.0000  -0.0000  -0.0000  -0.0000

          k =-1.0000 0.0000 0.1479 ( 11496 PWs)   bands (ev):

   -69.0160 -69.0158 -35.7615 -35.7611 -35.7609 -35.7589 -35.7585 -35.7584
   -20.8414 -14.5741 -14.5711 -14.5702 -14.5684 -14.5595 -14.5586 -14.5434
   -14.5421 -14.5410 -14.5398  -6.2501  -6.0689  -6.0322  -2.8507  -2.6065
     3.6176   3.9502   5.4907   5.6992   6.0827   6.4455   8.0749   9.2052
     9.6015  10.0747  10.8079  11.4083  11.6046  12.2831  12.6178  12.9245
    13.4350  14.6692  14.9751  14.9943  15.1764  15.2768  15.8738  16.2022

     occupation numbers 
     1.0000   1.0000   1.0000   1.0000   1.0000   1.0000   1.0000   1.0000
     1.0000   1.0000   1.0000   1.0000   1.0000   1.0000   1.0000   1.0000
     1.0000   1.0000   1.0000   1.0000   1.0000   1.0000   1.0000   1.0000
     1.0000   1.0000   1.0000   1.0000   1.0000   1.0000  -0.0000  -0.0000
    -0.0000  -0.0000  -0.0000  -0.0000  -0.0000  -0.0000  -0.0000  -0.0000
    -0.0000  -0.0000  -0.0000  -0.0000  -0.0000  -0.0000  -0.0000  -0.0000

          k =-1.0000 0.0000-0.2958 ( 11528 PWs)   bands (ev):

   -69.0160 -69.0158 -35.7620 -35.7618 -35.7609 -35.7588 -35.7588 -35.7586
   -20.8414 -14.5746 -14.5702 -14.5696 -14.5692 -14.5595 -14.5586 -14.5435
   -14.5420 -14.5405 -14.5404  -6.2492  -6.0693  -6.0321  -2.8937  -2.5596
     3.6209   3.8548   5.4255   5.5923   6.5653   6.6347   8.2090   8.7083
     9.1906   9.8575  10.4268  11.4141  11.6110  12.5010  13.1392  13.8574
    13.9558  14.1737  14.9490  15.1229  15.2062  15.4019  15.9527  16.3408

     occupation numbers 
     1.0000   1.0000   1.0000   1.0000   1.0000   1.0000   1.0000   1.0000
     1.0000   1.0000   1.0000   1.0000   1.0000   1.0000   1.0000   1.0000
     1.0000   1.0000   1.0000   1.0000   1.0000   1.0000   1.0000   1.0000
     1.0000   1.0000   1.0000   1.0000   1.0000   1.0000  -0.0000  -0.0000
    -0.0000  -0.0000  -0.0000  -0.0000  -0.0000  -0.0000  -0.0000  -0.0000
    -0.0000  -0.0000  -0.0000  -0.0000  -0.0000  -0.0000  -0.0000  -0.0000

          k =-1.0000 0.0000-0.1479 ( 11496 PWs)   bands (ev):

   -69.0160 -69.0158 -35.7615 -35.7611 -35.7609 -35.7589 -35.7585 -35.7584
   -20.8414 -14.5741 -14.5711 -14.5702 -14.5684 -14.5595 -14.5586 -14.5434
   -14.5421 -14.5410 -14.5398  -6.2501  -6.0689  -6.0322  -2.8507  -2.6065
     3.6176   3.9502   5.4907   5.6992   6.0827   6.4455   8.0749   9.2052
     9.6015  10.0747  10.8079  11.4083  11.6046  12.2831  12.6178  12.9245
    13.4350  14.6692  14.9751  14.9943  15.1764  15.2768  15.8738  16.2022

     occupation numbers 
     1.0000   1.0000   1.0000   1.0000   1.0000   1.0000   1.0000   1.0000
     1.0000   1.0000   1.0000   1.0000   1.0000   1.0000   1.0000   1.0000
     1.0000   1.0000   1.0000   1.0000   1.0000   1.0000   1.0000   1.0000
     1.0000   1.0000   1.0000   1.0000   1.0000   1.0000  -0.0000  -0.0000
    -0.0000  -0.0000  -0.0000  -0.0000  -0.0000  -0.0000  -0.0000  -0.0000
    -0.0000  -0.0000  -0.0000  -0.0000  -0.0000  -0.0000  -0.0000  -0.0000

          k =-0.8333 0.0962 0.0000 ( 11514 PWs)   bands (ev):

   -69.0160 -69.0158 -35.7616 -35.7614 -35.7613 -35.7588 -35.7587 -35.7584
   -20.8414 -14.5731 -14.5715 -14.5698 -14.5691 -14.5594 -14.5588 -14.5430
   -14.5422 -14.5414 -14.5400  -6.2140  -6.0814  -6.0605  -2.7682  -2.6877
     3.8075   4.1005   5.1040   5.5401   5.8436   6.2015   8.9697   9.6347
    10.0397  10.3731  10.8504  11.0813  11.5019  11.7848  12.4014  12.9131
    13.3119  13.5740  14.1551  14.8218  15.0001  15.2850  15.9223  16.6060

     occupation numbers 
     1.0000   1.0000   1.0000   1.0000   1.0000   1.0000   1.0000   1.0000
     1.0000   1.0000   1.0000   1.0000   1.0000   1.0000   1.0000   1.0000
     1.0000   1.0000   1.0000   1.0000   1.0000   1.0000   1.0000   1.0000
     1.0000   1.0000   1.0000   1.0000   1.0000   1.0000  -0.0000  -0.0000
    -0.0000  -0.0000  -0.0000  -0.0000  -0.0000  -0.0000  -0.0000  -0.0000
    -0.0000  -0.0000  -0.0000  -0.0000  -0.0000  -0.0000  -0.0000  -0.0000

          k =-0.8333 0.0962 0.1479 ( 11540 PWs)   bands (ev):

   -69.0160 -69.0158 -35.7617 -35.7617 -35.7614 -35.7590 -35.7588 -35.7586
   -20.8414 -14.5729 -14.5718 -14.5704 -14.5683 -14.5594 -14.5588 -14.5429
   -14.5422 -14.5413 -14.5402  -6.2131  -6.0819  -6.0604  -2.8359  -2.6173
     3.8245   3.9288   5.2461   5.6152   5.8826   6.3426   8.6737   9.5558
     9.8923  10.0563  10.6934  10.9437  11.5247  12.2840  12.5836  13.2692
    13.4155  13.8502  14.4205  14.6611  15.2178  15.2898  15.7015  16.3764

     occupation numbers 
     1.0000   1.0000   1.0000   1.0000   1.0000   1.0000   1.0000   1.0000
     1.0000   1.0000   1.0000   1.0000   1.0000   1.0000   1.0000   1.0000
     1.0000   1.0000   1.0000   1.0000   1.0000   1.0000   1.0000   1.0000
     1.0000   1.0000   1.0000   1.0000   1.0000   1.0000  -0.0000  -0.0000
    -0.0000  -0.0000  -0.0000  -0.0000  -0.0000  -0.0000  -0.0000  -0.0000
    -0.0000  -0.0000  -0.0000  -0.0000  -0.0000  -0.0000  -0.0000  -0.0000

          k =-0.8333 0.0962-0.2958 ( 11530 PWs)   bands (ev):

   -69.0160 -69.0158 -35.7618 -35.7615 -35.7613 -35.7590 -35.7587 -35.7583
   -20.8414 -14.5736 -14.5712 -14.5710 -14.5677 -14.5593 -14.5588 -14.5430
   -14.5419 -14.5409 -14.5407  -6.2125  -6.0820  -6.0606  -2.8424  -2.6129
     3.8149   3.9390   5.3052   5.5787   5.9766   6.3017   8.6088   9.1957
     9.7559  10.1327  10.9709  11.2352  11.5130  11.8280  12.8007  13.2615
    13.4283  13.8405  14.4976  14.8468  15.0500  15.7454  15.9463  16.7250

     occupation numbers 
     1.0000   1.0000   1.0000   1.0000   1.0000   1.0000   1.0000   1.0000
     1.0000   1.0000   1.0000   1.0000   1.0000   1.0000   1.0000   1.0000
     1.0000   1.0000   1.0000   1.0000   1.0000   1.0000   1.0000   1.0000
     1.0000   1.0000   1.0000   1.0000   1.0000   1.0000  -0.0000  -0.0000
    -0.0000  -0.0000  -0.0000  -0.0000  -0.0000  -0.0000  -0.0000  -0.0000
    -0.0000  -0.0000  -0.0000  -0.0000  -0.0000  -0.0000  -0.0000  -0.0000

          k =-0.8333 0.0962-0.1479 ( 11540 PWs)   bands (ev):

   -69.0160 -69.0158 -35.7618 -35.7617 -35.7616 -35.7589 -35.7587 -35.7586
   -20.8414 -14.5736 -14.5715 -14.5701 -14.5682 -14.5593 -14.5589 -14.5431
   -14.5420 -14.5412 -14.5403  -6.2134  -6.0815  -6.0606  -2.7823  -2.6758
     3.8148   4.0818   5.2067   5.4677   5.9925   6.0980   8.8496   9.4464
     9.9019  10.3721  10.8135  11.4035  11.5111  11.9547  12.4334  12.7932
    13.0227  13.9369  14.1248  14.8004  15.2107  15.6899  15.7572  16.9226

     occupation numbers 
     1.0000   1.0000   1.0000   1.0000   1.0000   1.0000   1.0000   1.0000
     1.0000   1.0000   1.0000   1.0000   1.0000   1.0000   1.0000   1.0000
     1.0000   1.0000   1.0000   1.0000   1.0000   1.0000   1.0000   1.0000
     1.0000   1.0000   1.0000   1.0000   1.0000   1.0000  -0.0000  -0.0000
    -0.0000  -0.0000  -0.0000  -0.0000  -0.0000  -0.0000  -0.0000  -0.0000
    -0.0000  -0.0000  -0.0000  -0.0000  -0.0000  -0.0000  -0.0000  -0.0000

          k =-0.6667 0.1925 0.0000 ( 11514 PWs)   bands (ev):

   -69.0160 -69.0158 -35.7616 -35.7614 -35.7613 -35.7588 -35.7587 -35.7583
   -20.8414 -14.5731 -14.5715 -14.5698 -14.5691 -14.5594 -14.5588 -14.5430
   -14.5422 -14.5414 -14.5400  -6.2140  -6.0814  -6.0605  -2.7682  -2.6877
     3.8075   4.1005   5.1040   5.5401   5.8436   6.2015   8.9697   9.6347
    10.0398  10.3731  10.8504  11.0813  11.5019  11.7848  12.4014  12.9131
    13.3119  13.5740  14.1551  14.8218  15.0001  15.2850  15.9223  16.6061

     occupation numbers 
     1.0000   1.0000   1.0000   1.0000   1.0000   1.0000   1.0000   1.0000
     1.0000   1.0000   1.0000   1.0000   1.0000   1.0000   1.0000   1.0000
     1.0000   1.0000   1.0000   1.0000   1.0000   1.0000   1.0000   1.0000
     1.0000   1.0000   1.0000   1.0000   1.0000   1.0000  -0.0000  -0.0000
    -0.0000  -0.0000  -0.0000  -0.0000  -0.0000  -0.0000  -0.0000  -0.0000
    -0.0000  -0.0000  -0.0000  -0.0000  -0.0000  -0.0000  -0.0000  -0.0000

          k =-0.6667 0.1925 0.1479 ( 11540 PWs)   bands (ev):

   -69.0160 -69.0158 -35.7618 -35.7617 -35.7616 -35.7589 -35.7587 -35.7586
   -20.8414 -14.5736 -14.5715 -14.5701 -14.5682 -14.5593 -14.5589 -14.5431
   -14.5420 -14.5412 -14.5403  -6.2134  -6.0815  -6.0606  -2.7823  -2.6758
     3.8148   4.0818   5.2067   5.4677   5.9925   6.0980   8.8496   9.4464
     9.9019  10.3721  10.8135  11.4035  11.5111  11.9547  12.4334  12.7932
    13.0227  13.9369  14.1248  14.8004  15.2107  15.6899  15.7572  16.9225

     occupation numbers 
     1.0000   1.0000   1.0000   1.0000   1.0000   1.0000   1.0000   1.0000
     1.0000   1.0000   1.0000   1.0000   1.0000   1.0000   1.0000   1.0000
     1.0000   1.0000   1.0000   1.0000   1.0000   1.0000   1.0000   1.0000
     1.0000   1.0000   1.0000   1.0000   1.0000   1.0000  -0.0000  -0.0000
    -0.0000  -0.0000  -0.0000  -0.0000  -0.0000  -0.0000  -0.0000  -0.0000
    -0.0000  -0.0000  -0.0000  -0.0000  -0.0000  -0.0000  -0.0000  -0.0000

          k =-0.6667 0.1925-0.2958 ( 11530 PWs)   bands (ev):

   -69.0160 -69.0158 -35.7618 -35.7615 -35.7613 -35.7590 -35.7587 -35.7583
   -20.8414 -14.5736 -14.5712 -14.5710 -14.5677 -14.5593 -14.5588 -14.5430
   -14.5419 -14.5409 -14.5407  -6.2125  -6.0820  -6.0606  -2.8424  -2.6129
     3.8149   3.9390   5.3052   5.5787   5.9766   6.3017   8.6088   9.1957
     9.7559  10.1327  10.9709  11.2352  11.5130  11.8280  12.8007  13.2615
    13.4283  13.8405  14.4976  14.8468  15.0500  15.7454  15.9463  16.7251

     occupation numbers 
     1.0000   1.0000   1.0000   1.0000   1.0000   1.0000   1.0000   1.0000
     1.0000   1.0000   1.0000   1.0000   1.0000   1.0000   1.0000   1.0000
     1.0000   1.0000   1.0000   1.0000   1.0000   1.0000   1.0000   1.0000
     1.0000   1.0000   1.0000   1.0000   1.0000   1.0000  -0.0000  -0.0000
    -0.0000  -0.0000  -0.0000  -0.0000  -0.0000  -0.0000  -0.0000  -0.0000
    -0.0000  -0.0000  -0.0000  -0.0000  -0.0000  -0.0000  -0.0000  -0.0000

          k =-0.6667 0.1925-0.1479 ( 11540 PWs)   bands (ev):

   -69.0160 -69.0158 -35.7617 -35.7617 -35.7614 -35.7590 -35.7588 -35.7586
   -20.8414 -14.5729 -14.5718 -14.5704 -14.5683 -14.5594 -14.5588 -14.5429
   -14.5422 -14.5413 -14.5402  -6.2131  -6.0819  -6.0604  -2.8359  -2.6173
     3.8245   3.9288   5.2461   5.6152   5.8826   6.3426   8.6737   9.5558
     9.8923  10.0563  10.6934  10.9437  11.5247  12.2840  12.5836  13.2692
    13.4155  13.8502  14.4205  14.6611  15.2178  15.2898  15.7015  16.3764

     occupation numbers 
     1.0000   1.0000   1.0000   1.0000   1.0000   1.0000   1.0000   1.0000
     1.0000   1.0000   1.0000   1.0000   1.0000   1.0000   1.0000   1.0000
     1.0000   1.0000   1.0000   1.0000   1.0000   1.0000   1.0000   1.0000
     1.0000   1.0000   1.0000   1.0000   1.0000   1.0000  -0.0000  -0.0000
    -0.0000  -0.0000  -0.0000  -0.0000  -0.0000  -0.0000  -0.0000  -0.0000
    -0.0000  -0.0000  -0.0000  -0.0000  -0.0000  -0.0000  -0.0000  -0.0000

          k =-0.3333 0.1925 0.0000 ( 11530 PWs)   bands (ev):

   -69.0160 -69.0158 -35.7617 -35.7615 -35.7610 -35.7590 -35.7588 -35.7585
   -20.8435 -14.5734 -14.5718 -14.5707 -14.5687 -14.5601 -14.5593 -14.5432
   -14.5421 -14.5417 -14.5401  -6.1928  -6.1014  -6.0216  -2.9173  -2.6797
     3.9778   4.2942   5.1918   5.9738   6.1649   6.3716   8.2188   9.3546
    10.2173  10.3691  10.5434  11.2379  11.4134  11.9853  12.2682  12.5187
    12.9492  13.3746  13.5453  14.0036  14.8290  15.0704  15.9748  16.5214

     occupation numbers 
     1.0000   1.0000   1.0000   1.0000   1.0000   1.0000   1.0000   1.0000
     1.0000   1.0000   1.0000   1.0000   1.0000   1.0000   1.0000   1.0000
     1.0000   1.0000   1.0000   1.0000   1.0000   1.0000   1.0000   1.0000
     1.0000   1.0000   1.0000   1.0000   1.0000   1.0000  -0.0000  -0.0000
    -0.0000  -0.0000  -0.0000  -0.0000  -0.0000  -0.0000  -0.0000  -0.0000
    -0.0000  -0.0000  -0.0000  -0.0000  -0.0000  -0.0000  -0.0000  -0.0000

          k =-0.3333 0.1925 0.1479 ( 11525 PWs)   bands (ev):

   -69.0160 -69.0158 -35.7616 -35.7612 -35.7608 -35.7592 -35.7590 -35.7584
   -20.8435 -14.5725 -14.5715 -14.5709 -14.5695 -14.5601 -14.5592 -14.5429
   -14.5424 -14.5416 -14.5402  -6.1916  -6.1028  -6.0215  -2.9623  -2.6256
     3.8880   4.0358   5.5708   5.7892   6.5922   6.6491   8.3441   9.1077
     9.2707   9.8130  10.3704  10.9519  10.9758  12.4925  13.0343  13.3044
    13.5565  13.9011  13.9300  14.5684  14.6762  14.7638  15.7202  15.9101

     occupation numbers 
     1.0000   1.0000   1.0000   1.0000   1.0000   1.0000   1.0000   1.0000
     1.0000   1.0000   1.0000   1.0000   1.0000   1.0000   1.0000   1.0000
     1.0000   1.0000   1.0000   1.0000   1.0000   1.0000   1.0000   1.0000
     1.0000   1.0000   1.0000   1.0000   1.0000   1.0000  -0.0000  -0.0000
    -0.0000  -0.0000  -0.0000  -0.0000  -0.0000  -0.0000  -0.0000  -0.0000
    -0.0000  -0.0000  -0.0000  -0.0000  -0.0000  -0.0000  -0.0000  -0.0000

          k =-0.3333 0.1925-0.2958 ( 11510 PWs)   bands (ev):

   -69.0160 -69.0158 -35.7614 -35.7611 -35.7610 -35.7589 -35.7587 -35.7584
   -20.8435 -14.5736 -14.5712 -14.5705 -14.5693 -14.5600 -14.5594 -14.5433
   -14.5420 -14.5412 -14.5407  -6.1915  -6.1035  -6.0215  -2.9259  -2.6664
     3.8522   4.1295   5.6898   5.7680   6.3139   6.6762   8.4208   9.1207
     9.4185   9.5284  10.5012  10.8971  11.2263  12.3095  12.8432  13.0414
    13.1649  14.1896  14.3153  14.4415  15.0299  15.1011  15.6745  16.2869

     occupation numbers 
     1.0000   1.0000   1.0000   1.0000   1.0000   1.0000   1.0000   1.0000
     1.0000   1.0000   1.0000   1.0000   1.0000   1.0000   1.0000   1.0000
     1.0000   1.0000   1.0000   1.0000   1.0000   1.0000   1.0000   1.0000
     1.0000   1.0000   1.0000   1.0000   1.0000   1.0000  -0.0000  -0.0000
    -0.0000  -0.0000  -0.0000  -0.0000  -0.0000  -0.0000  -0.0000  -0.0000
    -0.0000  -0.0000  -0.0000  -0.0000  -0.0000  -0.0000  -0.0000  -0.0000

          k =-0.3333 0.1925-0.1479 ( 11525 PWs)   bands (ev):

   -69.0160 -69.0158 -35.7615 -35.7613 -35.7611 -35.7589 -35.7588 -35.7586
   -20.8435 -14.5740 -14.5719 -14.5701 -14.5686 -14.5599 -14.5595 -14.5435
   -14.5418 -14.5413 -14.5405  -6.1928  -6.1020  -6.0216  -2.8525  -2.7490
     3.9444   4.4329   5.1957   5.9307   6.0197   6.4201   8.2071   9.2617
    10.1767  10.5047  10.6835  11.3371  11.5278  11.8215  12.3083  12.4193
    12.6163  13.1495  13.4586  13.9148  15.4946  15.6389  16.5402  16.6209

     occupation numbers 
     1.0000   1.0000   1.0000   1.0000   1.0000   1.0000   1.0000   1.0000
     1.0000   1.0000   1.0000   1.0000   1.0000   1.0000   1.0000   1.0000
     1.0000   1.0000   1.0000   1.0000   1.0000   1.0000   1.0000   1.0000
     1.0000   1.0000   1.0000   1.0000   1.0000   1.0000  -0.0000  -0.0000
    -0.0000  -0.0000  -0.0000  -0.0000  -0.0000  -0.0000  -0.0000  -0.0000
    -0.0000  -0.0000  -0.0000  -0.0000  -0.0000  -0.0000  -0.0000  -0.0000

          k =-0.1667 0.2887 0.0000 ( 11513 PWs)   bands (ev):

   -69.0160 -69.0158 -35.7615 -35.7613 -35.7612 -35.7586 -35.7585 -35.7585
   -20.8445 -14.5736 -14.5713 -14.5702 -14.5699 -14.5603 -14.5598 -14.5428
   -14.5426 -14.5414 -14.5406  -6.1429  -6.1273  -6.0274  -2.9879  -2.6731
     4.0286   4.7074   5.0436   5.7862   6.1150   6.7176   8.9005   9.2831
     9.6840  10.3194  10.4620  11.1783  11.3440  11.7705  11.9573  12.0671
    13.1224  13.1277  13.3026  14.3846  14.9091  15.0537  16.0249  16.2571

     occupation numbers 
     1.0000   1.0000   1.0000   1.0000   1.0000   1.0000   1.0000   1.0000
     1.0000   1.0000   1.0000   1.0000   1.0000   1.0000   1.0000   1.0000
     1.0000   1.0000   1.0000   1.0000   1.0000   1.0000   1.0000   1.0000
     1.0000   1.0000   1.0000   1.0000   1.0000   1.0000  -0.0000  -0.0000
    -0.0000  -0.0000  -0.0000  -0.0000  -0.0000  -0.0000  -0.0000  -0.0000
    -0.0000  -0.0000  -0.0000  -0.0000  -0.0000  -0.0000  -0.0000  -0.0000

          k =-0.1667 0.2887 0.1479 ( 11553 PWs)   bands (ev):

   -69.0160 -69.0158 -35.7617 -35.7616 -35.7616 -35.7590 -35.7589 -35.7588
   -20.8445 -14.5731 -14.5717 -14.5707 -14.5694 -14.5602 -14.5598 -14.5429
   -14.5423 -14.5415 -14.5407  -6.1422  -6.1289  -6.0273  -2.9606  -2.7008
     3.9889   4.5169   5.3958   5.8120   6.2227   6.5303   8.8416   9.3953
     9.7856   9.9735  10.3677  10.7917  11.3374  11.4610  12.1032  12.7579
    12.8556  13.6351  13.7323  14.0352  15.0354  15.3983  15.6398  16.5043

     occupation numbers 
     1.0000   1.0000   1.0000   1.0000   1.0000   1.0000   1.0000   1.0000
     1.0000   1.0000   1.0000   1.0000   1.0000   1.0000   1.0000   1.0000
     1.0000   1.0000   1.0000   1.0000   1.0000   1.0000   1.0000   1.0000
     1.0000   1.0000   1.0000   1.0000   1.0000   1.0000  -0.0000  -0.0000
    -0.0000  -0.0000  -0.0000  -0.0000  -0.0000  -0.0000  -0.0000  -0.0000
    -0.0000  -0.0000  -0.0000  -0.0000  -0.0000  -0.0000  -0.0000  -0.0000

          k =-0.1667 0.2887-0.2958 ( 11552 PWs)   bands (ev):

   -69.0160 -69.0158 -35.7617 -35.7615 -35.7613 -35.7592 -35.7589 -35.7589
   -20.8445 -14.5723 -14.5718 -14.5717 -14.5691 -14.5600 -14.5600 -14.5429
   -14.5422 -14.5414 -14.5410  -6.1413  -6.1307  -6.0273  -2.9257  -2.7361
     3.9594   4.3967   5.8055   5.9500   6.1031   6.3102   8.9929   9.1933
     9.8809   9.9498  10.0311  10.7726  11.2288  11.2853  12.0327  12.9532
    13.2241  13.5328  14.0932  14.8452  14.8577  15.4191  15.5137  16.0790

     occupation numbers 
     1.0000   1.0000   1.0000   1.0000   1.0000   1.0000   1.0000   1.0000
     1.0000   1.0000   1.0000   1.0000   1.0000   1.0000   1.0000   1.0000
     1.0000   1.0000   1.0000   1.0000   1.0000   1.0000   1.0000   1.0000
     1.0000   1.0000   1.0000   1.0000   1.0000   1.0000  -0.0000  -0.0000
    -0.0000  -0.0000  -0.0000  -0.0000  -0.0000  -0.0000  -0.0000  -0.0000
    -0.0000  -0.0000  -0.0000  -0.0000  -0.0000  -0.0000  -0.0000  -0.0000

          k =-0.1667 0.2887-0.1479 ( 11553 PWs)   bands (ev):

   -69.0160 -69.0158 -35.7617 -35.7616 -35.7616 -35.7590 -35.7589 -35.7588
   -20.8445 -14.5731 -14.5717 -14.5707 -14.5694 -14.5602 -14.5598 -14.5429
   -14.5423 -14.5415 -14.5407  -6.1422  -6.1289  -6.0273  -2.9606  -2.7008
     3.9889   4.5169   5.3958   5.8120   6.2227   6.5303   8.8416   9.3954
     9.7856   9.9735  10.3677  10.7917  11.3374  11.4610  12.1032  12.7579
    12.8556  13.6351  13.7323  14.0352  15.0354  15.3983  15.6398  16.5042

     occupation numbers 
     1.0000   1.0000   1.0000   1.0000   1.0000   1.0000   1.0000   1.0000
     1.0000   1.0000   1.0000   1.0000   1.0000   1.0000   1.0000   1.0000
     1.0000   1.0000   1.0000   1.0000   1.0000   1.0000   1.0000   1.0000
     1.0000   1.0000   1.0000   1.0000   1.0000   1.0000  -0.0000  -0.0000
    -0.0000  -0.0000  -0.0000  -0.0000  -0.0000  -0.0000  -0.0000  -0.0000
    -0.0000  -0.0000  -0.0000  -0.0000  -0.0000  -0.0000  -0.0000  -0.0000

          k =-0.0000 0.3849 0.0000 ( 11530 PWs)   bands (ev):

   -69.0160 -69.0158 -35.7617 -35.7615 -35.7610 -35.7590 -35.7588 -35.7585
   -20.8435 -14.5734 -14.5718 -14.5707 -14.5687 -14.5601 -14.5593 -14.5432
   -14.5421 -14.5417 -14.5401  -6.1928  -6.1014  -6.0216  -2.9173  -2.6797
     3.9778   4.2942   5.1918   5.9738   6.1649   6.3716   8.2188   9.3546
    10.2173  10.3691  10.5434  11.2379  11.4134  11.9853  12.2682  12.5187
    12.9492  13.3746  13.5453  14.0036  14.8290  15.0704  15.9748  16.5214

     occupation numbers 
     1.0000   1.0000   1.0000   1.0000   1.0000   1.0000   1.0000   1.0000
     1.0000   1.0000   1.0000   1.0000   1.0000   1.0000   1.0000   1.0000
     1.0000   1.0000   1.0000   1.0000   1.0000   1.0000   1.0000   1.0000
     1.0000   1.0000   1.0000   1.0000   1.0000   1.0000  -0.0000  -0.0000
    -0.0000  -0.0000  -0.0000  -0.0000  -0.0000  -0.0000  -0.0000  -0.0000
    -0.0000  -0.0000  -0.0000  -0.0000  -0.0000  -0.0000  -0.0000  -0.0000

          k =-0.0000 0.3849 0.1479 ( 11525 PWs)   bands (ev):

   -69.0160 -69.0158 -35.7615 -35.7613 -35.7611 -35.7589 -35.7588 -35.7586
   -20.8435 -14.5740 -14.5719 -14.5701 -14.5686 -14.5599 -14.5595 -14.5435
   -14.5418 -14.5413 -14.5405  -6.1928  -6.1020  -6.0216  -2.8525  -2.7490
     3.9444   4.4329   5.1957   5.9307   6.0197   6.4201   8.2071   9.2617
    10.1767  10.5047  10.6835  11.3371  11.5278  11.8215  12.3083  12.4193
    12.6163  13.1496  13.4586  13.9148  15.4946  15.6389  16.5403  16.6208

     occupation numbers 
     1.0000   1.0000   1.0000   1.0000   1.0000   1.0000   1.0000   1.0000
     1.0000   1.0000   1.0000   1.0000   1.0000   1.0000   1.0000   1.0000
     1.0000   1.0000   1.0000   1.0000   1.0000   1.0000   1.0000   1.0000
     1.0000   1.0000   1.0000   1.0000   1.0000   1.0000  -0.0000  -0.0000
    -0.0000  -0.0000  -0.0000  -0.0000  -0.0000  -0.0000  -0.0000  -0.0000
    -0.0000  -0.0000  -0.0000  -0.0000  -0.0000  -0.0000  -0.0000  -0.0000

          k =-0.0000 0.3849-0.2958 ( 11510 PWs)   bands (ev):

   -69.0160 -69.0158 -35.7614 -35.7611 -35.7610 -35.7589 -35.7587 -35.7584
   -20.8435 -14.5736 -14.5712 -14.5705 -14.5693 -14.5600 -14.5594 -14.5433
   -14.5420 -14.5412 -14.5407  -6.1915  -6.1035  -6.0215  -2.9259  -2.6664
     3.8522   4.1295   5.6898   5.7680   6.3139   6.6762   8.4208   9.1207
     9.4185   9.5284  10.5012  10.8971  11.2263  12.3095  12.8432  13.0414
    13.1650  14.1896  14.3153  14.4415  15.0299  15.1011  15.6745  16.2868

     occupation numbers 
     1.0000   1.0000   1.0000   1.0000   1.0000   1.0000   1.0000   1.0000
     1.0000   1.0000   1.0000   1.0000   1.0000   1.0000   1.0000   1.0000
     1.0000   1.0000   1.0000   1.0000   1.0000   1.0000   1.0000   1.0000
     1.0000   1.0000   1.0000   1.0000   1.0000   1.0000  -0.0000  -0.0000
    -0.0000  -0.0000  -0.0000  -0.0000  -0.0000  -0.0000  -0.0000  -0.0000
    -0.0000  -0.0000  -0.0000  -0.0000  -0.0000  -0.0000  -0.0000  -0.0000

          k =-0.0000 0.3849-0.1479 ( 11525 PWs)   bands (ev):

   -69.0160 -69.0158 -35.7616 -35.7612 -35.7608 -35.7592 -35.7590 -35.7584
   -20.8435 -14.5725 -14.5715 -14.5709 -14.5695 -14.5601 -14.5592 -14.5429
   -14.5424 -14.5416 -14.5402  -6.1916  -6.1028  -6.0215  -2.9623  -2.6256
     3.8880   4.0358   5.5708   5.7892   6.5922   6.6491   8.3441   9.1077
     9.2707   9.8130  10.3704  10.9519  10.9758  12.4925  13.0343  13.3044
    13.5565  13.9011  13.9300  14.5684  14.6762  14.7638  15.7202  15.9101

     occupation numbers 
     1.0000   1.0000   1.0000   1.0000   1.0000   1.0000   1.0000   1.0000
     1.0000   1.0000   1.0000   1.0000   1.0000   1.0000   1.0000   1.0000
     1.0000   1.0000   1.0000   1.0000   1.0000   1.0000   1.0000   1.0000
     1.0000   1.0000   1.0000   1.0000   1.0000   1.0000  -0.0000  -0.0000
    -0.0000  -0.0000  -0.0000  -0.0000  -0.0000  -0.0000  -0.0000  -0.0000
    -0.0000  -0.0000  -0.0000  -0.0000  -0.0000  -0.0000  -0.0000  -0.0000

          k =-0.8333-0.0962 0.0000 ( 11514 PWs)   bands (ev):

   -69.0160 -69.0158 -35.7616 -35.7614 -35.7613 -35.7588 -35.7587 -35.7584
   -20.8414 -14.5731 -14.5715 -14.5698 -14.5691 -14.5594 -14.5588 -14.5430
   -14.5422 -14.5414 -14.5400  -6.2140  -6.0814  -6.0605  -2.7682  -2.6877
     3.8075   4.1005   5.1040   5.5401   5.8436   6.2015   8.9697   9.6347
    10.0397  10.3731  10.8504  11.0813  11.5019  11.7848  12.4014  12.9131
    13.3119  13.5740  14.1551  14.8218  15.0001  15.2850  15.9223  16.6060

     occupation numbers 
     1.0000   1.0000   1.0000   1.0000   1.0000   1.0000   1.0000   1.0000
     1.0000   1.0000   1.0000   1.0000   1.0000   1.0000   1.0000   1.0000
     1.0000   1.0000   1.0000   1.0000   1.0000   1.0000   1.0000   1.0000
     1.0000   1.0000   1.0000   1.0000   1.0000   1.0000  -0.0000  -0.0000
    -0.0000  -0.0000  -0.0000  -0.0000  -0.0000  -0.0000  -0.0000  -0.0000
    -0.0000  -0.0000  -0.0000  -0.0000  -0.0000  -0.0000  -0.0000  -0.0000

          k =-0.8333-0.0962 0.1479 ( 11540 PWs)   bands (ev):

   -69.0160 -69.0158 -35.7618 -35.7617 -35.7616 -35.7589 -35.7587 -35.7586
   -20.8414 -14.5736 -14.5715 -14.5701 -14.5682 -14.5593 -14.5589 -14.5431
   -14.5420 -14.5412 -14.5403  -6.2134  -6.0815  -6.0606  -2.7823  -2.6758
     3.8148   4.0818   5.2067   5.4677   5.9925   6.0980   8.8496   9.4464
     9.9019  10.3721  10.8135  11.4035  11.5111  11.9547  12.4334  12.7932
    13.0227  13.9369  14.1248  14.8004  15.2107  15.6899  15.7572  16.9224

     occupation numbers 
     1.0000   1.0000   1.0000   1.0000   1.0000   1.0000   1.0000   1.0000
     1.0000   1.0000   1.0000   1.0000   1.0000   1.0000   1.0000   1.0000
     1.0000   1.0000   1.0000   1.0000   1.0000   1.0000   1.0000   1.0000
     1.0000   1.0000   1.0000   1.0000   1.0000   1.0000  -0.0000  -0.0000
    -0.0000  -0.0000  -0.0000  -0.0000  -0.0000  -0.0000  -0.0000  -0.0000
    -0.0000  -0.0000  -0.0000  -0.0000  -0.0000  -0.0000  -0.0000  -0.0000

          k =-0.8333-0.0962-0.2958 ( 11530 PWs)   bands (ev):

   -69.0160 -69.0158 -35.7618 -35.7615 -35.7613 -35.7590 -35.7587 -35.7583
   -20.8414 -14.5736 -14.5712 -14.5710 -14.5677 -14.5593 -14.5588 -14.5430
   -14.5419 -14.5409 -14.5407  -6.2125  -6.0820  -6.0606  -2.8424  -2.6129
     3.8149   3.9390   5.3052   5.5787   5.9766   6.3017   8.6088   9.1957
     9.7559  10.1327  10.9709  11.2352  11.5130  11.8280  12.8007  13.2615
    13.4283  13.8405  14.4976  14.8468  15.0500  15.7454  15.9462  16.7249

     occupation numbers 
     1.0000   1.0000   1.0000   1.0000   1.0000   1.0000   1.0000   1.0000
     1.0000   1.0000   1.0000   1.0000   1.0000   1.0000   1.0000   1.0000
     1.0000   1.0000   1.0000   1.0000   1.0000   1.0000   1.0000   1.0000
     1.0000   1.0000   1.0000   1.0000   1.0000   1.0000  -0.0000  -0.0000
    -0.0000  -0.0000  -0.0000  -0.0000  -0.0000  -0.0000  -0.0000  -0.0000
    -0.0000  -0.0000  -0.0000  -0.0000  -0.0000  -0.0000  -0.0000  -0.0000

          k =-0.8333-0.0962-0.1479 ( 11540 PWs)   bands (ev):

   -69.0160 -69.0158 -35.7617 -35.7617 -35.7614 -35.7590 -35.7588 -35.7586
   -20.8414 -14.5729 -14.5718 -14.5704 -14.5683 -14.5594 -14.5588 -14.5429
   -14.5422 -14.5413 -14.5402  -6.2131  -6.0819  -6.0604  -2.8359  -2.6173
     3.8245   3.9288   5.2461   5.6152   5.8826   6.3426   8.6737   9.5558
     9.8923  10.0563  10.6934  10.9437  11.5247  12.2840  12.5836  13.2692
    13.4155  13.8502  14.4205  14.6611  15.2178  15.2898  15.7015  16.3765

     occupation numbers 
     1.0000   1.0000   1.0000   1.0000   1.0000   1.0000   1.0000   1.0000
     1.0000   1.0000   1.0000   1.0000   1.0000   1.0000   1.0000   1.0000
     1.0000   1.0000   1.0000   1.0000   1.0000   1.0000   1.0000   1.0000
     1.0000   1.0000   1.0000   1.0000   1.0000   1.0000  -0.0000  -0.0000
    -0.0000  -0.0000  -0.0000  -0.0000  -0.0000  -0.0000  -0.0000  -0.0000
    -0.0000  -0.0000  -0.0000  -0.0000  -0.0000  -0.0000  -0.0000  -0.0000

          k =-0.6667 0.0000 0.0000 ( 11514 PWs)   bands (ev):

   -69.0159 -69.0159 -35.7618 -35.7616 -35.7616 -35.7584 -35.7584 -35.7583
   -20.8403 -14.5716 -14.5716 -14.5705 -14.5687 -14.5589 -14.5589 -14.5424
   -14.5418 -14.5418 -14.5403  -6.1598  -6.1598  -6.0580  -2.6893  -2.6893
     3.9470   3.9470   4.5046   5.8142   5.8142   5.9347   9.7120   9.9193
     9.9193  10.2961  10.2961  10.6406  12.6375  12.6375  12.7447  12.7447
    12.9159  13.7523  13.9490  13.9490  14.9979  14.9979  15.9742  16.4099

     occupation numbers 
     1.0000   1.0000   1.0000   1.0000   1.0000   1.0000   1.0000   1.0000
     1.0000   1.0000   1.0000   1.0000   1.0000   1.0000   1.0000   1.0000
     1.0000   1.0000   1.0000   1.0000   1.0000   1.0000   1.0000   1.0000
     1.0000   1.0000   1.0000   1.0000   1.0000   1.0000  -0.0000  -0.0000
    -0.0000  -0.0000  -0.0000  -0.0000  -0.0000  -0.0000  -0.0000  -0.0000
    -0.0000  -0.0000  -0.0000  -0.0000  -0.0000  -0.0000  -0.0000  -0.0000

          k =-0.6667 0.0000 0.1479 ( 11511 PWs)   bands (ev):

   -69.0159 -69.0159 -35.7615 -35.7613 -35.7613 -35.7587 -35.7587 -35.7582
   -20.8403 -14.5719 -14.5717 -14.5717 -14.5674 -14.5588 -14.5588 -14.5422
   -14.5418 -14.5418 -14.5405  -6.1594  -6.1594  -6.0582  -2.6918  -2.6918
     3.9546   3.9546   4.6506   5.6533   5.8666   5.8666   9.3429   9.3429
    10.0822  10.7281  10.9857  10.9857  11.8911  11.8912  12.5271  13.4619
    13.4619  13.8965  13.8965  13.9562  14.8408  15.1917  15.1917  17.3303

     occupation numbers 
     1.0000   1.0000   1.0000   1.0000   1.0000   1.0000   1.0000   1.0000
     1.0000   1.0000   1.0000   1.0000   1.0000   1.0000   1.0000   1.0000
     1.0000   1.0000   1.0000   1.0000   1.0000   1.0000   1.0000   1.0000
     1.0000   1.0000   1.0000   1.0000   1.0000   1.0000  -0.0000  -0.0000
    -0.0000  -0.0000  -0.0000  -0.0000  -0.0000  -0.0000  -0.0000  -0.0000
    -0.0000  -0.0000  -0.0000  -0.0000  -0.0000  -0.0000  -0.0000  -0.0000

          k =-0.6667 0.0000-0.2958 ( 11538 PWs)   bands (ev):

   -69.0159 -69.0159 -35.7618 -35.7618 -35.7617 -35.7586 -35.7586 -35.7585
   -20.8403 -14.5727 -14.5718 -14.5718 -14.5666 -14.5587 -14.5587 -14.5419
   -14.5418 -14.5418 -14.5408  -6.1590  -6.1590  -6.0584  -2.6943  -2.6943
     3.9621   3.9621   4.9466   5.2384   5.9235   5.9235   9.0359   9.0359
    10.5416  10.7411  11.3981  11.3982  11.7442  11.7442  12.7649  12.8465
    13.0183  13.0183  14.3567  14.3567  15.1533  15.7801  15.7802  17.4618

     occupation numbers 
     1.0000   1.0000   1.0000   1.0000   1.0000   1.0000   1.0000   1.0000
     1.0000   1.0000   1.0000   1.0000   1.0000   1.0000   1.0000   1.0000
     1.0000   1.0000   1.0000   1.0000   1.0000   1.0000   1.0000   1.0000
     1.0000   1.0000   1.0000   1.0000   1.0000   1.0000  -0.0000  -0.0000
    -0.0000  -0.0000  -0.0000  -0.0000  -0.0000  -0.0000  -0.0000  -0.0000
    -0.0000  -0.0000  -0.0000  -0.0000  -0.0000  -0.0000  -0.0000  -0.0000

          k =-0.6667 0.0000-0.1479 ( 11511 PWs)   bands (ev):

   -69.0159 -69.0159 -35.7615 -35.7613 -35.7613 -35.7587 -35.7587 -35.7582
   -20.8403 -14.5719 -14.5717 -14.5717 -14.5674 -14.5588 -14.5588 -14.5422
   -14.5418 -14.5418 -14.5405  -6.1594  -6.1594  -6.0582  -2.6918  -2.6918
     3.9546   3.9546   4.6506   5.6533   5.8666   5.8666   9.3429   9.3429
    10.0822  10.7281  10.9857  10.9857  11.8911  11.8912  12.5271  13.4619
    13.4619  13.8965  13.8965  13.9562  14.8408  15.1917  15.1917  17.3302

     occupation numbers 
     1.0000   1.0000   1.0000   1.0000   1.0000   1.0000   1.0000   1.0000
     1.0000   1.0000   1.0000   1.0000   1.0000   1.0000   1.0000   1.0000
     1.0000   1.0000   1.0000   1.0000   1.0000   1.0000   1.0000   1.0000
     1.0000   1.0000   1.0000   1.0000   1.0000   1.0000  -0.0000  -0.0000
    -0.0000  -0.0000  -0.0000  -0.0000  -0.0000  -0.0000  -0.0000  -0.0000
    -0.0000  -0.0000  -0.0000  -0.0000  -0.0000  -0.0000  -0.0000  -0.0000

          k =-0.5000 0.0962 0.0000 ( 11514 PWs)   bands (ev):

   -69.0160 -69.0158 -35.7616 -35.7614 -35.7613 -35.7588 -35.7587 -35.7584
   -20.8414 -14.5731 -14.5715 -14.5698 -14.5691 -14.5594 -14.5588 -14.5430
   -14.5422 -14.5414 -14.5400  -6.2140  -6.0814  -6.0605  -2.7682  -2.6877
     3.8075   4.1005   5.1040   5.5401   5.8436   6.2015   8.9697   9.6347
    10.0398  10.3731  10.8504  11.0813  11.5019  11.7848  12.4014  12.9131
    13.3119  13.5740  14.1551  14.8218  15.0001  15.2850  15.9223  16.6060

     occupation numbers 
     1.0000   1.0000   1.0000   1.0000   1.0000   1.0000   1.0000   1.0000
     1.0000   1.0000   1.0000   1.0000   1.0000   1.0000   1.0000   1.0000
     1.0000   1.0000   1.0000   1.0000   1.0000   1.0000   1.0000   1.0000
     1.0000   1.0000   1.0000   1.0000   1.0000   1.0000  -0.0000  -0.0000
    -0.0000  -0.0000  -0.0000  -0.0000  -0.0000  -0.0000  -0.0000  -0.0000
    -0.0000  -0.0000  -0.0000  -0.0000  -0.0000  -0.0000  -0.0000  -0.0000

          k =-0.5000 0.0962 0.1479 ( 11540 PWs)   bands (ev):

   -69.0160 -69.0158 -35.7617 -35.7617 -35.7614 -35.7590 -35.7588 -35.7586
   -20.8414 -14.5729 -14.5718 -14.5704 -14.5683 -14.5594 -14.5588 -14.5429
   -14.5422 -14.5413 -14.5402  -6.2131  -6.0819  -6.0604  -2.8359  -2.6173
     3.8245   3.9288   5.2461   5.6152   5.8826   6.3426   8.6737   9.5558
     9.8923  10.0563  10.6934  10.9437  11.5247  12.2840  12.5836  13.2692
    13.4155  13.8502  14.4205  14.6611  15.2178  15.2897  15.7015  16.3764

     occupation numbers 
     1.0000   1.0000   1.0000   1.0000   1.0000   1.0000   1.0000   1.0000
     1.0000   1.0000   1.0000   1.0000   1.0000   1.0000   1.0000   1.0000
     1.0000   1.0000   1.0000   1.0000   1.0000   1.0000   1.0000   1.0000
     1.0000   1.0000   1.0000   1.0000   1.0000   1.0000  -0.0000  -0.0000
    -0.0000  -0.0000  -0.0000  -0.0000  -0.0000  -0.0000  -0.0000  -0.0000
    -0.0000  -0.0000  -0.0000  -0.0000  -0.0000  -0.0000  -0.0000  -0.0000

          k =-0.5000 0.0962-0.2958 ( 11530 PWs)   bands (ev):

   -69.0160 -69.0158 -35.7618 -35.7615 -35.7613 -35.7590 -35.7587 -35.7583
   -20.8414 -14.5736 -14.5712 -14.5710 -14.5677 -14.5593 -14.5588 -14.5430
   -14.5419 -14.5409 -14.5407  -6.2125  -6.0820  -6.0606  -2.8424  -2.6129
     3.8149   3.9390   5.3052   5.5787   5.9766   6.3017   8.6088   9.1957
     9.7559  10.1327  10.9709  11.2352  11.5130  11.8280  12.8007  13.2615
    13.4283  13.8405  14.4976  14.8468  15.0500  15.7454  15.9463  16.7250

     occupation numbers 
     1.0000   1.0000   1.0000   1.0000   1.0000   1.0000   1.0000   1.0000
     1.0000   1.0000   1.0000   1.0000   1.0000   1.0000   1.0000   1.0000
     1.0000   1.0000   1.0000   1.0000   1.0000   1.0000   1.0000   1.0000
     1.0000   1.0000   1.0000   1.0000   1.0000   1.0000  -0.0000  -0.0000
    -0.0000  -0.0000  -0.0000  -0.0000  -0.0000  -0.0000  -0.0000  -0.0000
    -0.0000  -0.0000  -0.0000  -0.0000  -0.0000  -0.0000  -0.0000  -0.0000

          k =-0.5000 0.0962-0.1479 ( 11540 PWs)   bands (ev):

   -69.0160 -69.0158 -35.7618 -35.7617 -35.7616 -35.7589 -35.7587 -35.7586
   -20.8414 -14.5736 -14.5715 -14.5701 -14.5682 -14.5593 -14.5589 -14.5431
   -14.5420 -14.5412 -14.5403  -6.2134  -6.0815  -6.0606  -2.7823  -2.6758
     3.8147   4.0818   5.2067   5.4677   5.9925   6.0980   8.8496   9.4464
     9.9019  10.3721  10.8135  11.4035  11.5111  11.9547  12.4334  12.7932
    13.0227  13.9369  14.1248  14.8004  15.2107  15.6899  15.7572  16.9223

     occupation numbers 
     1.0000   1.0000   1.0000   1.0000   1.0000   1.0000   1.0000   1.0000
     1.0000   1.0000   1.0000   1.0000   1.0000   1.0000   1.0000   1.0000
     1.0000   1.0000   1.0000   1.0000   1.0000   1.0000   1.0000   1.0000
     1.0000   1.0000   1.0000   1.0000   1.0000   1.0000  -0.0000  -0.0000
    -0.0000  -0.0000  -0.0000  -0.0000  -0.0000  -0.0000  -0.0000  -0.0000
    -0.0000  -0.0000  -0.0000  -0.0000  -0.0000  -0.0000  -0.0000  -0.0000

          k =-0.1667 0.0962 0.0000 ( 11541 PWs)   bands (ev):

   -69.0161 -69.0158 -35.7614 -35.7612 -35.7612 -35.7591 -35.7588 -35.7587
   -20.8477 -14.5730 -14.5723 -14.5709 -14.5704 -14.5613 -14.5607 -14.5429
   -14.5424 -14.5419 -14.5412  -6.1738  -6.0584  -6.0002  -3.1974  -2.6548
     3.8256   5.3791   5.8077   6.1360   6.8041   6.8747   8.6349   8.7449
     9.5976   9.9482   9.9983  10.4240  10.6372  11.2016  11.8288  12.3402
    13.1083  13.2806  13.4343  13.6147  14.6092  14.8836  15.4967  15.9432

     occupation numbers 
     1.0000   1.0000   1.0000   1.0000   1.0000   1.0000   1.0000   1.0000
     1.0000   1.0000   1.0000   1.0000   1.0000   1.0000   1.0000   1.0000
     1.0000   1.0000   1.0000   1.0000   1.0000   1.0000   1.0000   1.0000
     1.0000   1.0000   1.0000   1.0000   1.0000   1.0000  -0.0000  -0.0000
    -0.0000  -0.0000  -0.0000  -0.0000  -0.0000  -0.0000  -0.0000  -0.0000
    -0.0000  -0.0000  -0.0000  -0.0000  -0.0000  -0.0000  -0.0000  -0.0000

          k =-0.1667 0.0962 0.1479 ( 11537 PWs)   bands (ev):

   -69.0161 -69.0158 -35.7611 -35.7611 -35.7610 -35.7593 -35.7589 -35.7587
   -20.8477 -14.5730 -14.5720 -14.5709 -14.5707 -14.5612 -14.5607 -14.5425
   -14.5424 -14.5423 -14.5411  -6.1767  -6.0580  -6.0002  -3.1338  -2.7247
     3.9258   5.2434   5.8123   6.0772   6.7550   6.9770   8.7406   9.1021
     9.2138  10.0093  10.0180  10.1646  10.8293  11.0989  11.6498  12.3300
    13.0956  13.3790  13.6192  14.0577  14.3911  14.7852  15.4012  15.5282

     occupation numbers 
     1.0000   1.0000   1.0000   1.0000   1.0000   1.0000   1.0000   1.0000
     1.0000   1.0000   1.0000   1.0000   1.0000   1.0000   1.0000   1.0000
     1.0000   1.0000   1.0000   1.0000   1.0000   1.0000   1.0000   1.0000
     1.0000   1.0000   1.0000   1.0000   1.0000   1.0000  -0.0000  -0.0000
    -0.0000  -0.0000  -0.0000  -0.0000  -0.0000  -0.0000  -0.0000  -0.0000
    -0.0000  -0.0000  -0.0000  -0.0000  -0.0000  -0.0000  -0.0000  -0.0000

          k =-0.1667 0.0962-0.2958 ( 11564 PWs)   bands (ev):

   -69.0161 -69.0158 -35.7615 -35.7613 -35.7613 -35.7594 -35.7591 -35.7590
   -20.8477 -14.5728 -14.5727 -14.5711 -14.5698 -14.5611 -14.5609 -14.5428
   -14.5422 -14.5419 -14.5414  -6.1798  -6.0574  -6.0002  -2.9868  -2.8818
     4.1236   5.0754   6.0112   6.2125   6.2484   6.7300   8.7343   9.4226
     9.6846  10.0457  10.1069  10.2446  10.7207  11.2523  11.7145  12.0879
    12.7181  12.8060  13.2756  14.0799  14.2671  14.4996  15.9064  16.4682

     occupation numbers 
     1.0000   1.0000   1.0000   1.0000   1.0000   1.0000   1.0000   1.0000
     1.0000   1.0000   1.0000   1.0000   1.0000   1.0000   1.0000   1.0000
     1.0000   1.0000   1.0000   1.0000   1.0000   1.0000   1.0000   1.0000
     1.0000   1.0000   1.0000   1.0000   1.0000   1.0000  -0.0000  -0.0000
    -0.0000  -0.0000  -0.0000  -0.0000  -0.0000  -0.0000  -0.0000  -0.0000
    -0.0000  -0.0000  -0.0000  -0.0000  -0.0000  -0.0000  -0.0000  -0.0000

          k =-0.1667 0.0962-0.1479 ( 11537 PWs)   bands (ev):

   -69.0161 -69.0158 -35.7613 -35.7612 -35.7609 -35.7591 -35.7589 -35.7587
   -20.8477 -14.5729 -14.5728 -14.5711 -14.5697 -14.5611 -14.5608 -14.5430
   -14.5420 -14.5417 -14.5416  -6.1770  -6.0578  -6.0002  -3.1161  -2.7462
     3.9819   5.4179   5.6244   6.3586   6.5453   6.5463   8.5964   9.0105
     9.9055  10.0064  10.1106  10.5163  10.9737  11.5702  11.8319  12.1130
    12.2468  12.4138  12.8468  14.1209  14.7486  15.2827  15.3979  16.1393

     occupation numbers 
     1.0000   1.0000   1.0000   1.0000   1.0000   1.0000   1.0000   1.0000
     1.0000   1.0000   1.0000   1.0000   1.0000   1.0000   1.0000   1.0000
     1.0000   1.0000   1.0000   1.0000   1.0000   1.0000   1.0000   1.0000
     1.0000   1.0000   1.0000   1.0000   1.0000   1.0000  -0.0000  -0.0000
    -0.0000  -0.0000  -0.0000  -0.0000  -0.0000  -0.0000  -0.0000  -0.0000
    -0.0000  -0.0000  -0.0000  -0.0000  -0.0000  -0.0000  -0.0000  -0.0000

          k = 0.0000 0.1925 0.0000 ( 11541 PWs)   bands (ev):

   -69.0161 -69.0158 -35.7614 -35.7612 -35.7612 -35.7591 -35.7588 -35.7587
   -20.8477 -14.5730 -14.5723 -14.5709 -14.5704 -14.5613 -14.5607 -14.5429
   -14.5424 -14.5419 -14.5412  -6.1738  -6.0584  -6.0002  -3.1974  -2.6548
     3.8256   5.3791   5.8077   6.1360   6.8041   6.8747   8.6349   8.7449
     9.5976   9.9482   9.9983  10.4240  10.6372  11.2016  11.8288  12.3402
    13.1083  13.2806  13.4343  13.6147  14.6092  14.8836  15.4967  15.9431

     occupation numbers 
     1.0000   1.0000   1.0000   1.0000   1.0000   1.0000   1.0000   1.0000
     1.0000   1.0000   1.0000   1.0000   1.0000   1.0000   1.0000   1.0000
     1.0000   1.0000   1.0000   1.0000   1.0000   1.0000   1.0000   1.0000
     1.0000   1.0000   1.0000   1.0000   1.0000   1.0000  -0.0000  -0.0000
    -0.0000  -0.0000  -0.0000  -0.0000  -0.0000  -0.0000  -0.0000  -0.0000
    -0.0000  -0.0000  -0.0000  -0.0000  -0.0000  -0.0000  -0.0000  -0.0000

          k = 0.0000 0.1925 0.1479 ( 11537 PWs)   bands (ev):

   -69.0161 -69.0158 -35.7613 -35.7612 -35.7609 -35.7591 -35.7589 -35.7587
   -20.8477 -14.5729 -14.5728 -14.5711 -14.5697 -14.5611 -14.5608 -14.5430
   -14.5420 -14.5417 -14.5416  -6.1770  -6.0578  -6.0002  -3.1161  -2.7462
     3.9819   5.4179   5.6244   6.3586   6.5453   6.5463   8.5964   9.0105
     9.9055  10.0064  10.1106  10.5163  10.9737  11.5702  11.8319  12.1130
    12.2468  12.4138  12.8468  14.1209  14.7486  15.2827  15.3980  16.1395

     occupation numbers 
     1.0000   1.0000   1.0000   1.0000   1.0000   1.0000   1.0000   1.0000
     1.0000   1.0000   1.0000   1.0000   1.0000   1.0000   1.0000   1.0000
     1.0000   1.0000   1.0000   1.0000   1.0000   1.0000   1.0000   1.0000
     1.0000   1.0000   1.0000   1.0000   1.0000   1.0000  -0.0000  -0.0000
    -0.0000  -0.0000  -0.0000  -0.0000  -0.0000  -0.0000  -0.0000  -0.0000
    -0.0000  -0.0000  -0.0000  -0.0000  -0.0000  -0.0000  -0.0000  -0.0000

          k = 0.0000 0.1925-0.2958 ( 11564 PWs)   bands (ev):

   -69.0161 -69.0158 -35.7615 -35.7613 -35.7613 -35.7594 -35.7591 -35.7590
   -20.8477 -14.5728 -14.5727 -14.5711 -14.5698 -14.5611 -14.5609 -14.5428
   -14.5422 -14.5419 -14.5414  -6.1798  -6.0574  -6.0002  -2.9868  -2.8818
     4.1236   5.0754   6.0112   6.2125   6.2484   6.7300   8.7343   9.4226
     9.6846  10.0457  10.1069  10.2446  10.7207  11.2523  11.7145  12.0879
    12.7181  12.8060  13.2756  14.0799  14.2671  14.4996  15.9064  16.4682

     occupation numbers 
     1.0000   1.0000   1.0000   1.0000   1.0000   1.0000   1.0000   1.0000
     1.0000   1.0000   1.0000   1.0000   1.0000   1.0000   1.0000   1.0000
     1.0000   1.0000   1.0000   1.0000   1.0000   1.0000   1.0000   1.0000
     1.0000   1.0000   1.0000   1.0000   1.0000   1.0000  -0.0000  -0.0000
    -0.0000  -0.0000  -0.0000  -0.0000  -0.0000  -0.0000  -0.0000  -0.0000
    -0.0000  -0.0000  -0.0000  -0.0000  -0.0000  -0.0000  -0.0000  -0.0000

          k = 0.0000 0.1925-0.1479 ( 11537 PWs)   bands (ev):

   -69.0161 -69.0158 -35.7611 -35.7611 -35.7610 -35.7593 -35.7589 -35.7587
   -20.8477 -14.5730 -14.5720 -14.5709 -14.5707 -14.5612 -14.5607 -14.5425
   -14.5424 -14.5423 -14.5411  -6.1767  -6.0580  -6.0002  -3.1338  -2.7247
     3.9258   5.2434   5.8123   6.0772   6.7550   6.9770   8.7406   9.1021
     9.2138  10.0093  10.0180  10.1646  10.8293  11.0989  11.6498  12.3300
    13.0956  13.3790  13.6192  14.0577  14.3911  14.7852  15.4012  15.5283

     occupation numbers 
     1.0000   1.0000   1.0000   1.0000   1.0000   1.0000   1.0000   1.0000
     1.0000   1.0000   1.0000   1.0000   1.0000   1.0000   1.0000   1.0000
     1.0000   1.0000   1.0000   1.0000   1.0000   1.0000   1.0000   1.0000
     1.0000   1.0000   1.0000   1.0000   1.0000   1.0000  -0.0000  -0.0000
    -0.0000  -0.0000  -0.0000  -0.0000  -0.0000  -0.0000  -0.0000  -0.0000
    -0.0000  -0.0000  -0.0000  -0.0000  -0.0000  -0.0000  -0.0000  -0.0000

          k = 0.1667 0.2887 0.0000 ( 11513 PWs)   bands (ev):

   -69.0160 -69.0158 -35.7615 -35.7613 -35.7612 -35.7586 -35.7585 -35.7585
   -20.8445 -14.5736 -14.5713 -14.5702 -14.5699 -14.5603 -14.5598 -14.5428
   -14.5426 -14.5414 -14.5406  -6.1429  -6.1273  -6.0274  -2.9879  -2.6731
     4.0286   4.7074   5.0436   5.7862   6.1150   6.7176   8.9005   9.2831
     9.6840  10.3194  10.4620  11.1783  11.3440  11.7705  11.9573  12.0671
    13.1224  13.1277  13.3026  14.3846  14.9091  15.0537  16.0249  16.2571

     occupation numbers 
     1.0000   1.0000   1.0000   1.0000   1.0000   1.0000   1.0000   1.0000
     1.0000   1.0000   1.0000   1.0000   1.0000   1.0000   1.0000   1.0000
     1.0000   1.0000   1.0000   1.0000   1.0000   1.0000   1.0000   1.0000
     1.0000   1.0000   1.0000   1.0000   1.0000   1.0000  -0.0000  -0.0000
    -0.0000  -0.0000  -0.0000  -0.0000  -0.0000  -0.0000  -0.0000  -0.0000
    -0.0000  -0.0000  -0.0000  -0.0000  -0.0000  -0.0000  -0.0000  -0.0000

          k = 0.1667 0.2887 0.1479 ( 11553 PWs)   bands (ev):

   -69.0160 -69.0158 -35.7617 -35.7616 -35.7616 -35.7590 -35.7589 -35.7588
   -20.8445 -14.5731 -14.5717 -14.5707 -14.5694 -14.5602 -14.5598 -14.5429
   -14.5423 -14.5415 -14.5407  -6.1422  -6.1289  -6.0273  -2.9606  -2.7008
     3.9889   4.5169   5.3958   5.8120   6.2227   6.5303   8.8416   9.3953
     9.7856   9.9735  10.3677  10.7917  11.3374  11.4610  12.1032  12.7579
    12.8556  13.6351  13.7323  14.0352  15.0354  15.3983  15.6399  16.5043

     occupation numbers 
     1.0000   1.0000   1.0000   1.0000   1.0000   1.0000   1.0000   1.0000
     1.0000   1.0000   1.0000   1.0000   1.0000   1.0000   1.0000   1.0000
     1.0000   1.0000   1.0000   1.0000   1.0000   1.0000   1.0000   1.0000
     1.0000   1.0000   1.0000   1.0000   1.0000   1.0000  -0.0000  -0.0000
    -0.0000  -0.0000  -0.0000  -0.0000  -0.0000  -0.0000  -0.0000  -0.0000
    -0.0000  -0.0000  -0.0000  -0.0000  -0.0000  -0.0000  -0.0000  -0.0000

          k = 0.1667 0.2887-0.2958 ( 11552 PWs)   bands (ev):

   -69.0160 -69.0158 -35.7617 -35.7615 -35.7613 -35.7592 -35.7589 -35.7589
   -20.8445 -14.5723 -14.5718 -14.5717 -14.5691 -14.5600 -14.5600 -14.5429
   -14.5422 -14.5414 -14.5410  -6.1413  -6.1307  -6.0273  -2.9257  -2.7361
     3.9594   4.3967   5.8055   5.9500   6.1031   6.3102   8.9929   9.1933
     9.8809   9.9498  10.0311  10.7726  11.2288  11.2853  12.0327  12.9532
    13.2241  13.5328  14.0932  14.8452  14.8577  15.4191  15.5137  16.0790

     occupation numbers 
     1.0000   1.0000   1.0000   1.0000   1.0000   1.0000   1.0000   1.0000
     1.0000   1.0000   1.0000   1.0000   1.0000   1.0000   1.0000   1.0000
     1.0000   1.0000   1.0000   1.0000   1.0000   1.0000   1.0000   1.0000
     1.0000   1.0000   1.0000   1.0000   1.0000   1.0000  -0.0000  -0.0000
    -0.0000  -0.0000  -0.0000  -0.0000  -0.0000  -0.0000  -0.0000  -0.0000
    -0.0000  -0.0000  -0.0000  -0.0000  -0.0000  -0.0000  -0.0000  -0.0000

          k = 0.1667 0.2887-0.1479 ( 11553 PWs)   bands (ev):

   -69.0160 -69.0158 -35.7617 -35.7616 -35.7616 -35.7590 -35.7589 -35.7588
   -20.8445 -14.5731 -14.5717 -14.5707 -14.5694 -14.5602 -14.5598 -14.5429
   -14.5423 -14.5415 -14.5407  -6.1422  -6.1289  -6.0273  -2.9606  -2.7008
     3.9889   4.5169   5.3958   5.8120   6.2227   6.5303   8.8416   9.3954
     9.7856   9.9735  10.3677  10.7917  11.3374  11.4610  12.1032  12.7579
    12.8556  13.6351  13.7323  14.0352  15.0354  15.3983  15.6398  16.5043

     occupation numbers 
     1.0000   1.0000   1.0000   1.0000   1.0000   1.0000   1.0000   1.0000
     1.0000   1.0000   1.0000   1.0000   1.0000   1.0000   1.0000   1.0000
     1.0000   1.0000   1.0000   1.0000   1.0000   1.0000   1.0000   1.0000
     1.0000   1.0000   1.0000   1.0000   1.0000   1.0000  -0.0000  -0.0000
    -0.0000  -0.0000  -0.0000  -0.0000  -0.0000  -0.0000  -0.0000  -0.0000
    -0.0000  -0.0000  -0.0000  -0.0000  -0.0000  -0.0000  -0.0000  -0.0000

          k =-0.6667-0.1925 0.0000 ( 11514 PWs)   bands (ev):

   -69.0160 -69.0158 -35.7616 -35.7614 -35.7613 -35.7588 -35.7587 -35.7584
   -20.8414 -14.5731 -14.5715 -14.5698 -14.5691 -14.5594 -14.5588 -14.5430
   -14.5422 -14.5414 -14.5400  -6.2140  -6.0814  -6.0605  -2.7682  -2.6877
     3.8075   4.1005   5.1040   5.5401   5.8436   6.2015   8.9697   9.6347
    10.0398  10.3731  10.8504  11.0813  11.5019  11.7848  12.4014  12.9131
    13.3119  13.5740  14.1551  14.8218  15.0001  15.2850  15.9223  16.6060

     occupation numbers 
     1.0000   1.0000   1.0000   1.0000   1.0000   1.0000   1.0000   1.0000
     1.0000   1.0000   1.0000   1.0000   1.0000   1.0000   1.0000   1.0000
     1.0000   1.0000   1.0000   1.0000   1.0000   1.0000   1.0000   1.0000
     1.0000   1.0000   1.0000   1.0000   1.0000   1.0000  -0.0000  -0.0000
    -0.0000  -0.0000  -0.0000  -0.0000  -0.0000  -0.0000  -0.0000  -0.0000
    -0.0000  -0.0000  -0.0000  -0.0000  -0.0000  -0.0000  -0.0000  -0.0000

          k =-0.6667-0.1925 0.1479 ( 11540 PWs)   bands (ev):

   -69.0160 -69.0158 -35.7617 -35.7617 -35.7614 -35.7590 -35.7588 -35.7586
   -20.8414 -14.5729 -14.5718 -14.5704 -14.5683 -14.5594 -14.5588 -14.5429
   -14.5422 -14.5413 -14.5402  -6.2131  -6.0819  -6.0604  -2.8359  -2.6173
     3.8245   3.9288   5.2461   5.6152   5.8826   6.3426   8.6737   9.5558
     9.8923  10.0563  10.6934  10.9437  11.5247  12.2840  12.5836  13.2692
    13.4155  13.8502  14.4205  14.6611  15.2178  15.2898  15.7015  16.3764

     occupation numbers 
     1.0000   1.0000   1.0000   1.0000   1.0000   1.0000   1.0000   1.0000
     1.0000   1.0000   1.0000   1.0000   1.0000   1.0000   1.0000   1.0000
     1.0000   1.0000   1.0000   1.0000   1.0000   1.0000   1.0000   1.0000
     1.0000   1.0000   1.0000   1.0000   1.0000   1.0000  -0.0000  -0.0000
    -0.0000  -0.0000  -0.0000  -0.0000  -0.0000  -0.0000  -0.0000  -0.0000
    -0.0000  -0.0000  -0.0000  -0.0000  -0.0000  -0.0000  -0.0000  -0.0000

          k =-0.6667-0.1925-0.2958 ( 11530 PWs)   bands (ev):

   -69.0160 -69.0158 -35.7618 -35.7615 -35.7613 -35.7590 -35.7587 -35.7583
   -20.8414 -14.5736 -14.5712 -14.5710 -14.5677 -14.5593 -14.5588 -14.5430
   -14.5419 -14.5409 -14.5407  -6.2125  -6.0820  -6.0606  -2.8424  -2.6129
     3.8149   3.9390   5.3052   5.5787   5.9766   6.3017   8.6088   9.1957
     9.7559  10.1327  10.9709  11.2352  11.5130  11.8280  12.8007  13.2615
    13.4283  13.8405  14.4976  14.8468  15.0500  15.7454  15.9462  16.7249

     occupation numbers 
     1.0000   1.0000   1.0000   1.0000   1.0000   1.0000   1.0000   1.0000
     1.0000   1.0000   1.0000   1.0000   1.0000   1.0000   1.0000   1.0000
     1.0000   1.0000   1.0000   1.0000   1.0000   1.0000   1.0000   1.0000
     1.0000   1.0000   1.0000   1.0000   1.0000   1.0000  -0.0000  -0.0000
    -0.0000  -0.0000  -0.0000  -0.0000  -0.0000  -0.0000  -0.0000  -0.0000
    -0.0000  -0.0000  -0.0000  -0.0000  -0.0000  -0.0000  -0.0000  -0.0000

          k =-0.6667-0.1925-0.1479 ( 11540 PWs)   bands (ev):

   -69.0160 -69.0158 -35.7618 -35.7617 -35.7616 -35.7589 -35.7587 -35.7586
   -20.8414 -14.5736 -14.5715 -14.5701 -14.5682 -14.5593 -14.5589 -14.5431
   -14.5420 -14.5412 -14.5403  -6.2134  -6.0815  -6.0606  -2.7823  -2.6758
     3.8148   4.0818   5.2067   5.4677   5.9925   6.0980   8.8496   9.4464
     9.9019  10.3721  10.8135  11.4035  11.5111  11.9547  12.4334  12.7932
    13.0227  13.9369  14.1248  14.8004  15.2107  15.6899  15.7572  16.9224

     occupation numbers 
     1.0000   1.0000   1.0000   1.0000   1.0000   1.0000   1.0000   1.0000
     1.0000   1.0000   1.0000   1.0000   1.0000   1.0000   1.0000   1.0000
     1.0000   1.0000   1.0000   1.0000   1.0000   1.0000   1.0000   1.0000
     1.0000   1.0000   1.0000   1.0000   1.0000   1.0000  -0.0000  -0.0000
    -0.0000  -0.0000  -0.0000  -0.0000  -0.0000  -0.0000  -0.0000  -0.0000
    -0.0000  -0.0000  -0.0000  -0.0000  -0.0000  -0.0000  -0.0000  -0.0000

          k =-0.5000-0.0962 0.0000 ( 11514 PWs)   bands (ev):

   -69.0160 -69.0158 -35.7616 -35.7614 -35.7613 -35.7588 -35.7587 -35.7584
   -20.8414 -14.5731 -14.5715 -14.5698 -14.5691 -14.5594 -14.5588 -14.5430
   -14.5422 -14.5414 -14.5400  -6.2140  -6.0814  -6.0605  -2.7682  -2.6877
     3.8075   4.1005   5.1040   5.5401   5.8436   6.2015   8.9697   9.6347
    10.0398  10.3731  10.8504  11.0813  11.5019  11.7848  12.4014  12.9131
    13.3119  13.5740  14.1551  14.8218  15.0001  15.2850  15.9223  16.6060

     occupation numbers 
     1.0000   1.0000   1.0000   1.0000   1.0000   1.0000   1.0000   1.0000
     1.0000   1.0000   1.0000   1.0000   1.0000   1.0000   1.0000   1.0000
     1.0000   1.0000   1.0000   1.0000   1.0000   1.0000   1.0000   1.0000
     1.0000   1.0000   1.0000   1.0000   1.0000   1.0000  -0.0000  -0.0000
    -0.0000  -0.0000  -0.0000  -0.0000  -0.0000  -0.0000  -0.0000  -0.0000
    -0.0000  -0.0000  -0.0000  -0.0000  -0.0000  -0.0000  -0.0000  -0.0000

          k =-0.5000-0.0962 0.1479 ( 11540 PWs)   bands (ev):

   -69.0160 -69.0158 -35.7618 -35.7617 -35.7616 -35.7589 -35.7587 -35.7586
   -20.8414 -14.5736 -14.5715 -14.5701 -14.5682 -14.5593 -14.5589 -14.5431
   -14.5420 -14.5412 -14.5403  -6.2134  -6.0815  -6.0606  -2.7823  -2.6758
     3.8147   4.0818   5.2067   5.4677   5.9925   6.0980   8.8496   9.4464
     9.9019  10.3721  10.8135  11.4035  11.5111  11.9547  12.4334  12.7932
    13.0227  13.9369  14.1248  14.8004  15.2107  15.6899  15.7572  16.9226

     occupation numbers 
     1.0000   1.0000   1.0000   1.0000   1.0000   1.0000   1.0000   1.0000
     1.0000   1.0000   1.0000   1.0000   1.0000   1.0000   1.0000   1.0000
     1.0000   1.0000   1.0000   1.0000   1.0000   1.0000   1.0000   1.0000
     1.0000   1.0000   1.0000   1.0000   1.0000   1.0000  -0.0000  -0.0000
    -0.0000  -0.0000  -0.0000  -0.0000  -0.0000  -0.0000  -0.0000  -0.0000
    -0.0000  -0.0000  -0.0000  -0.0000  -0.0000  -0.0000  -0.0000  -0.0000

          k =-0.5000-0.0962-0.2958 ( 11530 PWs)   bands (ev):

   -69.0160 -69.0158 -35.7618 -35.7615 -35.7613 -35.7590 -35.7587 -35.7583
   -20.8414 -14.5736 -14.5712 -14.5710 -14.5677 -14.5593 -14.5588 -14.5430
   -14.5419 -14.5409 -14.5407  -6.2125  -6.0820  -6.0606  -2.8424  -2.6129
     3.8149   3.9390   5.3052   5.5787   5.9766   6.3017   8.6088   9.1957
     9.7559  10.1327  10.9709  11.2352  11.5130  11.8280  12.8007  13.2615
    13.4283  13.8405  14.4976  14.8468  15.0500  15.7454  15.9462  16.7250

     occupation numbers 
     1.0000   1.0000   1.0000   1.0000   1.0000   1.0000   1.0000   1.0000
     1.0000   1.0000   1.0000   1.0000   1.0000   1.0000   1.0000   1.0000
     1.0000   1.0000   1.0000   1.0000   1.0000   1.0000   1.0000   1.0000
     1.0000   1.0000   1.0000   1.0000   1.0000   1.0000  -0.0000  -0.0000
    -0.0000  -0.0000  -0.0000  -0.0000  -0.0000  -0.0000  -0.0000  -0.0000
    -0.0000  -0.0000  -0.0000  -0.0000  -0.0000  -0.0000  -0.0000  -0.0000

          k =-0.5000-0.0962-0.1479 ( 11540 PWs)   bands (ev):

   -69.0160 -69.0158 -35.7617 -35.7617 -35.7614 -35.7590 -35.7588 -35.7586
   -20.8414 -14.5729 -14.5718 -14.5704 -14.5683 -14.5594 -14.5588 -14.5429
   -14.5422 -14.5413 -14.5402  -6.2131  -6.0819  -6.0604  -2.8359  -2.6173
     3.8245   3.9288   5.2461   5.6152   5.8826   6.3426   8.6737   9.5558
     9.8923  10.0563  10.6934  10.9437  11.5247  12.2840  12.5836  13.2692
    13.4155  13.8502  14.4205  14.6611  15.2178  15.2898  15.7015  16.3764

     occupation numbers 
     1.0000   1.0000   1.0000   1.0000   1.0000   1.0000   1.0000   1.0000
     1.0000   1.0000   1.0000   1.0000   1.0000   1.0000   1.0000   1.0000
     1.0000   1.0000   1.0000   1.0000   1.0000   1.0000   1.0000   1.0000
     1.0000   1.0000   1.0000   1.0000   1.0000   1.0000  -0.0000  -0.0000
    -0.0000  -0.0000  -0.0000  -0.0000  -0.0000  -0.0000  -0.0000  -0.0000
    -0.0000  -0.0000  -0.0000  -0.0000  -0.0000  -0.0000  -0.0000  -0.0000

          k =-0.3333 0.0000 0.0000 ( 11513 PWs)   bands (ev):

   -69.0160 -69.0158 -35.7615 -35.7613 -35.7612 -35.7586 -35.7585 -35.7585
   -20.8445 -14.5736 -14.5713 -14.5702 -14.5699 -14.5603 -14.5598 -14.5428
   -14.5426 -14.5414 -14.5406  -6.1429  -6.1273  -6.0274  -2.9879  -2.6731
     4.0286   4.7074   5.0436   5.7862   6.1150   6.7176   8.9005   9.2831
     9.6840  10.3194  10.4620  11.1783  11.3440  11.7705  11.9573  12.0671
    13.1224  13.1277  13.3026  14.3846  14.9091  15.0537  16.0249  16.2572

     occupation numbers 
     1.0000   1.0000   1.0000   1.0000   1.0000   1.0000   1.0000   1.0000
     1.0000   1.0000   1.0000   1.0000   1.0000   1.0000   1.0000   1.0000
     1.0000   1.0000   1.0000   1.0000   1.0000   1.0000   1.0000   1.0000
     1.0000   1.0000   1.0000   1.0000   1.0000   1.0000  -0.0000  -0.0000
    -0.0000  -0.0000  -0.0000  -0.0000  -0.0000  -0.0000  -0.0000  -0.0000
    -0.0000  -0.0000  -0.0000  -0.0000  -0.0000  -0.0000  -0.0000  -0.0000

          k =-0.3333 0.0000 0.1479 ( 11553 PWs)   bands (ev):

   -69.0160 -69.0158 -35.7617 -35.7616 -35.7616 -35.7590 -35.7589 -35.7588
   -20.8445 -14.5731 -14.5717 -14.5707 -14.5694 -14.5602 -14.5598 -14.5429
   -14.5423 -14.5415 -14.5407  -6.1422  -6.1289  -6.0273  -2.9606  -2.7008
     3.9889   4.5169   5.3958   5.8120   6.2227   6.5303   8.8416   9.3954
     9.7856   9.9735  10.3677  10.7917  11.3374  11.4610  12.1032  12.7579
    12.8556  13.6351  13.7323  14.0352  15.0354  15.3983  15.6399  16.5043

     occupation numbers 
     1.0000   1.0000   1.0000   1.0000   1.0000   1.0000   1.0000   1.0000
     1.0000   1.0000   1.0000   1.0000   1.0000   1.0000   1.0000   1.0000
     1.0000   1.0000   1.0000   1.0000   1.0000   1.0000   1.0000   1.0000
     1.0000   1.0000   1.0000   1.0000   1.0000   1.0000  -0.0000  -0.0000
    -0.0000  -0.0000  -0.0000  -0.0000  -0.0000  -0.0000  -0.0000  -0.0000
    -0.0000  -0.0000  -0.0000  -0.0000  -0.0000  -0.0000  -0.0000  -0.0000

          k =-0.3333 0.0000-0.2958 ( 11552 PWs)   bands (ev):

   -69.0160 -69.0158 -35.7617 -35.7615 -35.7613 -35.7592 -35.7589 -35.7589
   -20.8445 -14.5723 -14.5718 -14.5717 -14.5691 -14.5600 -14.5600 -14.5429
   -14.5422 -14.5414 -14.5410  -6.1413  -6.1307  -6.0273  -2.9257  -2.7361
     3.9594   4.3966   5.8055   5.9500   6.1031   6.3102   8.9929   9.1933
     9.8809   9.9498  10.0311  10.7726  11.2288  11.2853  12.0327  12.9532
    13.2240  13.5328  14.0932  14.8452  14.8577  15.4191  15.5137  16.0791

     occupation numbers 
     1.0000   1.0000   1.0000   1.0000   1.0000   1.0000   1.0000   1.0000
     1.0000   1.0000   1.0000   1.0000   1.0000   1.0000   1.0000   1.0000
     1.0000   1.0000   1.0000   1.0000   1.0000   1.0000   1.0000   1.0000
     1.0000   1.0000   1.0000   1.0000   1.0000   1.0000  -0.0000  -0.0000
    -0.0000  -0.0000  -0.0000  -0.0000  -0.0000  -0.0000  -0.0000  -0.0000
    -0.0000  -0.0000  -0.0000  -0.0000  -0.0000  -0.0000  -0.0000  -0.0000

          k =-0.3333 0.0000-0.1479 ( 11553 PWs)   bands (ev):

   -69.0160 -69.0158 -35.7617 -35.7616 -35.7616 -35.7590 -35.7589 -35.7588
   -20.8445 -14.5731 -14.5717 -14.5707 -14.5694 -14.5602 -14.5598 -14.5429
   -14.5423 -14.5415 -14.5407  -6.1422  -6.1289  -6.0273  -2.9606  -2.7008
     3.9889   4.5169   5.3958   5.8120   6.2227   6.5303   8.8416   9.3954
     9.7856   9.9735  10.3677  10.7917  11.3374  11.4610  12.1032  12.7579
    12.8556  13.6351  13.7323  14.0352  15.0354  15.3983  15.6398  16.5043

     occupation numbers 
     1.0000   1.0000   1.0000   1.0000   1.0000   1.0000   1.0000   1.0000
     1.0000   1.0000   1.0000   1.0000   1.0000   1.0000   1.0000   1.0000
     1.0000   1.0000   1.0000   1.0000   1.0000   1.0000   1.0000   1.0000
     1.0000   1.0000   1.0000   1.0000   1.0000   1.0000  -0.0000  -0.0000
    -0.0000  -0.0000  -0.0000  -0.0000  -0.0000  -0.0000  -0.0000  -0.0000
    -0.0000  -0.0000  -0.0000  -0.0000  -0.0000  -0.0000  -0.0000  -0.0000

     the Fermi energy is     7.4894 ev

!    total energy              =    -622.19452536 Ry
     estimated scf accuracy    <          8.1E-09 Ry
     smearing contrib. (-TS)   =       0.00001573 Ry
     internal energy E=F+TS    =    -622.19454109 Ry

     The total energy is F=E-TS. E is the sum of the following terms:
     one-electron contribution =    -350.90685810 Ry
     hartree contribution      =     188.79172907 Ry
     xc contribution           =    -131.74191316 Ry
     ewald contribution        =    -328.33749891 Ry

     convergence has been achieved in   9 iterations

     Writing all to output data dir ./out_nosoc_nc_BaMg2Bi2/BaMg2Bi2_nosoc_nc.save/ :
     XML data file, charge density, pseudopotentials, collected wavefunctions

     init_run     :      4.91s CPU      5.61s WALL (       1 calls)
     electrons    :    122.77s CPU    130.18s WALL (       1 calls)

     Called by init_run:
     wfcinit      :      3.96s CPU      4.63s WALL (       1 calls)
     wfcinit:atom :      0.05s CPU      0.06s WALL (      18 calls)
     wfcinit:wfcr :      3.71s CPU      4.18s WALL (      18 calls)
     potinit      :      0.12s CPU      0.13s WALL (       1 calls)
     hinit0       :      0.80s CPU      0.81s WALL (       1 calls)

     Called by electrons:
     c_bands      :    110.04s CPU    115.73s WALL (      10 calls)
     sum_band     :     11.83s CPU     12.98s WALL (      10 calls)
     v_of_rho     :      0.76s CPU      1.11s WALL (      10 calls)
     v_h          :      0.03s CPU      0.04s WALL (      10 calls)
     v_xc         :      0.73s CPU      1.07s WALL (      10 calls)
     mix_rho      :      0.06s CPU      0.18s WALL (      10 calls)

     Called by c_bands:
     init_us_2    :      1.64s CPU      1.83s WALL (     378 calls)
     cegterg      :     98.58s CPU    102.93s WALL (     180 calls)

     Called by sum_band:
     sum_band:wei :      0.02s CPU      0.02s WALL (      10 calls)
     sum_band:loo :     11.06s CPU     12.15s WALL (      10 calls)
     sum_band:buf :      0.00s CPU      0.31s WALL (     180 calls)
     sum_band:ini :      0.72s CPU      0.83s WALL (     180 calls)

     Called by *egterg:
     cdiaghg      :      1.61s CPU      1.70s WALL (     722 calls)
     cegterg:over :     10.77s CPU     11.24s WALL (     560 calls)
     cegterg:upda :      6.42s CPU      6.69s WALL (     560 calls)
     cegterg:last :     11.87s CPU     12.40s WALL (     371 calls)
     h_psi        :     65.98s CPU     69.17s WALL (     758 calls)
     g_psi        :      0.31s CPU      0.32s WALL (     560 calls)

     Called by h_psi:
     h_psi:calbec :      8.23s CPU      8.59s WALL (     758 calls)
     vloc_psi     :     49.67s CPU     52.16s WALL (     758 calls)
                                        0.00s GPU  (     758 calls)
     add_vuspsi   :      7.81s CPU      8.12s WALL (     758 calls)

     General routines
     calbec       :      8.23s CPU      8.59s WALL (     758 calls)
     fft          :      0.60s CPU      0.62s WALL (     101 calls)
     ffts         :      0.02s CPU      0.02s WALL (      10 calls)
     fftw         :     52.52s CPU     55.12s WALL (   50514 calls)
     davcio       :      0.01s CPU      1.36s WALL (     662 calls)

     Parallel routines

     PWSCF        :   2m 8.03s CPU   2m18.43s WALL


   This run was terminated on:  22: 1: 7  12Jul2026            

=------------------------------------------------------------------------------=
   JOB DONE.
=------------------------------------------------------------------------------=
