
     Program PWSCF v.7.5 starts on 12Jul2026 at 21:58: 8 

     This program is part of the open-source Quantum ESPRESSO suite
     for quantum simulation of materials; please cite
         "P. Giannozzi et al., J. Phys.:Condens. Matter 21 395502 (2009);
         "P. Giannozzi et al., J. Phys.:Condens. Matter 29 465901 (2017);
         "P. Giannozzi et al., J. Chem. Phys. 152 154105 (2020);
          URL http://www.quantum-espresso.org", 
     in publications or presentations arising from this work. More details at
     http://www.quantum-espresso.org/quote

     Parallel version (MPI & OpenMP), running on       8 processor cores
     Number of MPI processes:                 8
     Threads/MPI process:                     1

     MPI processes distributed on     1 nodes
     0 MiB available memory on the printing compute node when the environment starts

     Reading input from PbTe.scf.nosoc.nc.in

     Current dimensions of program PWSCF are:
     Max number of different atomic species (ntypx) = 10
     Max number of k-points (npk) =  40000
     Max angular momentum in pseudopotentials (lmaxx) =  4

     K-points division:     npool     =       8
     Subspace diagonalization in iterative solution of the eigenvalue problem:
     a serial algorithm will be used


     G-vector sticks info
     --------------------
     sticks:   dense  smooth     PW     G-vecs:    dense   smooth      PW
     Sum        1483    1483    433                37461    37461    5961

     Using Slab Decomposition



     bravais-lattice index     =            0
     lattice parameter (alat)  =       8.7440  a.u.
     unit-cell volume          =     472.7339 (a.u.)^3
     number of atoms/cell      =            2
     number of atomic types    =            2
     number of electrons       =        30.00
     number of Kohn-Sham states=           24
     kinetic-energy cutoff     =      70.0000  Ry
     charge density cutoff     =     280.0000  Ry
     scf convergence threshold =      1.0E-08
     mixing beta               =       0.3000
     number of iterations used =            8  plain     mixing
     Exchange-correlation= PBE
                           (   1   4   3   4   0   0   0)

     celldm(1)=   8.744008  celldm(2)=   0.000000  celldm(3)=   0.000000
     celldm(4)=   0.000000  celldm(5)=   0.000000  celldm(6)=   0.000000

     crystal axes: (cart. coord. in units of alat)
               a(1) = (   0.866025   0.000000   0.500000 )  
               a(2) = (   0.288675   0.816497   0.500000 )  
               a(3) = (   0.000000   0.000000   1.000000 )  

     reciprocal axes: (cart. coord. in units 2 pi/alat)
               b(1) = (  1.154701 -0.408248  0.000000 )  
               b(2) = (  0.000000  1.224745  0.000000 )  
               b(3) = ( -0.577350 -0.408248  1.000000 )  


     PseudoPot. # 1 for Te read from file:
     ./pseudo_nc/Te_SR.upf
     MD5 check sum: 3368f43c0236043475348b0373f3ab9d
     Pseudo is Norm-conserving + core correction, Zval = 16.0
     Generated using ONCVPSP code by D. R. Hamann
     Using radial grid of 1294 points,  6 beta functions with: 
                l(1) =   0
                l(2) =   0
                l(3) =   1
                l(4) =   1
                l(5) =   2
                l(6) =   2

     PseudoPot. # 2 for Pb read from file:
     ./pseudo_nc/Pb_SR.upf
     MD5 check sum: 465799cf2c9ea2062203eb79f5a7a375
     Pseudo is Norm-conserving + core correction, Zval = 14.0
     Generated using ONCVPSP code by D. R. Hamann
     Using radial grid of 1678 points,  6 beta functions with: 
                l(1) =   0
                l(2) =   0
                l(3) =   1
                l(4) =   1
                l(5) =   2
                l(6) =   2

     atomic species   valence    mass     pseudopotential
     Te               16.00   127.60000     Te( 1.00)
     Pb               14.00   207.20000     Pb( 1.00)

     No symmetry found


                                    s                        frac. trans.

      isym =  1     identity                                     

 cryst.   s( 1) = (     1          0          0      )
                  (     0          1          0      )
                  (     0          0          1      )

 cart.    s( 1) = (  1.0000000  0.0000000  0.0000000 )
                  (  0.0000000  1.0000000  0.0000000 )
                  (  0.0000000  0.0000000  1.0000000 )


   Cartesian axes

     site n.     atom                  positions (alat units)
         1        Te     tau(   1) = (   0.0000000   0.0000000   0.0000000  )
         2        Pb     tau(   2) = (   0.5773502   0.4082483   1.0000000  )

   Crystallographic axes

     site n.     atom                  positions (cryst. coord.)
         1        Te     tau(   1) = (  0.0000000  0.0000000  0.0000000  )
         2        Pb     tau(   2) = (  0.5000000  0.5000000  0.5000000  )

     number of k points=   216  Methfessel-Paxton smearing, width (Ry)=  0.0100
                       cart. coord. in units 2pi/alat
        k(    1) = (   0.0000000   0.0000000   0.0000000), wk =   0.0092593
        k(    2) = (  -0.0962250  -0.0680414   0.1666667), wk =   0.0092593
        k(    3) = (  -0.1924501  -0.1360828   0.3333333), wk =   0.0092593
        k(    4) = (   0.2886751   0.2041242  -0.5000000), wk =   0.0092593
        k(    5) = (   0.1924501   0.1360828  -0.3333333), wk =   0.0092593
        k(    6) = (   0.0962250   0.0680414  -0.1666667), wk =   0.0092593
        k(    7) = (   0.0000000   0.2041241   0.0000000), wk =   0.0092593
        k(    8) = (  -0.0962250   0.1360827   0.1666667), wk =   0.0092593
        k(    9) = (  -0.1924501   0.0680414   0.3333333), wk =   0.0092593
        k(   10) = (   0.2886751   0.4082483  -0.5000000), wk =   0.0092593
        k(   11) = (   0.1924501   0.3402069  -0.3333333), wk =   0.0092593
        k(   12) = (   0.0962250   0.2721655  -0.1666667), wk =   0.0092593
        k(   13) = (   0.0000000   0.4082483   0.0000000), wk =   0.0092593
        k(   14) = (  -0.0962250   0.3402069   0.1666667), wk =   0.0092593
        k(   15) = (  -0.1924501   0.2721655   0.3333333), wk =   0.0092593
        k(   16) = (   0.2886751   0.6123724  -0.5000000), wk =   0.0092593
        k(   17) = (   0.1924501   0.5443310  -0.3333333), wk =   0.0092593
        k(   18) = (   0.0962250   0.4762896  -0.1666667), wk =   0.0092593
        k(   19) = (   0.0000000  -0.6123724   0.0000000), wk =   0.0092593
        k(   20) = (  -0.0962250  -0.6804138   0.1666667), wk =   0.0092593
        k(   21) = (  -0.1924501  -0.7484552   0.3333333), wk =   0.0092593
        k(   22) = (   0.2886751  -0.4082482  -0.5000000), wk =   0.0092593
        k(   23) = (   0.1924501  -0.4762896  -0.3333333), wk =   0.0092593
        k(   24) = (   0.0962250  -0.5443310  -0.1666667), wk =   0.0092593
        k(   25) = (   0.0000000  -0.4082483   0.0000000), wk =   0.0092593
        k(   26) = (  -0.0962250  -0.4762896   0.1666667), wk =   0.0092593
        k(   27) = (  -0.1924501  -0.5443310   0.3333333), wk =   0.0092593
        k(   28) = (   0.2886751  -0.2041241  -0.5000000), wk =   0.0092593
        k(   29) = (   0.1924501  -0.2721655  -0.3333333), wk =   0.0092593
        k(   30) = (   0.0962250  -0.3402069  -0.1666667), wk =   0.0092593
        k(   31) = (   0.0000000  -0.2041241   0.0000000), wk =   0.0092593
        k(   32) = (  -0.0962250  -0.2721655   0.1666667), wk =   0.0092593
        k(   33) = (  -0.1924501  -0.3402069   0.3333333), wk =   0.0092593
        k(   34) = (   0.2886751   0.0000000  -0.5000000), wk =   0.0092593
        k(   35) = (   0.1924501  -0.0680414  -0.3333333), wk =   0.0092593
        k(   36) = (   0.0962250  -0.1360827  -0.1666667), wk =   0.0092593
        k(   37) = (   0.1924501  -0.0680414   0.0000000), wk =   0.0092593
        k(   38) = (   0.0962250  -0.1360827   0.1666667), wk =   0.0092593
        k(   39) = (   0.0000000  -0.2041241   0.3333333), wk =   0.0092593
        k(   40) = (   0.4811252   0.1360828  -0.5000000), wk =   0.0092593
        k(   41) = (   0.3849002   0.0680414  -0.3333333), wk =   0.0092593
        k(   42) = (   0.2886751   0.0000000  -0.1666667), wk =   0.0092593
        k(   43) = (   0.1924501   0.1360828   0.0000000), wk =   0.0092593
        k(   44) = (   0.0962250   0.0680414   0.1666667), wk =   0.0092593
        k(   45) = (   0.0000000   0.0000000   0.3333333), wk =   0.0092593
        k(   46) = (   0.4811252   0.3402069  -0.5000000), wk =   0.0092593
        k(   47) = (   0.3849002   0.2721655  -0.3333333), wk =   0.0092593
        k(   48) = (   0.2886751   0.2041242  -0.1666667), wk =   0.0092593
        k(   49) = (   0.1924501   0.3402069   0.0000000), wk =   0.0092593
        k(   50) = (   0.0962250   0.2721655   0.1666667), wk =   0.0092593
        k(   51) = (   0.0000000   0.2041241   0.3333333), wk =   0.0092593
        k(   52) = (   0.4811252   0.5443311  -0.5000000), wk =   0.0092593
        k(   53) = (   0.3849002   0.4762897  -0.3333333), wk =   0.0092593
        k(   54) = (   0.2886751   0.4082483  -0.1666667), wk =   0.0092593
        k(   55) = (   0.1924501  -0.6804138   0.0000000), wk =   0.0092593
        k(   56) = (   0.0962250  -0.7484551   0.1666667), wk =   0.0092593
        k(   57) = (   0.0000000  -0.8164965   0.3333333), wk =   0.0092593
        k(   58) = (   0.4811252  -0.4762896  -0.5000000), wk =   0.0092593
        k(   59) = (   0.3849002  -0.5443310  -0.3333333), wk =   0.0092593
        k(   60) = (   0.2886751  -0.6123724  -0.1666667), wk =   0.0092593
        k(   61) = (   0.1924501  -0.4762896   0.0000000), wk =   0.0092593
        k(   62) = (   0.0962250  -0.5443310   0.1666667), wk =   0.0092593
        k(   63) = (   0.0000000  -0.6123724   0.3333333), wk =   0.0092593
        k(   64) = (   0.4811252  -0.2721655  -0.5000000), wk =   0.0092593
        k(   65) = (   0.3849002  -0.3402069  -0.3333333), wk =   0.0092593
        k(   66) = (   0.2886751  -0.4082482  -0.1666667), wk =   0.0092593
        k(   67) = (   0.1924501  -0.2721655   0.0000000), wk =   0.0092593
        k(   68) = (   0.0962250  -0.3402069   0.1666667), wk =   0.0092593
        k(   69) = (   0.0000000  -0.4082483   0.3333333), wk =   0.0092593
        k(   70) = (   0.4811252  -0.0680413  -0.5000000), wk =   0.0092593
        k(   71) = (   0.3849002  -0.1360827  -0.3333333), wk =   0.0092593
        k(   72) = (   0.2886751  -0.2041241  -0.1666667), wk =   0.0092593
        k(   73) = (   0.3849002  -0.1360827   0.0000000), wk =   0.0092593
        k(   74) = (   0.2886751  -0.2041241   0.1666667), wk =   0.0092593
        k(   75) = (   0.1924501  -0.2721655   0.3333333), wk =   0.0092593
        k(   76) = (   0.6735753   0.0680414  -0.5000000), wk =   0.0092593
        k(   77) = (   0.5773503   0.0000001  -0.3333333), wk =   0.0092593
        k(   78) = (   0.4811252  -0.0680413  -0.1666667), wk =   0.0092593
        k(   79) = (   0.3849002   0.0680414   0.0000000), wk =   0.0092593
        k(   80) = (   0.2886751   0.0000000   0.1666667), wk =   0.0092593
        k(   81) = (   0.1924501  -0.0680414   0.3333333), wk =   0.0092593
        k(   82) = (   0.6735753   0.2721656  -0.5000000), wk =   0.0092593
        k(   83) = (   0.5773503   0.2041242  -0.3333333), wk =   0.0092593
        k(   84) = (   0.4811252   0.1360828  -0.1666667), wk =   0.0092593
        k(   85) = (   0.3849002   0.2721655   0.0000000), wk =   0.0092593
        k(   86) = (   0.2886751   0.2041242   0.1666667), wk =   0.0092593
        k(   87) = (   0.1924501   0.1360828   0.3333333), wk =   0.0092593
        k(   88) = (   0.6735753   0.4762897  -0.5000000), wk =   0.0092593
        k(   89) = (   0.5773503   0.4082483  -0.3333333), wk =   0.0092593
        k(   90) = (   0.4811252   0.3402069  -0.1666667), wk =   0.0092593
        k(   91) = (   0.3849002  -0.7484551   0.0000000), wk =   0.0092593
        k(   92) = (   0.2886751  -0.8164965   0.1666667), wk =   0.0092593
        k(   93) = (   0.1924501  -0.8845379   0.3333333), wk =   0.0092593
        k(   94) = (   0.6735753  -0.5443310  -0.5000000), wk =   0.0092593
        k(   95) = (   0.5773503  -0.6123723  -0.3333333), wk =   0.0092593
        k(   96) = (   0.4811252  -0.6804137  -0.1666667), wk =   0.0092593
        k(   97) = (   0.3849002  -0.5443310   0.0000000), wk =   0.0092593
        k(   98) = (   0.2886751  -0.6123724   0.1666667), wk =   0.0092593
        k(   99) = (   0.1924501  -0.6804138   0.3333333), wk =   0.0092593
        k(  100) = (   0.6735753  -0.3402068  -0.5000000), wk =   0.0092593
        k(  101) = (   0.5773503  -0.4082482  -0.3333333), wk =   0.0092593
        k(  102) = (   0.4811252  -0.4762896  -0.1666667), wk =   0.0092593
        k(  103) = (   0.3849002  -0.3402069   0.0000000), wk =   0.0092593
        k(  104) = (   0.2886751  -0.4082482   0.1666667), wk =   0.0092593
        k(  105) = (   0.1924501  -0.4762896   0.3333333), wk =   0.0092593
        k(  106) = (   0.6735753  -0.1360827  -0.5000000), wk =   0.0092593
        k(  107) = (   0.5773503  -0.2041241  -0.3333333), wk =   0.0092593
        k(  108) = (   0.4811252  -0.2721655  -0.1666667), wk =   0.0092593
        k(  109) = (  -0.5773503   0.2041241   0.0000000), wk =   0.0092593
        k(  110) = (  -0.6735753   0.1360827   0.1666667), wk =   0.0092593
        k(  111) = (  -0.7698004   0.0680413   0.3333333), wk =   0.0092593
        k(  112) = (  -0.2886751   0.4082482  -0.5000000), wk =   0.0092593
        k(  113) = (  -0.3849002   0.3402069  -0.3333333), wk =   0.0092593
        k(  114) = (  -0.4811252   0.2721655  -0.1666667), wk =   0.0092593
        k(  115) = (  -0.5773503   0.4082482   0.0000000), wk =   0.0092593
        k(  116) = (  -0.6735753   0.3402068   0.1666667), wk =   0.0092593
        k(  117) = (  -0.7698004   0.2721654   0.3333333), wk =   0.0092593
        k(  118) = (  -0.2886751   0.6123724  -0.5000000), wk =   0.0092593
        k(  119) = (  -0.3849002   0.5443310  -0.3333333), wk =   0.0092593
        k(  120) = (  -0.4811252   0.4762896  -0.1666667), wk =   0.0092593
        k(  121) = (  -0.5773503   0.6123723   0.0000000), wk =   0.0092593
        k(  122) = (  -0.6735753   0.5443310   0.1666667), wk =   0.0092593
        k(  123) = (  -0.7698004   0.4762896   0.3333333), wk =   0.0092593
        k(  124) = (  -0.2886751   0.8164965  -0.5000000), wk =   0.0092593
        k(  125) = (  -0.3849002   0.7484551  -0.3333333), wk =   0.0092593
        k(  126) = (  -0.4811252   0.6804137  -0.1666667), wk =   0.0092593
        k(  127) = (  -0.5773503  -0.4082483   0.0000000), wk =   0.0092593
        k(  128) = (  -0.6735753  -0.4762897   0.1666667), wk =   0.0092593
        k(  129) = (  -0.7698004  -0.5443311   0.3333333), wk =   0.0092593
        k(  130) = (  -0.2886751  -0.2041242  -0.5000000), wk =   0.0092593
        k(  131) = (  -0.3849002  -0.2721655  -0.3333333), wk =   0.0092593
        k(  132) = (  -0.4811252  -0.3402069  -0.1666667), wk =   0.0092593
        k(  133) = (  -0.5773503  -0.2041242   0.0000000), wk =   0.0092593
        k(  134) = (  -0.6735753  -0.2721656   0.1666667), wk =   0.0092593
        k(  135) = (  -0.7698004  -0.3402070   0.3333333), wk =   0.0092593
        k(  136) = (  -0.2886751  -0.0000000  -0.5000000), wk =   0.0092593
        k(  137) = (  -0.3849002  -0.0680414  -0.3333333), wk =   0.0092593
        k(  138) = (  -0.4811252  -0.1360828  -0.1666667), wk =   0.0092593
        k(  139) = (  -0.5773503  -0.0000001   0.0000000), wk =   0.0092593
        k(  140) = (  -0.6735753  -0.0680414   0.1666667), wk =   0.0092593
        k(  141) = (  -0.7698004  -0.1360828   0.3333333), wk =   0.0092593
        k(  142) = (  -0.2886751   0.2041241  -0.5000000), wk =   0.0092593
        k(  143) = (  -0.3849002   0.1360827  -0.3333333), wk =   0.0092593
        k(  144) = (  -0.4811252   0.0680413  -0.1666667), wk =   0.0092593
        k(  145) = (  -0.3849002   0.1360827   0.0000000), wk =   0.0092593
        k(  146) = (  -0.4811252   0.0680413   0.1666667), wk =   0.0092593
        k(  147) = (  -0.5773503  -0.0000001   0.3333333), wk =   0.0092593
        k(  148) = (  -0.0962250   0.3402069  -0.5000000), wk =   0.0092593
        k(  149) = (  -0.1924501   0.2721655  -0.3333333), wk =   0.0092593
        k(  150) = (  -0.2886751   0.2041241  -0.1666667), wk =   0.0092593
        k(  151) = (  -0.3849002   0.3402069   0.0000000), wk =   0.0092593
        k(  152) = (  -0.4811252   0.2721655   0.1666667), wk =   0.0092593
        k(  153) = (  -0.5773503   0.2041241   0.3333333), wk =   0.0092593
        k(  154) = (  -0.0962250   0.5443310  -0.5000000), wk =   0.0092593
        k(  155) = (  -0.1924501   0.4762896  -0.3333333), wk =   0.0092593
        k(  156) = (  -0.2886751   0.4082482  -0.1666667), wk =   0.0092593
        k(  157) = (  -0.3849002   0.5443310   0.0000000), wk =   0.0092593
        k(  158) = (  -0.4811252   0.4762896   0.1666667), wk =   0.0092593
        k(  159) = (  -0.5773503   0.4082482   0.3333333), wk =   0.0092593
        k(  160) = (  -0.0962250   0.7484551  -0.5000000), wk =   0.0092593
        k(  161) = (  -0.1924501   0.6804138  -0.3333333), wk =   0.0092593
        k(  162) = (  -0.2886751   0.6123724  -0.1666667), wk =   0.0092593
        k(  163) = (  -0.3849002  -0.4762897   0.0000000), wk =   0.0092593
        k(  164) = (  -0.4811252  -0.5443311   0.1666667), wk =   0.0092593
        k(  165) = (  -0.5773503  -0.6123724   0.3333333), wk =   0.0092593
        k(  166) = (  -0.0962250  -0.2721655  -0.5000000), wk =   0.0092593
        k(  167) = (  -0.1924501  -0.3402069  -0.3333333), wk =   0.0092593
        k(  168) = (  -0.2886751  -0.4082483  -0.1666667), wk =   0.0092593
        k(  169) = (  -0.3849002  -0.2721655   0.0000000), wk =   0.0092593
        k(  170) = (  -0.4811252  -0.3402069   0.1666667), wk =   0.0092593
        k(  171) = (  -0.5773503  -0.4082483   0.3333333), wk =   0.0092593
        k(  172) = (  -0.0962250  -0.0680414  -0.5000000), wk =   0.0092593
        k(  173) = (  -0.1924501  -0.1360828  -0.3333333), wk =   0.0092593
        k(  174) = (  -0.2886751  -0.2041242  -0.1666667), wk =   0.0092593
        k(  175) = (  -0.3849002  -0.0680414   0.0000000), wk =   0.0092593
        k(  176) = (  -0.4811252  -0.1360828   0.1666667), wk =   0.0092593
        k(  177) = (  -0.5773503  -0.2041242   0.3333333), wk =   0.0092593
        k(  178) = (  -0.0962250   0.1360827  -0.5000000), wk =   0.0092593
        k(  179) = (  -0.1924501   0.0680414  -0.3333333), wk =   0.0092593
        k(  180) = (  -0.2886751  -0.0000000  -0.1666667), wk =   0.0092593
        k(  181) = (  -0.1924501   0.0680414   0.0000000), wk =   0.0092593
        k(  182) = (  -0.2886751  -0.0000000   0.1666667), wk =   0.0092593
        k(  183) = (  -0.3849002  -0.0680414   0.3333333), wk =   0.0092593
        k(  184) = (   0.0962250   0.2721655  -0.5000000), wk =   0.0092593
        k(  185) = (   0.0000000   0.2041241  -0.3333333), wk =   0.0092593
        k(  186) = (  -0.0962250   0.1360827  -0.1666667), wk =   0.0092593
        k(  187) = (  -0.1924501   0.2721655   0.0000000), wk =   0.0092593
        k(  188) = (  -0.2886751   0.2041241   0.1666667), wk =   0.0092593
        k(  189) = (  -0.3849002   0.1360827   0.3333333), wk =   0.0092593
        k(  190) = (   0.0962250   0.4762896  -0.5000000), wk =   0.0092593
        k(  191) = (   0.0000000   0.4082483  -0.3333333), wk =   0.0092593
        k(  192) = (  -0.0962250   0.3402069  -0.1666667), wk =   0.0092593
        k(  193) = (  -0.1924501   0.4762896   0.0000000), wk =   0.0092593
        k(  194) = (  -0.2886751   0.4082482   0.1666667), wk =   0.0092593
        k(  195) = (  -0.3849002   0.3402069   0.3333333), wk =   0.0092593
        k(  196) = (   0.0962250   0.6804138  -0.5000000), wk =   0.0092593
        k(  197) = (   0.0000000   0.6123724  -0.3333333), wk =   0.0092593
        k(  198) = (  -0.0962250   0.5443310  -0.1666667), wk =   0.0092593
        k(  199) = (  -0.1924501  -0.5443310   0.0000000), wk =   0.0092593
        k(  200) = (  -0.2886751  -0.6123724   0.1666667), wk =   0.0092593
        k(  201) = (  -0.3849002  -0.6804138   0.3333333), wk =   0.0092593
        k(  202) = (   0.0962250  -0.3402069  -0.5000000), wk =   0.0092593
        k(  203) = (   0.0000000  -0.4082483  -0.3333333), wk =   0.0092593
        k(  204) = (  -0.0962250  -0.4762896  -0.1666667), wk =   0.0092593
        k(  205) = (  -0.1924501  -0.3402069   0.0000000), wk =   0.0092593
        k(  206) = (  -0.2886751  -0.4082483   0.1666667), wk =   0.0092593
        k(  207) = (  -0.3849002  -0.4762897   0.3333333), wk =   0.0092593
        k(  208) = (   0.0962250  -0.1360827  -0.5000000), wk =   0.0092593
        k(  209) = (   0.0000000  -0.2041241  -0.3333333), wk =   0.0092593
        k(  210) = (  -0.0962250  -0.2721655  -0.1666667), wk =   0.0092593
        k(  211) = (  -0.1924501  -0.1360828   0.0000000), wk =   0.0092593
        k(  212) = (  -0.2886751  -0.2041242   0.1666667), wk =   0.0092593
        k(  213) = (  -0.3849002  -0.2721655   0.3333333), wk =   0.0092593
        k(  214) = (   0.0962250   0.0680414  -0.5000000), wk =   0.0092593
        k(  215) = (   0.0000000   0.0000000  -0.3333333), wk =   0.0092593
        k(  216) = (  -0.0962250  -0.0680414  -0.1666667), wk =   0.0092593

                       cryst. coord.
        k(    1) = (   0.0000000   0.0000000   0.0000000), wk =   0.0092593
        k(    2) = (   0.0000000   0.0000000   0.1666667), wk =   0.0092593
        k(    3) = (   0.0000000   0.0000000   0.3333333), wk =   0.0092593
        k(    4) = (   0.0000000   0.0000000  -0.5000000), wk =   0.0092593
        k(    5) = (  -0.0000000  -0.0000000  -0.3333333), wk =   0.0092593
        k(    6) = (  -0.0000000  -0.0000000  -0.1666667), wk =   0.0092593
        k(    7) = (   0.0000000   0.1666667   0.0000000), wk =   0.0092593
        k(    8) = (   0.0000000   0.1666667   0.1666667), wk =   0.0092593
        k(    9) = (   0.0000000   0.1666667   0.3333333), wk =   0.0092593
        k(   10) = (   0.0000000   0.1666667  -0.5000000), wk =   0.0092593
        k(   11) = (  -0.0000000   0.1666667  -0.3333333), wk =   0.0092593
        k(   12) = (  -0.0000000   0.1666667  -0.1666667), wk =   0.0092593
        k(   13) = (   0.0000000   0.3333333   0.0000000), wk =   0.0092593
        k(   14) = (   0.0000000   0.3333333   0.1666667), wk =   0.0092593
        k(   15) = (   0.0000000   0.3333333   0.3333333), wk =   0.0092593
        k(   16) = (   0.0000000   0.3333333  -0.5000000), wk =   0.0092593
        k(   17) = (  -0.0000000   0.3333333  -0.3333333), wk =   0.0092593
        k(   18) = (  -0.0000000   0.3333333  -0.1666667), wk =   0.0092593
        k(   19) = (   0.0000000  -0.5000000   0.0000000), wk =   0.0092593
        k(   20) = (   0.0000000  -0.5000000   0.1666667), wk =   0.0092593
        k(   21) = (   0.0000000  -0.5000000   0.3333333), wk =   0.0092593
        k(   22) = (   0.0000000  -0.5000000  -0.5000000), wk =   0.0092593
        k(   23) = (  -0.0000000  -0.5000000  -0.3333333), wk =   0.0092593
        k(   24) = (  -0.0000000  -0.5000000  -0.1666667), wk =   0.0092593
        k(   25) = (   0.0000000  -0.3333333   0.0000000), wk =   0.0092593
        k(   26) = (   0.0000000  -0.3333333   0.1666667), wk =   0.0092593
        k(   27) = (   0.0000000  -0.3333333   0.3333333), wk =   0.0092593
        k(   28) = (   0.0000000  -0.3333333  -0.5000000), wk =   0.0092593
        k(   29) = (  -0.0000000  -0.3333333  -0.3333333), wk =   0.0092593
        k(   30) = (  -0.0000000  -0.3333333  -0.1666667), wk =   0.0092593
        k(   31) = (   0.0000000  -0.1666667   0.0000000), wk =   0.0092593
        k(   32) = (   0.0000000  -0.1666667   0.1666667), wk =   0.0092593
        k(   33) = (   0.0000000  -0.1666667   0.3333333), wk =   0.0092593
        k(   34) = (   0.0000000  -0.1666667  -0.5000000), wk =   0.0092593
        k(   35) = (  -0.0000000  -0.1666667  -0.3333333), wk =   0.0092593
        k(   36) = (  -0.0000000  -0.1666667  -0.1666667), wk =   0.0092593
        k(   37) = (   0.1666667  -0.0000000   0.0000000), wk =   0.0092593
        k(   38) = (   0.1666667   0.0000000   0.1666667), wk =   0.0092593
        k(   39) = (   0.1666667   0.0000000   0.3333333), wk =   0.0092593
        k(   40) = (   0.1666667   0.0000000  -0.5000000), wk =   0.0092593
        k(   41) = (   0.1666667  -0.0000000  -0.3333333), wk =   0.0092593
        k(   42) = (   0.1666667  -0.0000000  -0.1666667), wk =   0.0092593
        k(   43) = (   0.1666667   0.1666667   0.0000000), wk =   0.0092593
        k(   44) = (   0.1666667   0.1666667   0.1666667), wk =   0.0092593
        k(   45) = (   0.1666667   0.1666667   0.3333333), wk =   0.0092593
        k(   46) = (   0.1666667   0.1666667  -0.5000000), wk =   0.0092593
        k(   47) = (   0.1666667   0.1666667  -0.3333333), wk =   0.0092593
        k(   48) = (   0.1666667   0.1666667  -0.1666667), wk =   0.0092593
        k(   49) = (   0.1666667   0.3333333   0.0000000), wk =   0.0092593
        k(   50) = (   0.1666667   0.3333333   0.1666667), wk =   0.0092593
        k(   51) = (   0.1666667   0.3333333   0.3333333), wk =   0.0092593
        k(   52) = (   0.1666667   0.3333333  -0.5000000), wk =   0.0092593
        k(   53) = (   0.1666667   0.3333333  -0.3333333), wk =   0.0092593
        k(   54) = (   0.1666667   0.3333333  -0.1666667), wk =   0.0092593
        k(   55) = (   0.1666667  -0.5000000   0.0000000), wk =   0.0092593
        k(   56) = (   0.1666667  -0.5000000   0.1666667), wk =   0.0092593
        k(   57) = (   0.1666667  -0.5000000   0.3333333), wk =   0.0092593
        k(   58) = (   0.1666667  -0.5000000  -0.5000000), wk =   0.0092593
        k(   59) = (   0.1666667  -0.5000000  -0.3333333), wk =   0.0092593
        k(   60) = (   0.1666667  -0.5000000  -0.1666667), wk =   0.0092593
        k(   61) = (   0.1666667  -0.3333333   0.0000000), wk =   0.0092593
        k(   62) = (   0.1666667  -0.3333333   0.1666667), wk =   0.0092593
        k(   63) = (   0.1666667  -0.3333333   0.3333333), wk =   0.0092593
        k(   64) = (   0.1666667  -0.3333333  -0.5000000), wk =   0.0092593
        k(   65) = (   0.1666667  -0.3333333  -0.3333333), wk =   0.0092593
        k(   66) = (   0.1666667  -0.3333333  -0.1666667), wk =   0.0092593
        k(   67) = (   0.1666667  -0.1666667   0.0000000), wk =   0.0092593
        k(   68) = (   0.1666667  -0.1666667   0.1666667), wk =   0.0092593
        k(   69) = (   0.1666667  -0.1666667   0.3333333), wk =   0.0092593
        k(   70) = (   0.1666667  -0.1666667  -0.5000000), wk =   0.0092593
        k(   71) = (   0.1666667  -0.1666667  -0.3333333), wk =   0.0092593
        k(   72) = (   0.1666667  -0.1666667  -0.1666667), wk =   0.0092593
        k(   73) = (   0.3333333  -0.0000000   0.0000000), wk =   0.0092593
        k(   74) = (   0.3333333   0.0000000   0.1666667), wk =   0.0092593
        k(   75) = (   0.3333333   0.0000000   0.3333333), wk =   0.0092593
        k(   76) = (   0.3333333   0.0000000  -0.5000000), wk =   0.0092593
        k(   77) = (   0.3333333  -0.0000000  -0.3333333), wk =   0.0092593
        k(   78) = (   0.3333333  -0.0000000  -0.1666667), wk =   0.0092593
        k(   79) = (   0.3333333   0.1666667   0.0000000), wk =   0.0092593
        k(   80) = (   0.3333333   0.1666667   0.1666667), wk =   0.0092593
        k(   81) = (   0.3333333   0.1666667   0.3333333), wk =   0.0092593
        k(   82) = (   0.3333333   0.1666667  -0.5000000), wk =   0.0092593
        k(   83) = (   0.3333333   0.1666667  -0.3333333), wk =   0.0092593
        k(   84) = (   0.3333333   0.1666667  -0.1666667), wk =   0.0092593
        k(   85) = (   0.3333333   0.3333333   0.0000000), wk =   0.0092593
        k(   86) = (   0.3333333   0.3333333   0.1666667), wk =   0.0092593
        k(   87) = (   0.3333333   0.3333333   0.3333333), wk =   0.0092593
        k(   88) = (   0.3333333   0.3333333  -0.5000000), wk =   0.0092593
        k(   89) = (   0.3333333   0.3333333  -0.3333333), wk =   0.0092593
        k(   90) = (   0.3333333   0.3333333  -0.1666667), wk =   0.0092593
        k(   91) = (   0.3333333  -0.5000000   0.0000000), wk =   0.0092593
        k(   92) = (   0.3333333  -0.5000000   0.1666667), wk =   0.0092593
        k(   93) = (   0.3333333  -0.5000000   0.3333333), wk =   0.0092593
        k(   94) = (   0.3333333  -0.5000000  -0.5000000), wk =   0.0092593
        k(   95) = (   0.3333333  -0.5000000  -0.3333333), wk =   0.0092593
        k(   96) = (   0.3333333  -0.5000000  -0.1666667), wk =   0.0092593
        k(   97) = (   0.3333333  -0.3333333   0.0000000), wk =   0.0092593
        k(   98) = (   0.3333333  -0.3333333   0.1666667), wk =   0.0092593
        k(   99) = (   0.3333333  -0.3333333   0.3333333), wk =   0.0092593
        k(  100) = (   0.3333333  -0.3333333  -0.5000000), wk =   0.0092593
        k(  101) = (   0.3333333  -0.3333333  -0.3333333), wk =   0.0092593
        k(  102) = (   0.3333333  -0.3333333  -0.1666667), wk =   0.0092593
        k(  103) = (   0.3333333  -0.1666667   0.0000000), wk =   0.0092593
        k(  104) = (   0.3333333  -0.1666667   0.1666667), wk =   0.0092593
        k(  105) = (   0.3333333  -0.1666667   0.3333333), wk =   0.0092593
        k(  106) = (   0.3333333  -0.1666667  -0.5000000), wk =   0.0092593
        k(  107) = (   0.3333333  -0.1666667  -0.3333333), wk =   0.0092593
        k(  108) = (   0.3333333  -0.1666667  -0.1666667), wk =   0.0092593
        k(  109) = (  -0.5000000   0.0000000   0.0000000), wk =   0.0092593
        k(  110) = (  -0.5000000   0.0000000   0.1666667), wk =   0.0092593
        k(  111) = (  -0.5000000   0.0000000   0.3333333), wk =   0.0092593
        k(  112) = (  -0.5000000   0.0000000  -0.5000000), wk =   0.0092593
        k(  113) = (  -0.5000000  -0.0000000  -0.3333333), wk =   0.0092593
        k(  114) = (  -0.5000000   0.0000000  -0.1666667), wk =   0.0092593
        k(  115) = (  -0.5000000   0.1666667   0.0000000), wk =   0.0092593
        k(  116) = (  -0.5000000   0.1666667   0.1666667), wk =   0.0092593
        k(  117) = (  -0.5000000   0.1666667   0.3333333), wk =   0.0092593
        k(  118) = (  -0.5000000   0.1666667  -0.5000000), wk =   0.0092593
        k(  119) = (  -0.5000000   0.1666667  -0.3333333), wk =   0.0092593
        k(  120) = (  -0.5000000   0.1666667  -0.1666667), wk =   0.0092593
        k(  121) = (  -0.5000000   0.3333333   0.0000000), wk =   0.0092593
        k(  122) = (  -0.5000000   0.3333333   0.1666667), wk =   0.0092593
        k(  123) = (  -0.5000000   0.3333333   0.3333333), wk =   0.0092593
        k(  124) = (  -0.5000000   0.3333333  -0.5000000), wk =   0.0092593
        k(  125) = (  -0.5000000   0.3333333  -0.3333333), wk =   0.0092593
        k(  126) = (  -0.5000000   0.3333333  -0.1666667), wk =   0.0092593
        k(  127) = (  -0.5000000  -0.5000000   0.0000000), wk =   0.0092593
        k(  128) = (  -0.5000000  -0.5000000   0.1666667), wk =   0.0092593
        k(  129) = (  -0.5000000  -0.5000000   0.3333333), wk =   0.0092593
        k(  130) = (  -0.5000000  -0.5000000  -0.5000000), wk =   0.0092593
        k(  131) = (  -0.5000000  -0.5000000  -0.3333333), wk =   0.0092593
        k(  132) = (  -0.5000000  -0.5000000  -0.1666667), wk =   0.0092593
        k(  133) = (  -0.5000000  -0.3333333   0.0000000), wk =   0.0092593
        k(  134) = (  -0.5000000  -0.3333333   0.1666667), wk =   0.0092593
        k(  135) = (  -0.5000000  -0.3333333   0.3333333), wk =   0.0092593
        k(  136) = (  -0.5000000  -0.3333333  -0.5000000), wk =   0.0092593
        k(  137) = (  -0.5000000  -0.3333333  -0.3333333), wk =   0.0092593
        k(  138) = (  -0.5000000  -0.3333333  -0.1666667), wk =   0.0092593
        k(  139) = (  -0.5000000  -0.1666667   0.0000000), wk =   0.0092593
        k(  140) = (  -0.5000000  -0.1666667   0.1666667), wk =   0.0092593
        k(  141) = (  -0.5000000  -0.1666667   0.3333333), wk =   0.0092593
        k(  142) = (  -0.5000000  -0.1666667  -0.5000000), wk =   0.0092593
        k(  143) = (  -0.5000000  -0.1666667  -0.3333333), wk =   0.0092593
        k(  144) = (  -0.5000000  -0.1666667  -0.1666667), wk =   0.0092593
        k(  145) = (  -0.3333333   0.0000000   0.0000000), wk =   0.0092593
        k(  146) = (  -0.3333333   0.0000000   0.1666667), wk =   0.0092593
        k(  147) = (  -0.3333333   0.0000000   0.3333333), wk =   0.0092593
        k(  148) = (  -0.3333333   0.0000000  -0.5000000), wk =   0.0092593
        k(  149) = (  -0.3333333   0.0000000  -0.3333333), wk =   0.0092593
        k(  150) = (  -0.3333333   0.0000000  -0.1666667), wk =   0.0092593
        k(  151) = (  -0.3333333   0.1666667   0.0000000), wk =   0.0092593
        k(  152) = (  -0.3333333   0.1666667   0.1666667), wk =   0.0092593
        k(  153) = (  -0.3333333   0.1666667   0.3333333), wk =   0.0092593
        k(  154) = (  -0.3333333   0.1666667  -0.5000000), wk =   0.0092593
        k(  155) = (  -0.3333333   0.1666667  -0.3333333), wk =   0.0092593
        k(  156) = (  -0.3333333   0.1666667  -0.1666667), wk =   0.0092593
        k(  157) = (  -0.3333333   0.3333333   0.0000000), wk =   0.0092593
        k(  158) = (  -0.3333333   0.3333333   0.1666667), wk =   0.0092593
        k(  159) = (  -0.3333333   0.3333333   0.3333333), wk =   0.0092593
        k(  160) = (  -0.3333333   0.3333333  -0.5000000), wk =   0.0092593
        k(  161) = (  -0.3333333   0.3333333  -0.3333333), wk =   0.0092593
        k(  162) = (  -0.3333333   0.3333333  -0.1666667), wk =   0.0092593
        k(  163) = (  -0.3333333  -0.5000000   0.0000000), wk =   0.0092593
        k(  164) = (  -0.3333333  -0.5000000   0.1666667), wk =   0.0092593
        k(  165) = (  -0.3333333  -0.5000000   0.3333333), wk =   0.0092593
        k(  166) = (  -0.3333333  -0.5000000  -0.5000000), wk =   0.0092593
        k(  167) = (  -0.3333333  -0.5000000  -0.3333333), wk =   0.0092593
        k(  168) = (  -0.3333333  -0.5000000  -0.1666667), wk =   0.0092593
        k(  169) = (  -0.3333333  -0.3333333   0.0000000), wk =   0.0092593
        k(  170) = (  -0.3333333  -0.3333333   0.1666667), wk =   0.0092593
        k(  171) = (  -0.3333333  -0.3333333   0.3333333), wk =   0.0092593
        k(  172) = (  -0.3333333  -0.3333333  -0.5000000), wk =   0.0092593
        k(  173) = (  -0.3333333  -0.3333333  -0.3333333), wk =   0.0092593
        k(  174) = (  -0.3333333  -0.3333333  -0.1666667), wk =   0.0092593
        k(  175) = (  -0.3333333  -0.1666667   0.0000000), wk =   0.0092593
        k(  176) = (  -0.3333333  -0.1666667   0.1666667), wk =   0.0092593
        k(  177) = (  -0.3333333  -0.1666667   0.3333333), wk =   0.0092593
        k(  178) = (  -0.3333333  -0.1666667  -0.5000000), wk =   0.0092593
        k(  179) = (  -0.3333333  -0.1666667  -0.3333333), wk =   0.0092593
        k(  180) = (  -0.3333333  -0.1666667  -0.1666667), wk =   0.0092593
        k(  181) = (  -0.1666667   0.0000000   0.0000000), wk =   0.0092593
        k(  182) = (  -0.1666667   0.0000000   0.1666667), wk =   0.0092593
        k(  183) = (  -0.1666667   0.0000000   0.3333333), wk =   0.0092593
        k(  184) = (  -0.1666667   0.0000000  -0.5000000), wk =   0.0092593
        k(  185) = (  -0.1666667   0.0000000  -0.3333333), wk =   0.0092593
        k(  186) = (  -0.1666667   0.0000000  -0.1666667), wk =   0.0092593
        k(  187) = (  -0.1666667   0.1666667   0.0000000), wk =   0.0092593
        k(  188) = (  -0.1666667   0.1666667   0.1666667), wk =   0.0092593
        k(  189) = (  -0.1666667   0.1666667   0.3333333), wk =   0.0092593
        k(  190) = (  -0.1666667   0.1666667  -0.5000000), wk =   0.0092593
        k(  191) = (  -0.1666667   0.1666667  -0.3333333), wk =   0.0092593
        k(  192) = (  -0.1666667   0.1666667  -0.1666667), wk =   0.0092593
        k(  193) = (  -0.1666667   0.3333333   0.0000000), wk =   0.0092593
        k(  194) = (  -0.1666667   0.3333333   0.1666667), wk =   0.0092593
        k(  195) = (  -0.1666667   0.3333333   0.3333333), wk =   0.0092593
        k(  196) = (  -0.1666667   0.3333333  -0.5000000), wk =   0.0092593
        k(  197) = (  -0.1666667   0.3333333  -0.3333333), wk =   0.0092593
        k(  198) = (  -0.1666667   0.3333333  -0.1666667), wk =   0.0092593
        k(  199) = (  -0.1666667  -0.5000000   0.0000000), wk =   0.0092593
        k(  200) = (  -0.1666667  -0.5000000   0.1666667), wk =   0.0092593
        k(  201) = (  -0.1666667  -0.5000000   0.3333333), wk =   0.0092593
        k(  202) = (  -0.1666667  -0.5000000  -0.5000000), wk =   0.0092593
        k(  203) = (  -0.1666667  -0.5000000  -0.3333333), wk =   0.0092593
        k(  204) = (  -0.1666667  -0.5000000  -0.1666667), wk =   0.0092593
        k(  205) = (  -0.1666667  -0.3333333   0.0000000), wk =   0.0092593
        k(  206) = (  -0.1666667  -0.3333333   0.1666667), wk =   0.0092593
        k(  207) = (  -0.1666667  -0.3333333   0.3333333), wk =   0.0092593
        k(  208) = (  -0.1666667  -0.3333333  -0.5000000), wk =   0.0092593
        k(  209) = (  -0.1666667  -0.3333333  -0.3333333), wk =   0.0092593
        k(  210) = (  -0.1666667  -0.3333333  -0.1666667), wk =   0.0092593
        k(  211) = (  -0.1666667  -0.1666667   0.0000000), wk =   0.0092593
        k(  212) = (  -0.1666667  -0.1666667   0.1666667), wk =   0.0092593
        k(  213) = (  -0.1666667  -0.1666667   0.3333333), wk =   0.0092593
        k(  214) = (  -0.1666667  -0.1666667  -0.5000000), wk =   0.0092593
        k(  215) = (  -0.1666667  -0.1666667  -0.3333333), wk =   0.0092593
        k(  216) = (  -0.1666667  -0.1666667  -0.1666667), wk =   0.0092593

     Dense  grid:    37461 G-vectors     FFT dimensions: (  48,  48,  48)

     Dynamical RAM for                 wfc:       1.71 MB

     Dynamical RAM for     wfc (w. buffer):       1.71 MB

     Dynamical RAM for           str. fact:       1.14 MB

     Dynamical RAM for           local pot:       0.00 MB

     Dynamical RAM for          nlocal pot:       2.57 MB

     Dynamical RAM for                qrad:       2.69 MB

     Dynamical RAM for          rho,v,vnew:       4.25 MB

     Dynamical RAM for               rhoin:       1.42 MB

     Dynamical RAM for           G-vectors:       2.43 MB

     Dynamical RAM for          h,s,v(r/c):       0.11 MB

     Dynamical RAM for          <psi|beta>:       0.01 MB

     Dynamical RAM for                 psi:       3.42 MB

     Dynamical RAM for                hpsi:       3.42 MB

     Dynamical RAM for      wfcinit/wfcrot:       3.44 MB

     Estimated static dynamical RAM per process >      22.13 MB

     Estimated max dynamical RAM per process >      29.10 MB

     Estimated total dynamical RAM >     232.81 MB

     Initial potential from superposition of free atoms

     starting charge      29.9977, renormalised to      30.0000
     Starting wfcs are   18 randomized atomic wfcs +    6 random wfcs

     total cpu time spent up to now is        2.7 secs

     Self-consistent Calculation

     iteration #  1     ecut=    70.00 Ry     beta= 0.30
     Davidson diagonalization with overlap

---- Real-time Memory Report at c_bands before calling an iterative solver
             0 MiB given to the printing process from OS
             0 MiB allocation reported by mallinfo(arena+hblkhd)
             0 MiB available memory on the node where the printing process lives
------------------
     ethr =  1.00E-02,  avg # of iterations =  5.5

     Threshold (ethr) on eigenvalues was too large:
     Diagonalizing with lowered threshold

     Davidson diagonalization with overlap

---- Real-time Memory Report at c_bands before calling an iterative solver
             0 MiB given to the printing process from OS
             0 MiB allocation reported by mallinfo(arena+hblkhd)
             0 MiB available memory on the node where the printing process lives
------------------
     ethr =  1.28E-04,  avg # of iterations =  5.1

     total cpu time spent up to now is       11.7 secs

     total energy              =    -350.53964062 Ry
     estimated scf accuracy    <       0.03762702 Ry

     iteration #  2     ecut=    70.00 Ry     beta= 0.30
     Davidson diagonalization with overlap

---- Real-time Memory Report at c_bands before calling an iterative solver
             0 MiB given to the printing process from OS
             0 MiB allocation reported by mallinfo(arena+hblkhd)
             0 MiB available memory on the node where the printing process lives
------------------
     ethr =  1.25E-04,  avg # of iterations =  1.6

     total cpu time spent up to now is       15.0 secs

     total energy              =    -350.54197378 Ry
     estimated scf accuracy    <       0.00499564 Ry

     iteration #  3     ecut=    70.00 Ry     beta= 0.30
     Davidson diagonalization with overlap

---- Real-time Memory Report at c_bands before calling an iterative solver
             0 MiB given to the printing process from OS
             0 MiB allocation reported by mallinfo(arena+hblkhd)
             0 MiB available memory on the node where the printing process lives
------------------
     ethr =  1.67E-05,  avg # of iterations =  3.9

     total cpu time spent up to now is       18.8 secs

     total energy              =    -350.54265152 Ry
     estimated scf accuracy    <       0.00074737 Ry

     iteration #  4     ecut=    70.00 Ry     beta= 0.30
     Davidson diagonalization with overlap

---- Real-time Memory Report at c_bands before calling an iterative solver
             0 MiB given to the printing process from OS
             0 MiB allocation reported by mallinfo(arena+hblkhd)
             0 MiB available memory on the node where the printing process lives
------------------
     ethr =  2.49E-06,  avg # of iterations =  4.6

     total cpu time spent up to now is       23.5 secs

     total energy              =    -350.54272445 Ry
     estimated scf accuracy    <       0.00003363 Ry

     iteration #  5     ecut=    70.00 Ry     beta= 0.30
     Davidson diagonalization with overlap

---- Real-time Memory Report at c_bands before calling an iterative solver
             0 MiB given to the printing process from OS
             0 MiB allocation reported by mallinfo(arena+hblkhd)
             0 MiB available memory on the node where the printing process lives
------------------
     ethr =  1.12E-07,  avg # of iterations =  2.0

     total cpu time spent up to now is       26.8 secs

     total energy              =    -350.54272701 Ry
     estimated scf accuracy    <       0.00000807 Ry

     iteration #  6     ecut=    70.00 Ry     beta= 0.30
     Davidson diagonalization with overlap

---- Real-time Memory Report at c_bands before calling an iterative solver
             0 MiB given to the printing process from OS
             0 MiB allocation reported by mallinfo(arena+hblkhd)
             0 MiB available memory on the node where the printing process lives
------------------
     ethr =  2.69E-08,  avg # of iterations =  2.1

     total cpu time spent up to now is       30.3 secs

     total energy              =    -350.54272861 Ry
     estimated scf accuracy    <       0.00000015 Ry

     iteration #  7     ecut=    70.00 Ry     beta= 0.30
     Davidson diagonalization with overlap

---- Real-time Memory Report at c_bands before calling an iterative solver
             0 MiB given to the printing process from OS
             0 MiB allocation reported by mallinfo(arena+hblkhd)
             0 MiB available memory on the node where the printing process lives
------------------
     ethr =  5.16E-10,  avg # of iterations =  2.2

     total cpu time spent up to now is       34.0 secs

     total energy              =    -350.54272864 Ry
     estimated scf accuracy    <       0.00000007 Ry

     iteration #  8     ecut=    70.00 Ry     beta= 0.30
     Davidson diagonalization with overlap

---- Real-time Memory Report at c_bands before calling an iterative solver
             0 MiB given to the printing process from OS
             0 MiB allocation reported by mallinfo(arena+hblkhd)
             0 MiB available memory on the node where the printing process lives
------------------
     ethr =  2.47E-10,  avg # of iterations =  2.0

     total cpu time spent up to now is       37.7 secs

     End of self-consistent calculation

          k = 0.0000 0.0000 0.0000 (  4645 PWs)   bands (ev):

   -27.6289 -27.6289 -27.6250 -27.6250 -27.6250  -8.2244  -8.2244  -8.2200
    -8.2200  -8.2200  -3.2865   2.7299   7.2314   7.2314   7.2314  12.4834
    12.4834  12.4834  14.3401  14.3401  14.3401  15.8760  16.0379  16.4772

     occupation numbers 
     1.0000   1.0000   1.0000   1.0000   1.0000   1.0000   1.0000   1.0000
     1.0000   1.0000   1.0000   1.0000   1.0000   1.0000   1.0000  -0.0000
    -0.0000  -0.0000  -0.0000  -0.0000  -0.0000  -0.0000  -0.0000  -0.0000

          k =-0.0962-0.0680 0.1667 (  4699 PWs)   bands (ev):

   -27.6289 -27.6289 -27.6250 -27.6249 -27.6249  -8.2274  -8.2274  -8.2194
    -8.2166  -8.2166  -3.0631   2.0884   7.2982   7.2982   7.5566  11.3398
    11.5891  11.5891  14.2212  14.8442  14.8442  17.3690  17.8153  17.8419

     occupation numbers 
     1.0000   1.0000   1.0000   1.0000   1.0000   1.0000   1.0000   1.0000
     1.0000   1.0000   1.0000   1.0000   1.0000   1.0000   1.0000  -0.0000
    -0.0000  -0.0000  -0.0000  -0.0000  -0.0000  -0.0000  -0.0000  -0.0000

          k =-0.1925-0.1361 0.3333 (  4693 PWs)   bands (ev):

   -27.6289 -27.6289 -27.6249 -27.6247 -27.6247  -8.2343  -8.2343  -8.2183
    -8.2089  -8.2089  -2.4582   0.8196   7.4978   7.4978   8.0738   9.9336
    10.3482  10.3482  15.1227  16.2091  16.2091  19.2539  20.4367  20.4368

     occupation numbers 
     1.0000   1.0000   1.0000   1.0000   1.0000   1.0000   1.0000   1.0000
     1.0000   1.0000   1.0000   1.0000   1.0000   1.0000   1.0000  -0.0000
    -0.0000  -0.0000  -0.0000  -0.0000  -0.0000  -0.0000  -0.0000  -0.0000

          k = 0.2887 0.2041-0.5000 (  4664 PWs)   bands (ev):

   -27.6288 -27.6288 -27.6248 -27.6246 -27.6246  -8.2378  -8.2378  -8.2179
    -8.2050  -8.2050  -1.9521   0.0336   7.6585   7.6585   8.4238   9.2350
     9.7921   9.7921  16.8112  17.6686  17.8503  17.8503  19.0086  19.0087

     occupation numbers 
     1.0000   1.0000   1.0000   1.0000   1.0000   1.0000   1.0000   1.0000
     1.0000   1.0000   1.0000   1.0000   1.0000   1.0000   1.0001  -0.0001
    -0.0000  -0.0000  -0.0000  -0.0000  -0.0000  -0.0000  -0.0000  -0.0000

          k = 0.1925 0.1361-0.3333 (  4693 PWs)   bands (ev):

   -27.6289 -27.6289 -27.6249 -27.6247 -27.6247  -8.2343  -8.2343  -8.2183
    -8.2089  -8.2089  -2.4582   0.8196   7.4978   7.4978   8.0738   9.9336
    10.3482  10.3482  15.1227  16.2091  16.2091  19.2539  20.4367  20.4368

     occupation numbers 
     1.0000   1.0000   1.0000   1.0000   1.0000   1.0000   1.0000   1.0000
     1.0000   1.0000   1.0000   1.0000   1.0000   1.0000   1.0000  -0.0000
    -0.0000  -0.0000  -0.0000  -0.0000  -0.0000  -0.0000  -0.0000  -0.0000

          k = 0.0962 0.0680-0.1667 (  4699 PWs)   bands (ev):

   -27.6289 -27.6289 -27.6250 -27.6249 -27.6249  -8.2274  -8.2274  -8.2194
    -8.2166  -8.2166  -3.0631   2.0884   7.2982   7.2982   7.5566  11.3398
    11.5891  11.5891  14.2212  14.8442  14.8442  17.3690  17.8153  17.8419

     occupation numbers 
     1.0000   1.0000   1.0000   1.0000   1.0000   1.0000   1.0000   1.0000
     1.0000   1.0000   1.0000   1.0000   1.0000   1.0000   1.0000  -0.0000
    -0.0000  -0.0000  -0.0000  -0.0000  -0.0000  -0.0000  -0.0000  -0.0000

          k = 0.0000 0.2041 0.0000 (  4699 PWs)   bands (ev):

   -27.6289 -27.6289 -27.6250 -27.6249 -27.6249  -8.2274  -8.2274  -8.2194
    -8.2166  -8.2166  -3.0631   2.0884   7.2982   7.2982   7.5566  11.3398
    11.5891  11.5891  14.2212  14.8442  14.8442  17.3690  17.8153  17.8419

     occupation numbers 
     1.0000   1.0000   1.0000   1.0000   1.0000   1.0000   1.0000   1.0000
     1.0000   1.0000   1.0000   1.0000   1.0000   1.0000   1.0000  -0.0000
    -0.0000  -0.0000  -0.0000  -0.0000  -0.0000  -0.0000  -0.0000  -0.0000

          k =-0.0962 0.1361 0.1667 (  4681 PWs)   bands (ev):

   -27.6289 -27.6288 -27.6250 -27.6248 -27.6248  -8.2341  -8.2221  -8.2220
    -8.2148  -8.2148  -2.9903   2.0469   6.8221   6.8221   8.1473  10.2230
    12.6008  12.6008  13.2298  15.6520  15.6520  16.4012  16.7766  17.8928

     occupation numbers 
     1.0000   1.0000   1.0000   1.0000   1.0000   1.0000   1.0000   1.0000
     1.0000   1.0000   1.0000   1.0000   1.0000   1.0000   1.0000  -0.0000
    -0.0000  -0.0000  -0.0000  -0.0000  -0.0000  -0.0000  -0.0000  -0.0000

          k =-0.1925 0.0680 0.3333 (  4670 PWs)   bands (ev):

   -27.6289 -27.6288 -27.6250 -27.6247 -27.6246  -8.2434  -8.2250  -8.2214
    -8.2101  -8.2075  -2.5174   1.2198   6.6689   6.7273   7.3492  10.6417
    11.8690  11.9957  13.4303  16.6943  17.0010  18.0735  18.4221  20.3617

     occupation numbers 
     1.0000   1.0000   1.0000   1.0000   1.0000   1.0000   1.0000   1.0000
     1.0000   1.0000   1.0000   1.0000   1.0000   1.0000   1.0000  -0.0000
    -0.0000  -0.0000  -0.0000  -0.0000  -0.0000  -0.0000  -0.0000  -0.0000

          k = 0.2887 0.4082-0.5000 (  4662 PWs)   bands (ev):

   -27.6289 -27.6287 -27.6248 -27.6246 -27.6245  -8.2462  -8.2316  -8.2170
    -8.2079  -8.2037  -1.9152   0.2902   6.2888   6.9407   7.2591  10.6342
    10.9168  11.6538  14.8337  17.4309  18.0178  18.4263  19.3446  21.4001

     occupation numbers 
     1.0000   1.0000   1.0000   1.0000   1.0000   1.0000   1.0000   1.0000
     1.0000   1.0000   1.0000   1.0000   1.0000   1.0000   1.0000  -0.0000
    -0.0000  -0.0000  -0.0000  -0.0000  -0.0000  -0.0000  -0.0000  -0.0000

          k = 0.1925 0.3402-0.3333 (  4666 PWs)   bands (ev):

   -27.6289 -27.6288 -27.6248 -27.6247 -27.6246  -8.2400  -8.2349  -8.2156
    -8.2079  -8.2077  -2.0818   0.4747   5.9694   7.5230   7.9444   9.9217
    10.1429  12.3493  15.3339  16.1395  17.2780  18.7199  19.1933  21.8542

     occupation numbers 
     1.0000   1.0000   1.0000   1.0000   1.0000   1.0000   1.0000   1.0000
     1.0000   1.0000   1.0000   1.0000   1.0000   1.0000   1.0000  -0.0000
    -0.0000  -0.0000  -0.0000  -0.0000  -0.0000  -0.0000  -0.0000  -0.0000

          k = 0.0962 0.2722-0.1667 (  4689 PWs)   bands (ev):

   -27.6289 -27.6289 -27.6249 -27.6248 -27.6247  -8.2326  -8.2306  -8.2185
    -8.2143  -8.2105  -2.7107   1.4116   6.3636   7.7559   8.2499   9.9911
    10.3132  12.5844  14.4398  14.9907  16.6810  16.9464  19.5757  19.5801

     occupation numbers 
     1.0000   1.0000   1.0000   1.0000   1.0000   1.0000   1.0000   1.0000
     1.0000   1.0000   1.0000   1.0000   1.0000   1.0000   1.0000  -0.0000
    -0.0000  -0.0000  -0.0000  -0.0000  -0.0000  -0.0000  -0.0000  -0.0000

          k = 0.0000 0.4082 0.0000 (  4693 PWs)   bands (ev):

   -27.6289 -27.6289 -27.6249 -27.6247 -27.6247  -8.2343  -8.2343  -8.2183
    -8.2089  -8.2089  -2.4582   0.8196   7.4978   7.4978   8.0738   9.9336
    10.3482  10.3482  15.1227  16.2091  16.2091  19.2539  20.4367  20.4370

     occupation numbers 
     1.0000   1.0000   1.0000   1.0000   1.0000   1.0000   1.0000   1.0000
     1.0000   1.0000   1.0000   1.0000   1.0000   1.0000   1.0000  -0.0000
    -0.0000  -0.0000  -0.0000  -0.0000  -0.0000  -0.0000  -0.0000  -0.0000

          k =-0.0962 0.3402 0.1667 (  4670 PWs)   bands (ev):

   -27.6289 -27.6288 -27.6250 -27.6247 -27.6246  -8.2434  -8.2250  -8.2214
    -8.2101  -8.2075  -2.5174   1.2198   6.6689   6.7273   7.3492  10.6417
    11.8690  11.9957  13.4303  16.6943  17.0010  18.0735  18.4221  20.3617

     occupation numbers 
     1.0000   1.0000   1.0000   1.0000   1.0000   1.0000   1.0000   1.0000
     1.0000   1.0000   1.0000   1.0000   1.0000   1.0000   1.0000  -0.0000
    -0.0000  -0.0000  -0.0000  -0.0000  -0.0000  -0.0000  -0.0000  -0.0000

          k =-0.1925 0.2722 0.3333 (  4672 PWs)   bands (ev):

   -27.6290 -27.6287 -27.6251 -27.6245 -27.6245  -8.2599  -8.2262  -8.2173
    -8.2039  -8.2039  -2.2383   1.3054   5.7410   6.1413   6.1413  12.2347
    12.5949  13.2705  13.2705  17.4440  17.6542  18.4480  18.4480  21.1063

     occupation numbers 
     1.0000   1.0000   1.0000   1.0000   1.0000   1.0000   1.0000   1.0000
     1.0000   1.0000   1.0000   1.0000   1.0000   1.0000   1.0000  -0.0000
    -0.0000  -0.0000  -0.0000  -0.0000  -0.0000  -0.0000  -0.0000  -0.0000

          k = 0.2887 0.6124-0.5000 (  4674 PWs)   bands (ev):

   -27.6291 -27.6287 -27.6251 -27.6244 -27.6244  -8.2655  -8.2241  -8.2200
    -8.2022  -8.2005  -1.8094   0.8570   4.8098   6.1397   6.2428  12.2708
    12.7531  13.1337  13.9003  18.0780  18.6645  19.3980  19.5054  20.6040

     occupation numbers 
     1.0000   1.0000   1.0000   1.0000   1.0000   1.0000   1.0000   1.0000
     1.0000   1.0000   1.0000   1.0000   1.0000   1.0000   1.0000  -0.0000
    -0.0000  -0.0000  -0.0000  -0.0000  -0.0000  -0.0000  -0.0000  -0.0000

          k = 0.1925 0.5443-0.3333 (  4674 PWs)   bands (ev):

   -27.6290 -27.6287 -27.6248 -27.6245 -27.6244  -8.2551  -8.2279  -8.2160
    -8.2076  -8.2033  -1.6920   0.4180   4.8633   6.6748   6.9119  11.3252
    11.4217  13.8372  14.6088  16.5801  16.9648  18.8276  21.7205  21.7753

     occupation numbers 
     1.0000   1.0000   1.0000   1.0000   1.0000   1.0000   1.0000   1.0000
     1.0000   1.0000   1.0000   1.0000   1.0000   1.0000   1.0000  -0.0000
    -0.0000  -0.0000  -0.0000  -0.0000  -0.0000  -0.0000  -0.0000  -0.0000

          k = 0.0962 0.4763-0.1667 (  4666 PWs)   bands (ev):

   -27.6289 -27.6288 -27.6248 -27.6247 -27.6246  -8.2400  -8.2349  -8.2156
    -8.2079  -8.2077  -2.0818   0.4747   5.9694   7.5230   7.9444   9.9217
    10.1429  12.3493  15.3339  16.1395  17.2780  18.7199  19.1933  21.8563

     occupation numbers 
     1.0000   1.0000   1.0000   1.0000   1.0000   1.0000   1.0000   1.0000
     1.0000   1.0000   1.0000   1.0000   1.0000   1.0000   1.0000  -0.0000
    -0.0000  -0.0000  -0.0000  -0.0000  -0.0000  -0.0000  -0.0000  -0.0000

          k = 0.0000-0.6124 0.0000 (  4664 PWs)   bands (ev):

   -27.6288 -27.6288 -27.6248 -27.6246 -27.6246  -8.2378  -8.2378  -8.2179
    -8.2050  -8.2050  -1.9521   0.0336   7.6585   7.6585   8.4238   9.2350
     9.7921   9.7921  16.8112  17.6686  17.8503  17.8503  19.0086  19.0086

     occupation numbers 
     1.0000   1.0000   1.0000   1.0000   1.0000   1.0000   1.0000   1.0000
     1.0000   1.0000   1.0000   1.0000   1.0000   1.0000   1.0001  -0.0001
    -0.0000  -0.0000  -0.0000  -0.0000  -0.0000  -0.0000  -0.0000  -0.0000

          k =-0.0962-0.6804 0.1667 (  4662 PWs)   bands (ev):

   -27.6289 -27.6287 -27.6248 -27.6246 -27.6245  -8.2462  -8.2316  -8.2170
    -8.2079  -8.2037  -1.9152   0.2902   6.2888   6.9407   7.2591  10.6342
    10.9168  11.6538  14.8337  17.4309  18.0178  18.4263  19.3446  21.4001

     occupation numbers 
     1.0000   1.0000   1.0000   1.0000   1.0000   1.0000   1.0000   1.0000
     1.0000   1.0000   1.0000   1.0000   1.0000   1.0000   1.0000  -0.0000
    -0.0000  -0.0000  -0.0000  -0.0000  -0.0000  -0.0000  -0.0000  -0.0000

          k =-0.1925-0.7485 0.3333 (  4674 PWs)   bands (ev):

   -27.6291 -27.6287 -27.6251 -27.6244 -27.6244  -8.2655  -8.2241  -8.2200
    -8.2022  -8.2005  -1.8094   0.8570   4.8098   6.1397   6.2428  12.2708
    12.7531  13.1337  13.9003  18.0780  18.6645  19.3980  19.5054  20.6040

     occupation numbers 
     1.0000   1.0000   1.0000   1.0000   1.0000   1.0000   1.0000   1.0000
     1.0000   1.0000   1.0000   1.0000   1.0000   1.0000   1.0000  -0.0000
    -0.0000  -0.0000  -0.0000  -0.0000  -0.0000  -0.0000  -0.0000  -0.0000

          k = 0.2887-0.4082-0.5000 (  4720 PWs)   bands (ev):

   -27.6292 -27.6287 -27.6252 -27.6243 -27.6243  -8.2757  -8.2282  -8.2149
    -8.1981  -8.1981  -1.7399   1.1887   4.2259   5.8485   5.8485  11.8954
    13.7786  13.7786  14.9146  18.6030  19.1620  19.5518  20.1470  20.1471

     occupation numbers 
     1.0000   1.0000   1.0000   1.0000   1.0000   1.0000   1.0000   1.0000
     1.0000   1.0000   1.0000   1.0000   1.0000   1.0000   1.0000  -0.0000
    -0.0000  -0.0000  -0.0000  -0.0000  -0.0000  -0.0000  -0.0000  -0.0000

          k = 0.1925-0.4763-0.3333 (  4674 PWs)   bands (ev):

   -27.6291 -27.6287 -27.6251 -27.6244 -27.6244  -8.2655  -8.2241  -8.2200
    -8.2022  -8.2005  -1.8094   0.8570   4.8098   6.1397   6.2428  12.2708
    12.7531  13.1337  13.9003  18.0780  18.6645  19.3980  19.5054  20.6041

     occupation numbers 
     1.0000   1.0000   1.0000   1.0000   1.0000   1.0000   1.0000   1.0000
     1.0000   1.0000   1.0000   1.0000   1.0000   1.0000   1.0000  -0.0000
    -0.0000  -0.0000  -0.0000  -0.0000  -0.0000  -0.0000  -0.0000  -0.0000

          k = 0.0962-0.5443-0.1667 (  4662 PWs)   bands (ev):

   -27.6289 -27.6287 -27.6248 -27.6246 -27.6245  -8.2462  -8.2316  -8.2170
    -8.2079  -8.2037  -1.9152   0.2902   6.2888   6.9407   7.2591  10.6342
    10.9168  11.6538  14.8337  17.4309  18.0178  18.4263  19.3446  21.4002

     occupation numbers 
     1.0000   1.0000   1.0000   1.0000   1.0000   1.0000   1.0000   1.0000
     1.0000   1.0000   1.0000   1.0000   1.0000   1.0000   1.0000  -0.0000
    -0.0000  -0.0000  -0.0000  -0.0000  -0.0000  -0.0000  -0.0000  -0.0000

          k = 0.0000-0.4082 0.0000 (  4693 PWs)   bands (ev):

   -27.6289 -27.6289 -27.6249 -27.6247 -27.6247  -8.2343  -8.2343  -8.2183
    -8.2089  -8.2089  -2.4582   0.8196   7.4978   7.4978   8.0738   9.9336
    10.3482  10.3482  15.1227  16.2091  16.2091  19.2539  20.4367  20.4367

     occupation numbers 
     1.0000   1.0000   1.0000   1.0000   1.0000   1.0000   1.0000   1.0000
     1.0000   1.0000   1.0000   1.0000   1.0000   1.0000   1.0000  -0.0000
    -0.0000  -0.0000  -0.0000  -0.0000  -0.0000  -0.0000  -0.0000  -0.0000

          k =-0.0962-0.4763 0.1667 (  4666 PWs)   bands (ev):

   -27.6289 -27.6288 -27.6248 -27.6247 -27.6246  -8.2400  -8.2349  -8.2156
    -8.2079  -8.2077  -2.0818   0.4747   5.9694   7.5230   7.9444   9.9217
    10.1429  12.3493  15.3339  16.1395  17.2780  18.7199  19.1933  21.8540

     occupation numbers 
     1.0000   1.0000   1.0000   1.0000   1.0000   1.0000   1.0000   1.0000
     1.0000   1.0000   1.0000   1.0000   1.0000   1.0000   1.0000  -0.0000
    -0.0000  -0.0000  -0.0000  -0.0000  -0.0000  -0.0000  -0.0000  -0.0000

          k =-0.1925-0.5443 0.3333 (  4674 PWs)   bands (ev):

   -27.6290 -27.6287 -27.6248 -27.6245 -27.6244  -8.2551  -8.2279  -8.2160
    -8.2076  -8.2033  -1.6920   0.4180   4.8633   6.6748   6.9119  11.3252
    11.4217  13.8372  14.6088  16.5801  16.9648  18.8276  21.7203  21.7753

     occupation numbers 
     1.0000   1.0000   1.0000   1.0000   1.0000   1.0000   1.0000   1.0000
     1.0000   1.0000   1.0000   1.0000   1.0000   1.0000   1.0000  -0.0000
    -0.0000  -0.0000  -0.0000  -0.0000  -0.0000  -0.0000  -0.0000  -0.0000

          k = 0.2887-0.2041-0.5000 (  4674 PWs)   bands (ev):

   -27.6291 -27.6287 -27.6251 -27.6244 -27.6244  -8.2655  -8.2241  -8.2200
    -8.2022  -8.2005  -1.8094   0.8570   4.8098   6.1397   6.2428  12.2708
    12.7531  13.1337  13.9003  18.0780  18.6645  19.3981  19.5054  20.6040

     occupation numbers 
     1.0000   1.0000   1.0000   1.0000   1.0000   1.0000   1.0000   1.0000
     1.0000   1.0000   1.0000   1.0000   1.0000   1.0000   1.0000  -0.0000
    -0.0000  -0.0000  -0.0000  -0.0000  -0.0000  -0.0000  -0.0000  -0.0000

          k = 0.1925-0.2722-0.3333 (  4672 PWs)   bands (ev):

   -27.6290 -27.6287 -27.6251 -27.6245 -27.6245  -8.2599  -8.2262  -8.2173
    -8.2039  -8.2039  -2.2383   1.3054   5.7410   6.1413   6.1413  12.2347
    12.5949  13.2705  13.2705  17.4440  17.6542  18.4480  18.4480  21.1063

     occupation numbers 
     1.0000   1.0000   1.0000   1.0000   1.0000   1.0000   1.0000   1.0000
     1.0000   1.0000   1.0000   1.0000   1.0000   1.0000   1.0000  -0.0000
    -0.0000  -0.0000  -0.0000  -0.0000  -0.0000  -0.0000  -0.0000  -0.0000

          k = 0.0962-0.3402-0.1667 (  4670 PWs)   bands (ev):

   -27.6289 -27.6288 -27.6250 -27.6247 -27.6246  -8.2434  -8.2250  -8.2214
    -8.2101  -8.2075  -2.5174   1.2198   6.6689   6.7273   7.3492  10.6417
    11.8690  11.9957  13.4303  16.6943  17.0010  18.0735  18.4221  20.3617

     occupation numbers 
     1.0000   1.0000   1.0000   1.0000   1.0000   1.0000   1.0000   1.0000
     1.0000   1.0000   1.0000   1.0000   1.0000   1.0000   1.0000  -0.0000
    -0.0000  -0.0000  -0.0000  -0.0000  -0.0000  -0.0000  -0.0000  -0.0000

          k = 0.0000-0.2041 0.0000 (  4699 PWs)   bands (ev):

   -27.6289 -27.6289 -27.6250 -27.6249 -27.6249  -8.2274  -8.2274  -8.2194
    -8.2166  -8.2166  -3.0631   2.0884   7.2982   7.2982   7.5566  11.3398
    11.5891  11.5891  14.2212  14.8442  14.8442  17.3697  17.8418  17.8419

     occupation numbers 
     1.0000   1.0000   1.0000   1.0000   1.0000   1.0000   1.0000   1.0000
     1.0000   1.0000   1.0000   1.0000   1.0000   1.0000   1.0000  -0.0000
    -0.0000  -0.0000  -0.0000  -0.0000  -0.0000  -0.0000  -0.0000  -0.0000

          k =-0.0962-0.2722 0.1667 (  4689 PWs)   bands (ev):

   -27.6289 -27.6289 -27.6249 -27.6248 -27.6247  -8.2326  -8.2306  -8.2185
    -8.2143  -8.2105  -2.7107   1.4116   6.3636   7.7559   8.2499   9.9911
    10.3132  12.5844  14.4398  14.9907  16.6810  16.9464  19.5757  19.5801

     occupation numbers 
     1.0000   1.0000   1.0000   1.0000   1.0000   1.0000   1.0000   1.0000
     1.0000   1.0000   1.0000   1.0000   1.0000   1.0000   1.0000  -0.0000
    -0.0000  -0.0000  -0.0000  -0.0000  -0.0000  -0.0000  -0.0000  -0.0000

          k =-0.1925-0.3402 0.3333 (  4666 PWs)   bands (ev):

   -27.6289 -27.6288 -27.6248 -27.6247 -27.6246  -8.2400  -8.2349  -8.2156
    -8.2079  -8.2077  -2.0818   0.4747   5.9694   7.5230   7.9444   9.9217
    10.1429  12.3493  15.3339  16.1395  17.2780  18.7199  19.1933  21.8524

     occupation numbers 
     1.0000   1.0000   1.0000   1.0000   1.0000   1.0000   1.0000   1.0000
     1.0000   1.0000   1.0000   1.0000   1.0000   1.0000   1.0000  -0.0000
    -0.0000  -0.0000  -0.0000  -0.0000  -0.0000  -0.0000  -0.0000  -0.0000

          k = 0.2887 0.0000-0.5000 (  4662 PWs)   bands (ev):

   -27.6289 -27.6287 -27.6248 -27.6246 -27.6245  -8.2462  -8.2316  -8.2170
    -8.2079  -8.2037  -1.9152   0.2902   6.2888   6.9407   7.2591  10.6342
    10.9168  11.6538  14.8337  17.4309  18.0178  18.4263  19.3446  21.4001

     occupation numbers 
     1.0000   1.0000   1.0000   1.0000   1.0000   1.0000   1.0000   1.0000
     1.0000   1.0000   1.0000   1.0000   1.0000   1.0000   1.0000  -0.0000
    -0.0000  -0.0000  -0.0000  -0.0000  -0.0000  -0.0000  -0.0000  -0.0000

          k = 0.1925-0.0680-0.3333 (  4670 PWs)   bands (ev):

   -27.6289 -27.6288 -27.6250 -27.6247 -27.6246  -8.2434  -8.2250  -8.2214
    -8.2101  -8.2075  -2.5174   1.2198   6.6689   6.7273   7.3492  10.6417
    11.8690  11.9957  13.4303  16.6943  17.0010  18.0735  18.4221  20.3618

     occupation numbers 
     1.0000   1.0000   1.0000   1.0000   1.0000   1.0000   1.0000   1.0000
     1.0000   1.0000   1.0000   1.0000   1.0000   1.0000   1.0000  -0.0000
    -0.0000  -0.0000  -0.0000  -0.0000  -0.0000  -0.0000  -0.0000  -0.0000

          k = 0.0962-0.1361-0.1667 (  4681 PWs)   bands (ev):

   -27.6289 -27.6288 -27.6250 -27.6248 -27.6248  -8.2341  -8.2221  -8.2220
    -8.2148  -8.2148  -2.9903   2.0469   6.8221   6.8221   8.1473  10.2230
    12.6008  12.6008  13.2298  15.6520  15.6520  16.4012  16.7766  17.8928

     occupation numbers 
     1.0000   1.0000   1.0000   1.0000   1.0000   1.0000   1.0000   1.0000
     1.0000   1.0000   1.0000   1.0000   1.0000   1.0000   1.0000  -0.0000
    -0.0000  -0.0000  -0.0000  -0.0000  -0.0000  -0.0000  -0.0000  -0.0000

          k = 0.1925-0.0680 0.0000 (  4699 PWs)   bands (ev):

   -27.6289 -27.6289 -27.6250 -27.6249 -27.6249  -8.2274  -8.2274  -8.2194
    -8.2166  -8.2166  -3.0631   2.0884   7.2982   7.2982   7.5566  11.3398
    11.5891  11.5891  14.2212  14.8442  14.8442  17.3690  17.8153  17.8419

     occupation numbers 
     1.0000   1.0000   1.0000   1.0000   1.0000   1.0000   1.0000   1.0000
     1.0000   1.0000   1.0000   1.0000   1.0000   1.0000   1.0000  -0.0000
    -0.0000  -0.0000  -0.0000  -0.0000  -0.0000  -0.0000  -0.0000  -0.0000

          k = 0.0962-0.1361 0.1667 (  4681 PWs)   bands (ev):

   -27.6289 -27.6288 -27.6250 -27.6248 -27.6248  -8.2341  -8.2221  -8.2220
    -8.2148  -8.2148  -2.9903   2.0469   6.8221   6.8221   8.1473  10.2230
    12.6008  12.6008  13.2298  15.6520  15.6520  16.4012  16.7766  17.8928

     occupation numbers 
     1.0000   1.0000   1.0000   1.0000   1.0000   1.0000   1.0000   1.0000
     1.0000   1.0000   1.0000   1.0000   1.0000   1.0000   1.0000  -0.0000
    -0.0000  -0.0000  -0.0000  -0.0000  -0.0000  -0.0000  -0.0000  -0.0000

          k = 0.0000-0.2041 0.3333 (  4670 PWs)   bands (ev):

   -27.6289 -27.6288 -27.6250 -27.6247 -27.6246  -8.2434  -8.2250  -8.2214
    -8.2101  -8.2075  -2.5174   1.2198   6.6689   6.7273   7.3492  10.6417
    11.8690  11.9957  13.4303  16.6943  17.0010  18.0735  18.4221  20.3617

     occupation numbers 
     1.0000   1.0000   1.0000   1.0000   1.0000   1.0000   1.0000   1.0000
     1.0000   1.0000   1.0000   1.0000   1.0000   1.0000   1.0000  -0.0000
    -0.0000  -0.0000  -0.0000  -0.0000  -0.0000  -0.0000  -0.0000  -0.0000

          k = 0.4811 0.1361-0.5000 (  4662 PWs)   bands (ev):

   -27.6289 -27.6287 -27.6248 -27.6246 -27.6245  -8.2462  -8.2316  -8.2170
    -8.2079  -8.2037  -1.9152   0.2902   6.2888   6.9407   7.2591  10.6342
    10.9168  11.6538  14.8337  17.4309  18.0178  18.4263  19.3446  21.4001

     occupation numbers 
     1.0000   1.0000   1.0000   1.0000   1.0000   1.0000   1.0000   1.0000
     1.0000   1.0000   1.0000   1.0000   1.0000   1.0000   1.0000  -0.0000
    -0.0000  -0.0000  -0.0000  -0.0000  -0.0000  -0.0000  -0.0000  -0.0000

          k = 0.3849 0.0680-0.3333 (  4666 PWs)   bands (ev):

   -27.6289 -27.6288 -27.6248 -27.6247 -27.6246  -8.2400  -8.2349  -8.2156
    -8.2079  -8.2077  -2.0818   0.4747   5.9694   7.5230   7.9444   9.9217
    10.1429  12.3493  15.3339  16.1395  17.2780  18.7199  19.1933  21.8528

     occupation numbers 
     1.0000   1.0000   1.0000   1.0000   1.0000   1.0000   1.0000   1.0000
     1.0000   1.0000   1.0000   1.0000   1.0000   1.0000   1.0000  -0.0000
    -0.0000  -0.0000  -0.0000  -0.0000  -0.0000  -0.0000  -0.0000  -0.0000

          k = 0.2887 0.0000-0.1667 (  4689 PWs)   bands (ev):

   -27.6289 -27.6289 -27.6249 -27.6248 -27.6247  -8.2326  -8.2306  -8.2185
    -8.2143  -8.2105  -2.7107   1.4116   6.3636   7.7559   8.2499   9.9911
    10.3132  12.5844  14.4398  14.9907  16.6810  16.9464  19.5757  19.5801

     occupation numbers 
     1.0000   1.0000   1.0000   1.0000   1.0000   1.0000   1.0000   1.0000
     1.0000   1.0000   1.0000   1.0000   1.0000   1.0000   1.0000  -0.0000
    -0.0000  -0.0000  -0.0000  -0.0000  -0.0000  -0.0000  -0.0000  -0.0000

          k = 0.1925 0.1361 0.0000 (  4681 PWs)   bands (ev):

   -27.6289 -27.6288 -27.6250 -27.6248 -27.6248  -8.2341  -8.2221  -8.2220
    -8.2148  -8.2148  -2.9903   2.0469   6.8221   6.8221   8.1473  10.2230
    12.6008  12.6008  13.2298  15.6520  15.6520  16.4012  16.7766  17.8928

     occupation numbers 
     1.0000   1.0000   1.0000   1.0000   1.0000   1.0000   1.0000   1.0000
     1.0000   1.0000   1.0000   1.0000   1.0000   1.0000   1.0000  -0.0000
    -0.0000  -0.0000  -0.0000  -0.0000  -0.0000  -0.0000  -0.0000  -0.0000

          k = 0.0962 0.0680 0.1667 (  4699 PWs)   bands (ev):

   -27.6289 -27.6289 -27.6250 -27.6249 -27.6249  -8.2274  -8.2274  -8.2194
    -8.2166  -8.2166  -3.0631   2.0884   7.2982   7.2982   7.5566  11.3398
    11.5891  11.5891  14.2212  14.8442  14.8442  17.3694  17.8416  17.8419

     occupation numbers 
     1.0000   1.0000   1.0000   1.0000   1.0000   1.0000   1.0000   1.0000
     1.0000   1.0000   1.0000   1.0000   1.0000   1.0000   1.0000  -0.0000
    -0.0000  -0.0000  -0.0000  -0.0000  -0.0000  -0.0000  -0.0000  -0.0000

          k = 0.0000 0.0000 0.3333 (  4689 PWs)   bands (ev):

   -27.6289 -27.6289 -27.6249 -27.6248 -27.6247  -8.2326  -8.2306  -8.2185
    -8.2143  -8.2105  -2.7107   1.4116   6.3636   7.7559   8.2499   9.9911
    10.3132  12.5844  14.4398  14.9907  16.6810  16.9464  19.5757  19.5802

     occupation numbers 
     1.0000   1.0000   1.0000   1.0000   1.0000   1.0000   1.0000   1.0000
     1.0000   1.0000   1.0000   1.0000   1.0000   1.0000   1.0000  -0.0000
    -0.0000  -0.0000  -0.0000  -0.0000  -0.0000  -0.0000  -0.0000  -0.0000

          k = 0.4811 0.3402-0.5000 (  4666 PWs)   bands (ev):

   -27.6289 -27.6288 -27.6248 -27.6247 -27.6246  -8.2400  -8.2349  -8.2156
    -8.2079  -8.2077  -2.0818   0.4747   5.9694   7.5230   7.9444   9.9217
    10.1429  12.3493  15.3339  16.1395  17.2780  18.7199  19.1933  21.8525

     occupation numbers 
     1.0000   1.0000   1.0000   1.0000   1.0000   1.0000   1.0000   1.0000
     1.0000   1.0000   1.0000   1.0000   1.0000   1.0000   1.0000  -0.0000
    -0.0000  -0.0000  -0.0000  -0.0000  -0.0000  -0.0000  -0.0000  -0.0000

          k = 0.3849 0.2722-0.3333 (  4662 PWs)   bands (ev):

   -27.6289 -27.6287 -27.6248 -27.6246 -27.6245  -8.2462  -8.2316  -8.2170
    -8.2079  -8.2037  -1.9152   0.2902   6.2888   6.9407   7.2591  10.6342
    10.9168  11.6538  14.8337  17.4309  18.0178  18.4263  19.3446  21.4002

     occupation numbers 
     1.0000   1.0000   1.0000   1.0000   1.0000   1.0000   1.0000   1.0000
     1.0000   1.0000   1.0000   1.0000   1.0000   1.0000   1.0000  -0.0000
    -0.0000  -0.0000  -0.0000  -0.0000  -0.0000  -0.0000  -0.0000  -0.0000

          k = 0.2887 0.2041-0.1667 (  4670 PWs)   bands (ev):

   -27.6289 -27.6288 -27.6250 -27.6247 -27.6246  -8.2434  -8.2250  -8.2214
    -8.2101  -8.2075  -2.5174   1.2198   6.6689   6.7273   7.3492  10.6417
    11.8690  11.9957  13.4303  16.6943  17.0010  18.0735  18.4221  20.3617

     occupation numbers 
     1.0000   1.0000   1.0000   1.0000   1.0000   1.0000   1.0000   1.0000
     1.0000   1.0000   1.0000   1.0000   1.0000   1.0000   1.0000  -0.0000
    -0.0000  -0.0000  -0.0000  -0.0000  -0.0000  -0.0000  -0.0000  -0.0000

          k = 0.1925 0.3402 0.0000 (  4670 PWs)   bands (ev):

   -27.6289 -27.6288 -27.6250 -27.6247 -27.6246  -8.2434  -8.2250  -8.2214
    -8.2101  -8.2075  -2.5174   1.2198   6.6689   6.7273   7.3492  10.6417
    11.8690  11.9957  13.4303  16.6943  17.0010  18.0735  18.4221  20.3617

     occupation numbers 
     1.0000   1.0000   1.0000   1.0000   1.0000   1.0000   1.0000   1.0000
     1.0000   1.0000   1.0000   1.0000   1.0000   1.0000   1.0000  -0.0000
    -0.0000  -0.0000  -0.0000  -0.0000  -0.0000  -0.0000  -0.0000  -0.0000

          k = 0.0962 0.2722 0.1667 (  4689 PWs)   bands (ev):

   -27.6289 -27.6289 -27.6249 -27.6248 -27.6247  -8.2326  -8.2306  -8.2185
    -8.2143  -8.2105  -2.7107   1.4116   6.3636   7.7559   8.2499   9.9911
    10.3132  12.5844  14.4398  14.9907  16.6810  16.9464  19.5757  19.5801

     occupation numbers 
     1.0000   1.0000   1.0000   1.0000   1.0000   1.0000   1.0000   1.0000
     1.0000   1.0000   1.0000   1.0000   1.0000   1.0000   1.0000  -0.0000
    -0.0000  -0.0000  -0.0000  -0.0000  -0.0000  -0.0000  -0.0000  -0.0000

          k = 0.0000 0.2041 0.3333 (  4670 PWs)   bands (ev):

   -27.6289 -27.6288 -27.6250 -27.6247 -27.6246  -8.2434  -8.2250  -8.2214
    -8.2101  -8.2075  -2.5174   1.2198   6.6689   6.7273   7.3492  10.6417
    11.8690  11.9957  13.4303  16.6943  17.0010  18.0735  18.4221  20.3618

     occupation numbers 
     1.0000   1.0000   1.0000   1.0000   1.0000   1.0000   1.0000   1.0000
     1.0000   1.0000   1.0000   1.0000   1.0000   1.0000   1.0000  -0.0000
    -0.0000  -0.0000  -0.0000  -0.0000  -0.0000  -0.0000  -0.0000  -0.0000

          k = 0.4811 0.5443-0.5000 (  4660 PWs)   bands (ev):

   -27.6290 -27.6287 -27.6249 -27.6246 -27.6244  -8.2521  -8.2263  -8.2198
    -8.2067  -8.2041  -2.0318   0.7490   5.6355   6.0255   7.5534  10.6378
    12.1081  12.9043  14.1195  17.3178  17.6197  18.0529  19.4281  21.6948

     occupation numbers 
     1.0000   1.0000   1.0000   1.0000   1.0000   1.0000   1.0000   1.0000
     1.0000   1.0000   1.0000   1.0000   1.0000   1.0000   1.0000  -0.0000
    -0.0000  -0.0000  -0.0000  -0.0000  -0.0000  -0.0000  -0.0000  -0.0000

          k = 0.3849 0.4763-0.3333 (  4666 PWs)   bands (ev):

   -27.6290 -27.6287 -27.6247 -27.6247 -27.6244  -8.2546  -8.2287  -8.2138
    -8.2118  -8.2010  -1.6914   0.4139   5.3509   5.4524   8.0766   9.9769
    12.9044  13.1860  15.0887  15.3045  18.8574  18.9736  20.3216  20.8322

     occupation numbers 
     1.0000   1.0000   1.0000   1.0000   1.0000   1.0000   1.0000   1.0000
     1.0000   1.0000   1.0000   1.0000   1.0000   1.0000   1.0000  -0.0000
    -0.0000  -0.0000  -0.0000  -0.0000  -0.0000  -0.0000  -0.0000  -0.0000

          k = 0.2887 0.4082-0.1667 (  4660 PWs)   bands (ev):

   -27.6290 -27.6287 -27.6249 -27.6246 -27.6244  -8.2521  -8.2263  -8.2198
    -8.2067  -8.2041  -2.0318   0.7490   5.6355   6.0255   7.5534  10.6378
    12.1081  12.9043  14.1195  17.3178  17.6197  18.0529  19.4281  21.6949

     occupation numbers 
     1.0000   1.0000   1.0000   1.0000   1.0000   1.0000   1.0000   1.0000
     1.0000   1.0000   1.0000   1.0000   1.0000   1.0000   1.0000  -0.0000
    -0.0000  -0.0000  -0.0000  -0.0000  -0.0000  -0.0000  -0.0000  -0.0000

          k = 0.1925-0.6804 0.0000 (  4662 PWs)   bands (ev):

   -27.6289 -27.6287 -27.6248 -27.6246 -27.6245  -8.2462  -8.2316  -8.2170
    -8.2079  -8.2037  -1.9152   0.2902   6.2888   6.9407   7.2591  10.6342
    10.9168  11.6538  14.8337  17.4309  18.0178  18.4263  19.3446  21.4001

     occupation numbers 
     1.0000   1.0000   1.0000   1.0000   1.0000   1.0000   1.0000   1.0000
     1.0000   1.0000   1.0000   1.0000   1.0000   1.0000   1.0000  -0.0000
    -0.0000  -0.0000  -0.0000  -0.0000  -0.0000  -0.0000  -0.0000  -0.0000

          k = 0.0962-0.7485 0.1667 (  4666 PWs)   bands (ev):

   -27.6289 -27.6288 -27.6248 -27.6247 -27.6246  -8.2400  -8.2349  -8.2156
    -8.2079  -8.2077  -2.0818   0.4747   5.9694   7.5230   7.9444   9.9217
    10.1429  12.3493  15.3339  16.1395  17.2780  18.7199  19.1933  21.8536

     occupation numbers 
     1.0000   1.0000   1.0000   1.0000   1.0000   1.0000   1.0000   1.0000
     1.0000   1.0000   1.0000   1.0000   1.0000   1.0000   1.0000  -0.0000
    -0.0000  -0.0000  -0.0000  -0.0000  -0.0000  -0.0000  -0.0000  -0.0000

          k = 0.0000-0.8165 0.3333 (  4660 PWs)   bands (ev):

   -27.6290 -27.6287 -27.6249 -27.6246 -27.6244  -8.2521  -8.2263  -8.2198
    -8.2067  -8.2041  -2.0318   0.7490   5.6355   6.0255   7.5534  10.6378
    12.1081  12.9043  14.1195  17.3178  17.6197  18.0529  19.4281  21.6949

     occupation numbers 
     1.0000   1.0000   1.0000   1.0000   1.0000   1.0000   1.0000   1.0000
     1.0000   1.0000   1.0000   1.0000   1.0000   1.0000   1.0000  -0.0000
    -0.0000  -0.0000  -0.0000  -0.0000  -0.0000  -0.0000  -0.0000  -0.0000

          k = 0.4811-0.4763-0.5000 (  4674 PWs)   bands (ev):

   -27.6291 -27.6287 -27.6251 -27.6244 -27.6244  -8.2655  -8.2241  -8.2200
    -8.2022  -8.2005  -1.8094   0.8570   4.8098   6.1397   6.2428  12.2708
    12.7531  13.1337  13.9003  18.0780  18.6645  19.3981  19.5054  20.6040

     occupation numbers 
     1.0000   1.0000   1.0000   1.0000   1.0000   1.0000   1.0000   1.0000
     1.0000   1.0000   1.0000   1.0000   1.0000   1.0000   1.0000  -0.0000
    -0.0000  -0.0000  -0.0000  -0.0000  -0.0000  -0.0000  -0.0000  -0.0000

          k = 0.3849-0.5443-0.3333 (  4670 PWs)   bands (ev):

   -27.6291 -27.6287 -27.6250 -27.6245 -27.6243  -8.2651  -8.2225  -8.2211
    -8.2060  -8.1981  -1.6353   0.7181   4.5463   5.3304   7.2900  11.2110
    12.8650  14.2994  14.3565  16.5559  19.1410  20.0073  20.2129  20.2157

     occupation numbers 
     1.0000   1.0000   1.0000   1.0000   1.0000   1.0000   1.0000   1.0000
     1.0000   1.0000   1.0000   1.0000   1.0000   1.0000   1.0000  -0.0000
    -0.0000  -0.0000  -0.0000  -0.0000  -0.0000  -0.0000  -0.0000  -0.0000

          k = 0.2887-0.6124-0.1667 (  4666 PWs)   bands (ev):

   -27.6290 -27.6287 -27.6247 -27.6247 -27.6244  -8.2546  -8.2287  -8.2138
    -8.2118  -8.2010  -1.6914   0.4139   5.3509   5.4524   8.0766   9.9769
    12.9044  13.1860  15.0887  15.3045  18.8574  18.9736  20.3216  20.8323

     occupation numbers 
     1.0000   1.0000   1.0000   1.0000   1.0000   1.0000   1.0000   1.0000
     1.0000   1.0000   1.0000   1.0000   1.0000   1.0000   1.0000  -0.0000
    -0.0000  -0.0000  -0.0000  -0.0000  -0.0000  -0.0000  -0.0000  -0.0000

          k = 0.1925-0.4763 0.0000 (  4666 PWs)   bands (ev):

   -27.6289 -27.6288 -27.6248 -27.6247 -27.6246  -8.2400  -8.2349  -8.2156
    -8.2079  -8.2077  -2.0818   0.4747   5.9694   7.5230   7.9444   9.9217
    10.1429  12.3493  15.3339  16.1395  17.2780  18.7199  19.1933  21.8527

     occupation numbers 
     1.0000   1.0000   1.0000   1.0000   1.0000   1.0000   1.0000   1.0000
     1.0000   1.0000   1.0000   1.0000   1.0000   1.0000   1.0000  -0.0000
    -0.0000  -0.0000  -0.0000  -0.0000  -0.0000  -0.0000  -0.0000  -0.0000

          k = 0.0962-0.5443 0.1667 (  4662 PWs)   bands (ev):

   -27.6289 -27.6287 -27.6248 -27.6246 -27.6245  -8.2462  -8.2316  -8.2170
    -8.2079  -8.2037  -1.9152   0.2902   6.2888   6.9407   7.2591  10.6342
    10.9168  11.6538  14.8337  17.4309  18.0178  18.4263  19.3446  21.4001

     occupation numbers 
     1.0000   1.0000   1.0000   1.0000   1.0000   1.0000   1.0000   1.0000
     1.0000   1.0000   1.0000   1.0000   1.0000   1.0000   1.0000  -0.0000
    -0.0000  -0.0000  -0.0000  -0.0000  -0.0000  -0.0000  -0.0000  -0.0000

          k = 0.0000-0.6124 0.3333 (  4666 PWs)   bands (ev):

   -27.6290 -27.6287 -27.6247 -27.6247 -27.6244  -8.2546  -8.2287  -8.2138
    -8.2118  -8.2010  -1.6914   0.4139   5.3509   5.4524   8.0766   9.9769
    12.9044  13.1860  15.0887  15.3045  18.8573  18.9736  20.3216  20.8322

     occupation numbers 
     1.0000   1.0000   1.0000   1.0000   1.0000   1.0000   1.0000   1.0000
     1.0000   1.0000   1.0000   1.0000   1.0000   1.0000   1.0000  -0.0000
    -0.0000  -0.0000  -0.0000  -0.0000  -0.0000  -0.0000  -0.0000  -0.0000

          k = 0.4811-0.2722-0.5000 (  4670 PWs)   bands (ev):

   -27.6291 -27.6287 -27.6250 -27.6245 -27.6243  -8.2651  -8.2225  -8.2211
    -8.2060  -8.1981  -1.6353   0.7181   4.5463   5.3304   7.2900  11.2110
    12.8650  14.2994  14.3565  16.5559  19.1410  20.0073  20.2129  20.2156

     occupation numbers 
     1.0000   1.0000   1.0000   1.0000   1.0000   1.0000   1.0000   1.0000
     1.0000   1.0000   1.0000   1.0000   1.0000   1.0000   1.0000  -0.0000
    -0.0000  -0.0000  -0.0000  -0.0000  -0.0000  -0.0000  -0.0000  -0.0000

          k = 0.3849-0.3402-0.3333 (  4674 PWs)   bands (ev):

   -27.6291 -27.6287 -27.6251 -27.6244 -27.6244  -8.2655  -8.2241  -8.2200
    -8.2022  -8.2005  -1.8094   0.8570   4.8098   6.1397   6.2428  12.2708
    12.7531  13.1337  13.9003  18.0780  18.6645  19.3981  19.5054  20.6040

     occupation numbers 
     1.0000   1.0000   1.0000   1.0000   1.0000   1.0000   1.0000   1.0000
     1.0000   1.0000   1.0000   1.0000   1.0000   1.0000   1.0000  -0.0000
    -0.0000  -0.0000  -0.0000  -0.0000  -0.0000  -0.0000  -0.0000  -0.0000

          k = 0.2887-0.4082-0.1667 (  4660 PWs)   bands (ev):

   -27.6290 -27.6287 -27.6249 -27.6246 -27.6244  -8.2521  -8.2263  -8.2198
    -8.2067  -8.2041  -2.0318   0.7490   5.6355   6.0255   7.5534  10.6378
    12.1081  12.9043  14.1195  17.3178  17.6197  18.0529  19.4281  21.6948

     occupation numbers 
     1.0000   1.0000   1.0000   1.0000   1.0000   1.0000   1.0000   1.0000
     1.0000   1.0000   1.0000   1.0000   1.0000   1.0000   1.0000  -0.0000
    -0.0000  -0.0000  -0.0000  -0.0000  -0.0000  -0.0000  -0.0000  -0.0000

          k = 0.1925-0.2722 0.0000 (  4689 PWs)   bands (ev):

   -27.6289 -27.6289 -27.6249 -27.6248 -27.6247  -8.2326  -8.2306  -8.2185
    -8.2143  -8.2105  -2.7107   1.4116   6.3636   7.7559   8.2499   9.9911
    10.3132  12.5844  14.4398  14.9907  16.6810  16.9464  19.5757  19.5801

     occupation numbers 
     1.0000   1.0000   1.0000   1.0000   1.0000   1.0000   1.0000   1.0000
     1.0000   1.0000   1.0000   1.0000   1.0000   1.0000   1.0000  -0.0000
    -0.0000  -0.0000  -0.0000  -0.0000  -0.0000  -0.0000  -0.0000  -0.0000

          k = 0.0962-0.3402 0.1667 (  4670 PWs)   bands (ev):

   -27.6289 -27.6288 -27.6250 -27.6247 -27.6246  -8.2434  -8.2250  -8.2214
    -8.2101  -8.2075  -2.5174   1.2198   6.6689   6.7273   7.3492  10.6417
    11.8690  11.9957  13.4303  16.6943  17.0010  18.0735  18.4221  20.3617

     occupation numbers 
     1.0000   1.0000   1.0000   1.0000   1.0000   1.0000   1.0000   1.0000
     1.0000   1.0000   1.0000   1.0000   1.0000   1.0000   1.0000  -0.0000
    -0.0000  -0.0000  -0.0000  -0.0000  -0.0000  -0.0000  -0.0000  -0.0000

          k = 0.0000-0.4082 0.3333 (  4660 PWs)   bands (ev):

   -27.6290 -27.6287 -27.6249 -27.6246 -27.6244  -8.2521  -8.2263  -8.2198
    -8.2067  -8.2041  -2.0318   0.7490   5.6355   6.0255   7.5534  10.6378
    12.1081  12.9043  14.1195  17.3178  17.6197  18.0529  19.4281  21.6949

     occupation numbers 
     1.0000   1.0000   1.0000   1.0000   1.0000   1.0000   1.0000   1.0000
     1.0000   1.0000   1.0000   1.0000   1.0000   1.0000   1.0000  -0.0000
    -0.0000  -0.0000  -0.0000  -0.0000  -0.0000  -0.0000  -0.0000  -0.0000

          k = 0.4811-0.0680-0.5000 (  4666 PWs)   bands (ev):

   -27.6290 -27.6287 -27.6247 -27.6247 -27.6244  -8.2546  -8.2287  -8.2138
    -8.2118  -8.2010  -1.6914   0.4139   5.3509   5.4524   8.0766   9.9769
    12.9044  13.1860  15.0887  15.3045  18.8574  18.9736  20.3216  20.8322

     occupation numbers 
     1.0000   1.0000   1.0000   1.0000   1.0000   1.0000   1.0000   1.0000
     1.0000   1.0000   1.0000   1.0000   1.0000   1.0000   1.0000  -0.0000
    -0.0000  -0.0000  -0.0000  -0.0000  -0.0000  -0.0000  -0.0000  -0.0000

          k = 0.3849-0.1361-0.3333 (  4660 PWs)   bands (ev):

   -27.6290 -27.6287 -27.6249 -27.6246 -27.6244  -8.2521  -8.2263  -8.2198
    -8.2067  -8.2041  -2.0318   0.7490   5.6355   6.0255   7.5534  10.6378
    12.1081  12.9043  14.1195  17.3178  17.6197  18.0529  19.4281  21.6949

     occupation numbers 
     1.0000   1.0000   1.0000   1.0000   1.0000   1.0000   1.0000   1.0000
     1.0000   1.0000   1.0000   1.0000   1.0000   1.0000   1.0000  -0.0000
    -0.0000  -0.0000  -0.0000  -0.0000  -0.0000  -0.0000  -0.0000  -0.0000

          k = 0.2887-0.2041-0.1667 (  4670 PWs)   bands (ev):

   -27.6289 -27.6288 -27.6250 -27.6247 -27.6246  -8.2434  -8.2250  -8.2214
    -8.2101  -8.2075  -2.5174   1.2198   6.6689   6.7273   7.3492  10.6417
    11.8690  11.9957  13.4303  16.6943  17.0010  18.0735  18.4221  20.3619

     occupation numbers 
     1.0000   1.0000   1.0000   1.0000   1.0000   1.0000   1.0000   1.0000
     1.0000   1.0000   1.0000   1.0000   1.0000   1.0000   1.0000  -0.0000
    -0.0000  -0.0000  -0.0000  -0.0000  -0.0000  -0.0000  -0.0000  -0.0000

          k = 0.3849-0.1361 0.0000 (  4693 PWs)   bands (ev):

   -27.6289 -27.6289 -27.6249 -27.6247 -27.6247  -8.2343  -8.2343  -8.2183
    -8.2089  -8.2089  -2.4582   0.8196   7.4978   7.4978   8.0738   9.9336
    10.3482  10.3482  15.1227  16.2091  16.2091  19.2539  20.4367  20.4367

     occupation numbers 
     1.0000   1.0000   1.0000   1.0000   1.0000   1.0000   1.0000   1.0000
     1.0000   1.0000   1.0000   1.0000   1.0000   1.0000   1.0000  -0.0000
    -0.0000  -0.0000  -0.0000  -0.0000  -0.0000  -0.0000  -0.0000  -0.0000

          k = 0.2887-0.2041 0.1667 (  4670 PWs)   bands (ev):

   -27.6289 -27.6288 -27.6250 -27.6247 -27.6246  -8.2434  -8.2250  -8.2214
    -8.2101  -8.2075  -2.5174   1.2198   6.6689   6.7273   7.3492  10.6417
    11.8690  11.9957  13.4303  16.6943  17.0010  18.0735  18.4221  20.3618

     occupation numbers 
     1.0000   1.0000   1.0000   1.0000   1.0000   1.0000   1.0000   1.0000
     1.0000   1.0000   1.0000   1.0000   1.0000   1.0000   1.0000  -0.0000
    -0.0000  -0.0000  -0.0000  -0.0000  -0.0000  -0.0000  -0.0000  -0.0000

          k = 0.1925-0.2722 0.3333 (  4672 PWs)   bands (ev):

   -27.6290 -27.6287 -27.6251 -27.6245 -27.6245  -8.2599  -8.2262  -8.2173
    -8.2039  -8.2039  -2.2383   1.3054   5.7410   6.1413   6.1413  12.2347
    12.5949  13.2705  13.2705  17.4441  17.6542  18.4480  18.4480  21.1063

     occupation numbers 
     1.0000   1.0000   1.0000   1.0000   1.0000   1.0000   1.0000   1.0000
     1.0000   1.0000   1.0000   1.0000   1.0000   1.0000   1.0000  -0.0000
    -0.0000  -0.0000  -0.0000  -0.0000  -0.0000  -0.0000  -0.0000  -0.0000

          k = 0.6736 0.0680-0.5000 (  4674 PWs)   bands (ev):

   -27.6291 -27.6287 -27.6251 -27.6244 -27.6244  -8.2655  -8.2241  -8.2200
    -8.2022  -8.2005  -1.8094   0.8570   4.8098   6.1397   6.2428  12.2708
    12.7531  13.1337  13.9003  18.0780  18.6645  19.3980  19.5054  20.6042

     occupation numbers 
     1.0000   1.0000   1.0000   1.0000   1.0000   1.0000   1.0000   1.0000
     1.0000   1.0000   1.0000   1.0000   1.0000   1.0000   1.0000  -0.0000
    -0.0000  -0.0000  -0.0000  -0.0000  -0.0000  -0.0000  -0.0000  -0.0000

          k = 0.5774 0.0000-0.3333 (  4674 PWs)   bands (ev):

   -27.6290 -27.6287 -27.6248 -27.6245 -27.6244  -8.2551  -8.2279  -8.2160
    -8.2076  -8.2033  -1.6920   0.4180   4.8633   6.6748   6.9119  11.3252
    11.4217  13.8372  14.6088  16.5801  16.9648  18.8276  21.7203  21.7753

     occupation numbers 
     1.0000   1.0000   1.0000   1.0000   1.0000   1.0000   1.0000   1.0000
     1.0000   1.0000   1.0000   1.0000   1.0000   1.0000   1.0000  -0.0000
    -0.0000  -0.0000  -0.0000  -0.0000  -0.0000  -0.0000  -0.0000  -0.0000

          k = 0.4811-0.0680-0.1667 (  4666 PWs)   bands (ev):

   -27.6289 -27.6288 -27.6248 -27.6247 -27.6246  -8.2400  -8.2349  -8.2156
    -8.2079  -8.2077  -2.0818   0.4747   5.9694   7.5230   7.9444   9.9217
    10.1429  12.3493  15.3339  16.1395  17.2780  18.7199  19.1933  21.8565

     occupation numbers 
     1.0000   1.0000   1.0000   1.0000   1.0000   1.0000   1.0000   1.0000
     1.0000   1.0000   1.0000   1.0000   1.0000   1.0000   1.0000  -0.0000
    -0.0000  -0.0000  -0.0000  -0.0000  -0.0000  -0.0000  -0.0000  -0.0000

          k = 0.3849 0.0680 0.0000 (  4670 PWs)   bands (ev):

   -27.6289 -27.6288 -27.6250 -27.6247 -27.6246  -8.2434  -8.2250  -8.2214
    -8.2101  -8.2075  -2.5174   1.2198   6.6689   6.7273   7.3492  10.6417
    11.8690  11.9957  13.4303  16.6943  17.0010  18.0735  18.4221  20.3619

     occupation numbers 
     1.0000   1.0000   1.0000   1.0000   1.0000   1.0000   1.0000   1.0000
     1.0000   1.0000   1.0000   1.0000   1.0000   1.0000   1.0000  -0.0000
    -0.0000  -0.0000  -0.0000  -0.0000  -0.0000  -0.0000  -0.0000  -0.0000

          k = 0.2887 0.0000 0.1667 (  4689 PWs)   bands (ev):

   -27.6289 -27.6289 -27.6249 -27.6248 -27.6247  -8.2326  -8.2306  -8.2185
    -8.2143  -8.2105  -2.7107   1.4116   6.3636   7.7559   8.2499   9.9911
    10.3132  12.5844  14.4398  14.9907  16.6810  16.9464  19.5757  19.5801

     occupation numbers 
     1.0000   1.0000   1.0000   1.0000   1.0000   1.0000   1.0000   1.0000
     1.0000   1.0000   1.0000   1.0000   1.0000   1.0000   1.0000  -0.0000
    -0.0000  -0.0000  -0.0000  -0.0000  -0.0000  -0.0000  -0.0000  -0.0000

          k = 0.1925-0.0680 0.3333 (  4670 PWs)   bands (ev):

   -27.6289 -27.6288 -27.6250 -27.6247 -27.6246  -8.2434  -8.2250  -8.2214
    -8.2101  -8.2075  -2.5174   1.2198   6.6689   6.7273   7.3492  10.6417
    11.8690  11.9957  13.4303  16.6943  17.0010  18.0735  18.4221  20.3617

     occupation numbers 
     1.0000   1.0000   1.0000   1.0000   1.0000   1.0000   1.0000   1.0000
     1.0000   1.0000   1.0000   1.0000   1.0000   1.0000   1.0000  -0.0000
    -0.0000  -0.0000  -0.0000  -0.0000  -0.0000  -0.0000  -0.0000  -0.0000

          k = 0.6736 0.2722-0.5000 (  4660 PWs)   bands (ev):

   -27.6290 -27.6287 -27.6249 -27.6246 -27.6244  -8.2521  -8.2263  -8.2198
    -8.2067  -8.2041  -2.0318   0.7490   5.6355   6.0255   7.5534  10.6378
    12.1081  12.9043  14.1195  17.3178  17.6197  18.0529  19.4281  21.6948

     occupation numbers 
     1.0000   1.0000   1.0000   1.0000   1.0000   1.0000   1.0000   1.0000
     1.0000   1.0000   1.0000   1.0000   1.0000   1.0000   1.0000  -0.0000
    -0.0000  -0.0000  -0.0000  -0.0000  -0.0000  -0.0000  -0.0000  -0.0000

          k = 0.5774 0.2041-0.3333 (  4666 PWs)   bands (ev):

   -27.6290 -27.6287 -27.6247 -27.6247 -27.6244  -8.2546  -8.2287  -8.2138
    -8.2118  -8.2010  -1.6914   0.4139   5.3509   5.4524   8.0766   9.9769
    12.9044  13.1860  15.0887  15.3045  18.8573  18.9736  20.3216  20.8322

     occupation numbers 
     1.0000   1.0000   1.0000   1.0000   1.0000   1.0000   1.0000   1.0000
     1.0000   1.0000   1.0000   1.0000   1.0000   1.0000   1.0000  -0.0000
    -0.0000  -0.0000  -0.0000  -0.0000  -0.0000  -0.0000  -0.0000  -0.0000

          k = 0.4811 0.1361-0.1667 (  4660 PWs)   bands (ev):

   -27.6290 -27.6287 -27.6249 -27.6246 -27.6244  -8.2521  -8.2263  -8.2198
    -8.2067  -8.2041  -2.0318   0.7490   5.6355   6.0255   7.5534  10.6378
    12.1081  12.9043  14.1195  17.3178  17.6197  18.0529  19.4281  21.6949

     occupation numbers 
     1.0000   1.0000   1.0000   1.0000   1.0000   1.0000   1.0000   1.0000
     1.0000   1.0000   1.0000   1.0000   1.0000   1.0000   1.0000  -0.0000
    -0.0000  -0.0000  -0.0000  -0.0000  -0.0000  -0.0000  -0.0000  -0.0000

          k = 0.3849 0.2722 0.0000 (  4672 PWs)   bands (ev):

   -27.6290 -27.6287 -27.6251 -27.6245 -27.6245  -8.2599  -8.2262  -8.2173
    -8.2039  -8.2039  -2.2383   1.3054   5.7410   6.1413   6.1413  12.2347
    12.5949  13.2705  13.2705  17.4440  17.6542  18.4480  18.4480  21.1063

     occupation numbers 
     1.0000   1.0000   1.0000   1.0000   1.0000   1.0000   1.0000   1.0000
     1.0000   1.0000   1.0000   1.0000   1.0000   1.0000   1.0000  -0.0000
    -0.0000  -0.0000  -0.0000  -0.0000  -0.0000  -0.0000  -0.0000  -0.0000

          k = 0.2887 0.2041 0.1667 (  4670 PWs)   bands (ev):

   -27.6289 -27.6288 -27.6250 -27.6247 -27.6246  -8.2434  -8.2250  -8.2214
    -8.2101  -8.2075  -2.5174   1.2198   6.6689   6.7273   7.3492  10.6417
    11.8690  11.9957  13.4303  16.6943  17.0010  18.0735  18.4221  20.3617

     occupation numbers 
     1.0000   1.0000   1.0000   1.0000   1.0000   1.0000   1.0000   1.0000
     1.0000   1.0000   1.0000   1.0000   1.0000   1.0000   1.0000  -0.0000
    -0.0000  -0.0000  -0.0000  -0.0000  -0.0000  -0.0000  -0.0000  -0.0000

          k = 0.1925 0.1361 0.3333 (  4693 PWs)   bands (ev):

   -27.6289 -27.6289 -27.6249 -27.6247 -27.6247  -8.2343  -8.2343  -8.2183
    -8.2089  -8.2089  -2.4582   0.8196   7.4978   7.4978   8.0738   9.9336
    10.3482  10.3482  15.1227  16.2091  16.2091  19.2539  20.4367  20.4367

     occupation numbers 
     1.0000   1.0000   1.0000   1.0000   1.0000   1.0000   1.0000   1.0000
     1.0000   1.0000   1.0000   1.0000   1.0000   1.0000   1.0000  -0.0000
    -0.0000  -0.0000  -0.0000  -0.0000  -0.0000  -0.0000  -0.0000  -0.0000

          k = 0.6736 0.4763-0.5000 (  4666 PWs)   bands (ev):

   -27.6289 -27.6288 -27.6248 -27.6247 -27.6246  -8.2400  -8.2349  -8.2156
    -8.2079  -8.2077  -2.0818   0.4747   5.9694   7.5230   7.9444   9.9217
    10.1429  12.3493  15.3339  16.1395  17.2780  18.7199  19.1933  21.8534

     occupation numbers 
     1.0000   1.0000   1.0000   1.0000   1.0000   1.0000   1.0000   1.0000
     1.0000   1.0000   1.0000   1.0000   1.0000   1.0000   1.0000  -0.0000
    -0.0000  -0.0000  -0.0000  -0.0000  -0.0000  -0.0000  -0.0000  -0.0000

          k = 0.5774 0.4082-0.3333 (  4674 PWs)   bands (ev):

   -27.6290 -27.6287 -27.6248 -27.6245 -27.6244  -8.2551  -8.2279  -8.2160
    -8.2076  -8.2033  -1.6920   0.4180   4.8633   6.6748   6.9119  11.3252
    11.4217  13.8372  14.6088  16.5801  16.9648  18.8276  21.7203  21.7753

     occupation numbers 
     1.0000   1.0000   1.0000   1.0000   1.0000   1.0000   1.0000   1.0000
     1.0000   1.0000   1.0000   1.0000   1.0000   1.0000   1.0000  -0.0000
    -0.0000  -0.0000  -0.0000  -0.0000  -0.0000  -0.0000  -0.0000  -0.0000

          k = 0.4811 0.3402-0.1667 (  4674 PWs)   bands (ev):

   -27.6291 -27.6287 -27.6251 -27.6244 -27.6244  -8.2655  -8.2241  -8.2200
    -8.2022  -8.2005  -1.8094   0.8570   4.8098   6.1397   6.2428  12.2708
    12.7531  13.1337  13.9003  18.0780  18.6645  19.3980  19.5054  20.6040

     occupation numbers 
     1.0000   1.0000   1.0000   1.0000   1.0000   1.0000   1.0000   1.0000
     1.0000   1.0000   1.0000   1.0000   1.0000   1.0000   1.0000  -0.0000
    -0.0000  -0.0000  -0.0000  -0.0000  -0.0000  -0.0000  -0.0000  -0.0000

          k = 0.3849-0.7485 0.0000 (  4674 PWs)   bands (ev):

   -27.6291 -27.6287 -27.6251 -27.6244 -27.6244  -8.2655  -8.2241  -8.2200
    -8.2022  -8.2005  -1.8094   0.8570   4.8098   6.1397   6.2428  12.2708
    12.7531  13.1337  13.9003  18.0780  18.6645  19.3981  19.5054  20.6040

     occupation numbers 
     1.0000   1.0000   1.0000   1.0000   1.0000   1.0000   1.0000   1.0000
     1.0000   1.0000   1.0000   1.0000   1.0000   1.0000   1.0000  -0.0000
    -0.0000  -0.0000  -0.0000  -0.0000  -0.0000  -0.0000  -0.0000  -0.0000

          k = 0.2887-0.8165 0.1667 (  4660 PWs)   bands (ev):

   -27.6290 -27.6287 -27.6249 -27.6246 -27.6244  -8.2521  -8.2263  -8.2198
    -8.2067  -8.2041  -2.0318   0.7490   5.6355   6.0255   7.5534  10.6378
    12.1081  12.9043  14.1195  17.3178  17.6197  18.0529  19.4281  21.6949

     occupation numbers 
     1.0000   1.0000   1.0000   1.0000   1.0000   1.0000   1.0000   1.0000
     1.0000   1.0000   1.0000   1.0000   1.0000   1.0000   1.0000  -0.0000
    -0.0000  -0.0000  -0.0000  -0.0000  -0.0000  -0.0000  -0.0000  -0.0000

          k = 0.1925-0.8845 0.3333 (  4666 PWs)   bands (ev):

   -27.6289 -27.6288 -27.6248 -27.6247 -27.6246  -8.2400  -8.2349  -8.2156
    -8.2079  -8.2077  -2.0818   0.4747   5.9694   7.5230   7.9444   9.9217
    10.1429  12.3493  15.3339  16.1395  17.2780  18.7199  19.1933  21.8524

     occupation numbers 
     1.0000   1.0000   1.0000   1.0000   1.0000   1.0000   1.0000   1.0000
     1.0000   1.0000   1.0000   1.0000   1.0000   1.0000   1.0000  -0.0000
    -0.0000  -0.0000  -0.0000  -0.0000  -0.0000  -0.0000  -0.0000  -0.0000

          k = 0.6736-0.5443-0.5000 (  4662 PWs)   bands (ev):

   -27.6289 -27.6287 -27.6248 -27.6246 -27.6245  -8.2462  -8.2316  -8.2170
    -8.2079  -8.2037  -1.9152   0.2902   6.2888   6.9407   7.2591  10.6342
    10.9168  11.6538  14.8337  17.4309  18.0178  18.4263  19.3446  21.4001

     occupation numbers 
     1.0000   1.0000   1.0000   1.0000   1.0000   1.0000   1.0000   1.0000
     1.0000   1.0000   1.0000   1.0000   1.0000   1.0000   1.0000  -0.0000
    -0.0000  -0.0000  -0.0000  -0.0000  -0.0000  -0.0000  -0.0000  -0.0000

          k = 0.5774-0.6124-0.3333 (  4666 PWs)   bands (ev):

   -27.6290 -27.6287 -27.6247 -27.6247 -27.6244  -8.2546  -8.2287  -8.2138
    -8.2118  -8.2010  -1.6914   0.4139   5.3509   5.4524   8.0766   9.9769
    12.9044  13.1860  15.0887  15.3045  18.8573  18.9736  20.3216  20.8322

     occupation numbers 
     1.0000   1.0000   1.0000   1.0000   1.0000   1.0000   1.0000   1.0000
     1.0000   1.0000   1.0000   1.0000   1.0000   1.0000   1.0000  -0.0000
    -0.0000  -0.0000  -0.0000  -0.0000  -0.0000  -0.0000  -0.0000  -0.0000

          k = 0.4811-0.6804-0.1667 (  4670 PWs)   bands (ev):

   -27.6291 -27.6287 -27.6250 -27.6245 -27.6243  -8.2651  -8.2225  -8.2211
    -8.2060  -8.1981  -1.6353   0.7181   4.5463   5.3304   7.2900  11.2110
    12.8650  14.2994  14.3565  16.5559  19.1410  20.0073  20.2130  20.2156

     occupation numbers 
     1.0000   1.0000   1.0000   1.0000   1.0000   1.0000   1.0000   1.0000
     1.0000   1.0000   1.0000   1.0000   1.0000   1.0000   1.0000  -0.0000
    -0.0000  -0.0000  -0.0000  -0.0000  -0.0000  -0.0000  -0.0000  -0.0000

          k = 0.3849-0.5443 0.0000 (  4674 PWs)   bands (ev):

   -27.6290 -27.6287 -27.6248 -27.6245 -27.6244  -8.2551  -8.2279  -8.2160
    -8.2076  -8.2033  -1.6920   0.4180   4.8633   6.6748   6.9119  11.3252
    11.4217  13.8372  14.6088  16.5801  16.9648  18.8276  21.7203  21.7753

     occupation numbers 
     1.0000   1.0000   1.0000   1.0000   1.0000   1.0000   1.0000   1.0000
     1.0000   1.0000   1.0000   1.0000   1.0000   1.0000   1.0000  -0.0000
    -0.0000  -0.0000  -0.0000  -0.0000  -0.0000  -0.0000  -0.0000  -0.0000

          k = 0.2887-0.6124 0.1667 (  4666 PWs)   bands (ev):

   -27.6290 -27.6287 -27.6247 -27.6247 -27.6244  -8.2546  -8.2287  -8.2138
    -8.2118  -8.2010  -1.6914   0.4139   5.3509   5.4524   8.0766   9.9769
    12.9044  13.1860  15.0887  15.3045  18.8574  18.9736  20.3216  20.8322

     occupation numbers 
     1.0000   1.0000   1.0000   1.0000   1.0000   1.0000   1.0000   1.0000
     1.0000   1.0000   1.0000   1.0000   1.0000   1.0000   1.0000  -0.0000
    -0.0000  -0.0000  -0.0000  -0.0000  -0.0000  -0.0000  -0.0000  -0.0000

          k = 0.1925-0.6804 0.3333 (  4674 PWs)   bands (ev):

   -27.6290 -27.6287 -27.6248 -27.6245 -27.6244  -8.2551  -8.2279  -8.2160
    -8.2076  -8.2033  -1.6920   0.4180   4.8633   6.6748   6.9119  11.3252
    11.4217  13.8372  14.6088  16.5801  16.9648  18.8276  21.7203  21.7753

     occupation numbers 
     1.0000   1.0000   1.0000   1.0000   1.0000   1.0000   1.0000   1.0000
     1.0000   1.0000   1.0000   1.0000   1.0000   1.0000   1.0000  -0.0000
    -0.0000  -0.0000  -0.0000  -0.0000  -0.0000  -0.0000  -0.0000  -0.0000

          k = 0.6736-0.3402-0.5000 (  4666 PWs)   bands (ev):

   -27.6290 -27.6287 -27.6247 -27.6247 -27.6244  -8.2546  -8.2287  -8.2138
    -8.2118  -8.2010  -1.6914   0.4139   5.3509   5.4524   8.0766   9.9769
    12.9044  13.1860  15.0887  15.3045  18.8574  18.9736  20.3216  20.8322

     occupation numbers 
     1.0000   1.0000   1.0000   1.0000   1.0000   1.0000   1.0000   1.0000
     1.0000   1.0000   1.0000   1.0000   1.0000   1.0000   1.0000  -0.0000
    -0.0000  -0.0000  -0.0000  -0.0000  -0.0000  -0.0000  -0.0000  -0.0000

          k = 0.5774-0.4082-0.3333 (  4674 PWs)   bands (ev):

   -27.6290 -27.6287 -27.6248 -27.6245 -27.6244  -8.2551  -8.2279  -8.2160
    -8.2076  -8.2033  -1.6920   0.4180   4.8633   6.6748   6.9119  11.3252
    11.4217  13.8372  14.6088  16.5801  16.9648  18.8276  21.7203  21.7753

     occupation numbers 
     1.0000   1.0000   1.0000   1.0000   1.0000   1.0000   1.0000   1.0000
     1.0000   1.0000   1.0000   1.0000   1.0000   1.0000   1.0000  -0.0000
    -0.0000  -0.0000  -0.0000  -0.0000  -0.0000  -0.0000  -0.0000  -0.0000

          k = 0.4811-0.4763-0.1667 (  4666 PWs)   bands (ev):

   -27.6290 -27.6287 -27.6247 -27.6247 -27.6244  -8.2546  -8.2287  -8.2138
    -8.2118  -8.2010  -1.6914   0.4139   5.3509   5.4524   8.0766   9.9769
    12.9044  13.1860  15.0887  15.3045  18.8574  18.9736  20.3216  20.8322

     occupation numbers 
     1.0000   1.0000   1.0000   1.0000   1.0000   1.0000   1.0000   1.0000
     1.0000   1.0000   1.0000   1.0000   1.0000   1.0000   1.0000  -0.0000
    -0.0000  -0.0000  -0.0000  -0.0000  -0.0000  -0.0000  -0.0000  -0.0000

          k = 0.3849-0.3402 0.0000 (  4666 PWs)   bands (ev):

   -27.6289 -27.6288 -27.6248 -27.6247 -27.6246  -8.2400  -8.2349  -8.2156
    -8.2079  -8.2077  -2.0818   0.4747   5.9694   7.5230   7.9444   9.9217
    10.1429  12.3493  15.3339  16.1395  17.2780  18.7199  19.1933  21.8567

     occupation numbers 
     1.0000   1.0000   1.0000   1.0000   1.0000   1.0000   1.0000   1.0000
     1.0000   1.0000   1.0000   1.0000   1.0000   1.0000   1.0000  -0.0000
    -0.0000  -0.0000  -0.0000  -0.0000  -0.0000  -0.0000  -0.0000  -0.0000

          k = 0.2887-0.4082 0.1667 (  4660 PWs)   bands (ev):

   -27.6290 -27.6287 -27.6249 -27.6246 -27.6244  -8.2521  -8.2263  -8.2198
    -8.2067  -8.2041  -2.0318   0.7490   5.6355   6.0255   7.5534  10.6378
    12.1081  12.9043  14.1195  17.3178  17.6197  18.0529  19.4281  21.6948

     occupation numbers 
     1.0000   1.0000   1.0000   1.0000   1.0000   1.0000   1.0000   1.0000
     1.0000   1.0000   1.0000   1.0000   1.0000   1.0000   1.0000  -0.0000
    -0.0000  -0.0000  -0.0000  -0.0000  -0.0000  -0.0000  -0.0000  -0.0000

          k = 0.1925-0.4763 0.3333 (  4674 PWs)   bands (ev):

   -27.6291 -27.6287 -27.6251 -27.6244 -27.6244  -8.2655  -8.2241  -8.2200
    -8.2022  -8.2005  -1.8094   0.8570   4.8098   6.1397   6.2428  12.2708
    12.7531  13.1337  13.9003  18.0780  18.6645  19.3980  19.5054  20.6041

     occupation numbers 
     1.0000   1.0000   1.0000   1.0000   1.0000   1.0000   1.0000   1.0000
     1.0000   1.0000   1.0000   1.0000   1.0000   1.0000   1.0000  -0.0000
    -0.0000  -0.0000  -0.0000  -0.0000  -0.0000  -0.0000  -0.0000  -0.0000

          k = 0.6736-0.1361-0.5000 (  4670 PWs)   bands (ev):

   -27.6291 -27.6287 -27.6250 -27.6245 -27.6243  -8.2651  -8.2225  -8.2211
    -8.2060  -8.1981  -1.6353   0.7181   4.5463   5.3304   7.2900  11.2110
    12.8650  14.2994  14.3565  16.5559  19.1410  20.0073  20.2129  20.2156

     occupation numbers 
     1.0000   1.0000   1.0000   1.0000   1.0000   1.0000   1.0000   1.0000
     1.0000   1.0000   1.0000   1.0000   1.0000   1.0000   1.0000  -0.0000
    -0.0000  -0.0000  -0.0000  -0.0000  -0.0000  -0.0000  -0.0000  -0.0000

          k = 0.5774-0.2041-0.3333 (  4666 PWs)   bands (ev):

   -27.6290 -27.6287 -27.6247 -27.6247 -27.6244  -8.2546  -8.2287  -8.2138
    -8.2118  -8.2010  -1.6914   0.4139   5.3509   5.4524   8.0766   9.9769
    12.9044  13.1860  15.0887  15.3045  18.8573  18.9736  20.3216  20.8322

     occupation numbers 
     1.0000   1.0000   1.0000   1.0000   1.0000   1.0000   1.0000   1.0000
     1.0000   1.0000   1.0000   1.0000   1.0000   1.0000   1.0000  -0.0000
    -0.0000  -0.0000  -0.0000  -0.0000  -0.0000  -0.0000  -0.0000  -0.0000

          k = 0.4811-0.2722-0.1667 (  4662 PWs)   bands (ev):

   -27.6289 -27.6287 -27.6248 -27.6246 -27.6245  -8.2462  -8.2316  -8.2170
    -8.2079  -8.2037  -1.9152   0.2902   6.2888   6.9407   7.2591  10.6342
    10.9168  11.6538  14.8337  17.4309  18.0178  18.4263  19.3446  21.4001

     occupation numbers 
     1.0000   1.0000   1.0000   1.0000   1.0000   1.0000   1.0000   1.0000
     1.0000   1.0000   1.0000   1.0000   1.0000   1.0000   1.0000  -0.0000
    -0.0000  -0.0000  -0.0000  -0.0000  -0.0000  -0.0000  -0.0000  -0.0000

          k =-0.5774 0.2041 0.0000 (  4664 PWs)   bands (ev):

   -27.6288 -27.6288 -27.6248 -27.6246 -27.6246  -8.2378  -8.2378  -8.2179
    -8.2050  -8.2050  -1.9521   0.0336   7.6585   7.6585   8.4238   9.2350
     9.7921   9.7921  16.8112  17.6686  17.8503  17.8503  19.0086  19.0087

     occupation numbers 
     1.0000   1.0000   1.0000   1.0000   1.0000   1.0000   1.0000   1.0000
     1.0000   1.0000   1.0000   1.0000   1.0000   1.0000   1.0001  -0.0001
    -0.0000  -0.0000  -0.0000  -0.0000  -0.0000  -0.0000  -0.0000  -0.0000

          k =-0.6736 0.1361 0.1667 (  4662 PWs)   bands (ev):

   -27.6289 -27.6287 -27.6248 -27.6246 -27.6245  -8.2462  -8.2316  -8.2170
    -8.2079  -8.2037  -1.9152   0.2902   6.2888   6.9407   7.2591  10.6342
    10.9168  11.6538  14.8337  17.4309  18.0178  18.4263  19.3446  21.4001

     occupation numbers 
     1.0000   1.0000   1.0000   1.0000   1.0000   1.0000   1.0000   1.0000
     1.0000   1.0000   1.0000   1.0000   1.0000   1.0000   1.0000  -0.0000
    -0.0000  -0.0000  -0.0000  -0.0000  -0.0000  -0.0000  -0.0000  -0.0000

          k =-0.7698 0.0680 0.3333 (  4674 PWs)   bands (ev):

   -27.6291 -27.6287 -27.6251 -27.6244 -27.6244  -8.2655  -8.2241  -8.2200
    -8.2022  -8.2005  -1.8094   0.8570   4.8098   6.1397   6.2428  12.2708
    12.7531  13.1337  13.9003  18.0780  18.6645  19.3981  19.5054  20.6040

     occupation numbers 
     1.0000   1.0000   1.0000   1.0000   1.0000   1.0000   1.0000   1.0000
     1.0000   1.0000   1.0000   1.0000   1.0000   1.0000   1.0000  -0.0000
    -0.0000  -0.0000  -0.0000  -0.0000  -0.0000  -0.0000  -0.0000  -0.0000

          k =-0.2887 0.4082-0.5000 (  4720 PWs)   bands (ev):

   -27.6292 -27.6287 -27.6252 -27.6243 -27.6243  -8.2757  -8.2282  -8.2149
    -8.1981  -8.1981  -1.7399   1.1887   4.2259   5.8485   5.8485  11.8954
    13.7786  13.7786  14.9146  18.6030  19.1620  19.5517  20.1470  20.1470

     occupation numbers 
     1.0000   1.0000   1.0000   1.0000   1.0000   1.0000   1.0000   1.0000
     1.0000   1.0000   1.0000   1.0000   1.0000   1.0000   1.0000  -0.0000
    -0.0000  -0.0000  -0.0000  -0.0000  -0.0000  -0.0000  -0.0000  -0.0000

          k =-0.3849 0.3402-0.3333 (  4674 PWs)   bands (ev):

   -27.6291 -27.6287 -27.6251 -27.6244 -27.6244  -8.2655  -8.2241  -8.2200
    -8.2022  -8.2005  -1.8094   0.8570   4.8098   6.1397   6.2428  12.2708
    12.7531  13.1337  13.9003  18.0780  18.6645  19.3981  19.5054  20.6040

     occupation numbers 
     1.0000   1.0000   1.0000   1.0000   1.0000   1.0000   1.0000   1.0000
     1.0000   1.0000   1.0000   1.0000   1.0000   1.0000   1.0000  -0.0000
    -0.0000  -0.0000  -0.0000  -0.0000  -0.0000  -0.0000  -0.0000  -0.0000

          k =-0.4811 0.2722-0.1667 (  4662 PWs)   bands (ev):

   -27.6289 -27.6287 -27.6248 -27.6246 -27.6245  -8.2462  -8.2316  -8.2170
    -8.2079  -8.2037  -1.9152   0.2902   6.2888   6.9407   7.2591  10.6342
    10.9168  11.6538  14.8337  17.4309  18.0178  18.4263  19.3446  21.4002

     occupation numbers 
     1.0000   1.0000   1.0000   1.0000   1.0000   1.0000   1.0000   1.0000
     1.0000   1.0000   1.0000   1.0000   1.0000   1.0000   1.0000  -0.0000
    -0.0000  -0.0000  -0.0000  -0.0000  -0.0000  -0.0000  -0.0000  -0.0000

          k =-0.5774 0.4082 0.0000 (  4662 PWs)   bands (ev):

   -27.6289 -27.6287 -27.6248 -27.6246 -27.6245  -8.2462  -8.2316  -8.2170
    -8.2079  -8.2037  -1.9152   0.2902   6.2888   6.9407   7.2591  10.6342
    10.9168  11.6538  14.8337  17.4309  18.0178  18.4263  19.3446  21.7106

     occupation numbers 
     1.0000   1.0000   1.0000   1.0000   1.0000   1.0000   1.0000   1.0000
     1.0000   1.0000   1.0000   1.0000   1.0000   1.0000   1.0000  -0.0000
    -0.0000  -0.0000  -0.0000  -0.0000  -0.0000  -0.0000  -0.0000  -0.0000

          k =-0.6736 0.3402 0.1667 (  4666 PWs)   bands (ev):

   -27.6289 -27.6288 -27.6248 -27.6247 -27.6246  -8.2400  -8.2349  -8.2156
    -8.2079  -8.2077  -2.0818   0.4747   5.9694   7.5230   7.9444   9.9217
    10.1429  12.3493  15.3339  16.1395  17.2780  18.7199  19.1933  21.8528

     occupation numbers 
     1.0000   1.0000   1.0000   1.0000   1.0000   1.0000   1.0000   1.0000
     1.0000   1.0000   1.0000   1.0000   1.0000   1.0000   1.0000  -0.0000
    -0.0000  -0.0000  -0.0000  -0.0000  -0.0000  -0.0000  -0.0000  -0.0000

          k =-0.7698 0.2722 0.3333 (  4660 PWs)   bands (ev):

   -27.6290 -27.6287 -27.6249 -27.6246 -27.6244  -8.2521  -8.2263  -8.2198
    -8.2067  -8.2041  -2.0318   0.7490   5.6355   6.0255   7.5534  10.6378
    12.1081  12.9043  14.1195  17.3178  17.6197  18.0529  19.4281  21.6949

     occupation numbers 
     1.0000   1.0000   1.0000   1.0000   1.0000   1.0000   1.0000   1.0000
     1.0000   1.0000   1.0000   1.0000   1.0000   1.0000   1.0000  -0.0000
    -0.0000  -0.0000  -0.0000  -0.0000  -0.0000  -0.0000  -0.0000  -0.0000

          k =-0.2887 0.6124-0.5000 (  4674 PWs)   bands (ev):

   -27.6291 -27.6287 -27.6251 -27.6244 -27.6244  -8.2655  -8.2241  -8.2200
    -8.2022  -8.2005  -1.8094   0.8570   4.8098   6.1397   6.2428  12.2708
    12.7531  13.1337  13.9003  18.0780  18.6645  19.3981  19.5054  20.6040

     occupation numbers 
     1.0000   1.0000   1.0000   1.0000   1.0000   1.0000   1.0000   1.0000
     1.0000   1.0000   1.0000   1.0000   1.0000   1.0000   1.0000  -0.0000
    -0.0000  -0.0000  -0.0000  -0.0000  -0.0000  -0.0000  -0.0000  -0.0000

          k =-0.3849 0.5443-0.3333 (  4670 PWs)   bands (ev):

   -27.6291 -27.6287 -27.6250 -27.6245 -27.6243  -8.2651  -8.2225  -8.2211
    -8.2060  -8.1981  -1.6353   0.7181   4.5463   5.3304   7.2900  11.2110
    12.8650  14.2994  14.3565  16.5559  19.1410  20.0073  20.2130  20.2157

     occupation numbers 
     1.0000   1.0000   1.0000   1.0000   1.0000   1.0000   1.0000   1.0000
     1.0000   1.0000   1.0000   1.0000   1.0000   1.0000   1.0000  -0.0000
    -0.0000  -0.0000  -0.0000  -0.0000  -0.0000  -0.0000  -0.0000  -0.0000

          k =-0.4811 0.4763-0.1667 (  4666 PWs)   bands (ev):

   -27.6290 -27.6287 -27.6247 -27.6247 -27.6244  -8.2546  -8.2287  -8.2138
    -8.2118  -8.2010  -1.6914   0.4139   5.3509   5.4524   8.0766   9.9769
    12.9044  13.1860  15.0887  15.3045  18.8574  18.9736  20.3216  20.8322

     occupation numbers 
     1.0000   1.0000   1.0000   1.0000   1.0000   1.0000   1.0000   1.0000
     1.0000   1.0000   1.0000   1.0000   1.0000   1.0000   1.0000  -0.0000
    -0.0000  -0.0000  -0.0000  -0.0000  -0.0000  -0.0000  -0.0000  -0.0000

          k =-0.5774 0.6124 0.0000 (  4674 PWs)   bands (ev):

   -27.6291 -27.6287 -27.6251 -27.6244 -27.6244  -8.2655  -8.2241  -8.2200
    -8.2022  -8.2005  -1.8094   0.8570   4.8098   6.1397   6.2428  12.2708
    12.7531  13.1337  13.9003  18.0780  18.6645  19.3981  19.5054  20.6041

     occupation numbers 
     1.0000   1.0000   1.0000   1.0000   1.0000   1.0000   1.0000   1.0000
     1.0000   1.0000   1.0000   1.0000   1.0000   1.0000   1.0000  -0.0000
    -0.0000  -0.0000  -0.0000  -0.0000  -0.0000  -0.0000  -0.0000  -0.0000

          k =-0.6736 0.5443 0.1667 (  4660 PWs)   bands (ev):

   -27.6290 -27.6287 -27.6249 -27.6246 -27.6244  -8.2521  -8.2263  -8.2198
    -8.2067  -8.2041  -2.0318   0.7490   5.6355   6.0255   7.5534  10.6378
    12.1081  12.9043  14.1195  17.3178  17.6197  18.0529  19.4281  21.6949

     occupation numbers 
     1.0000   1.0000   1.0000   1.0000   1.0000   1.0000   1.0000   1.0000
     1.0000   1.0000   1.0000   1.0000   1.0000   1.0000   1.0000  -0.0000
    -0.0000  -0.0000  -0.0000  -0.0000  -0.0000  -0.0000  -0.0000  -0.0000

          k =-0.7698 0.4763 0.3333 (  4666 PWs)   bands (ev):

   -27.6289 -27.6288 -27.6248 -27.6247 -27.6246  -8.2400  -8.2349  -8.2156
    -8.2079  -8.2077  -2.0818   0.4747   5.9694   7.5230   7.9444   9.9217
    10.1429  12.3493  15.3339  16.1395  17.2780  18.7199  19.1933  21.8524

     occupation numbers 
     1.0000   1.0000   1.0000   1.0000   1.0000   1.0000   1.0000   1.0000
     1.0000   1.0000   1.0000   1.0000   1.0000   1.0000   1.0000  -0.0000
    -0.0000  -0.0000  -0.0000  -0.0000  -0.0000  -0.0000  -0.0000  -0.0000

          k =-0.2887 0.8165-0.5000 (  4662 PWs)   bands (ev):

   -27.6289 -27.6287 -27.6248 -27.6246 -27.6245  -8.2462  -8.2316  -8.2170
    -8.2079  -8.2037  -1.9152   0.2902   6.2888   6.9407   7.2591  10.6342
    10.9168  11.6538  14.8337  17.4309  18.0178  18.4263  19.3446  21.4001

     occupation numbers 
     1.0000   1.0000   1.0000   1.0000   1.0000   1.0000   1.0000   1.0000
     1.0000   1.0000   1.0000   1.0000   1.0000   1.0000   1.0000  -0.0000
    -0.0000  -0.0000  -0.0000  -0.0000  -0.0000  -0.0000  -0.0000  -0.0000

          k =-0.3849 0.7485-0.3333 (  4666 PWs)   bands (ev):

   -27.6290 -27.6287 -27.6247 -27.6247 -27.6244  -8.2546  -8.2287  -8.2138
    -8.2118  -8.2010  -1.6914   0.4139   5.3509   5.4524   8.0766   9.9769
    12.9044  13.1860  15.0887  15.3045  18.8574  18.9736  20.3216  20.8322

     occupation numbers 
     1.0000   1.0000   1.0000   1.0000   1.0000   1.0000   1.0000   1.0000
     1.0000   1.0000   1.0000   1.0000   1.0000   1.0000   1.0000  -0.0000
    -0.0000  -0.0000  -0.0000  -0.0000  -0.0000  -0.0000  -0.0000  -0.0000

          k =-0.4811 0.6804-0.1667 (  4670 PWs)   bands (ev):

   -27.6291 -27.6287 -27.6250 -27.6245 -27.6243  -8.2651  -8.2225  -8.2211
    -8.2060  -8.1981  -1.6353   0.7181   4.5463   5.3304   7.2900  11.2110
    12.8650  14.2994  14.3565  16.5559  19.1410  20.0073  20.2130  20.2158

     occupation numbers 
     1.0000   1.0000   1.0000   1.0000   1.0000   1.0000   1.0000   1.0000
     1.0000   1.0000   1.0000   1.0000   1.0000   1.0000   1.0000  -0.0000
    -0.0000  -0.0000  -0.0000  -0.0000  -0.0000  -0.0000  -0.0000  -0.0000

          k =-0.5774-0.4082 0.0000 (  4720 PWs)   bands (ev):

   -27.6292 -27.6287 -27.6252 -27.6243 -27.6243  -8.2757  -8.2282  -8.2149
    -8.1981  -8.1981  -1.7399   1.1887   4.2259   5.8485   5.8485  11.8954
    13.7786  13.7786  14.9146  18.6030  19.1620  19.5517  20.1470  20.1470

     occupation numbers 
     1.0000   1.0000   1.0000   1.0000   1.0000   1.0000   1.0000   1.0000
     1.0000   1.0000   1.0000   1.0000   1.0000   1.0000   1.0000  -0.0000
    -0.0000  -0.0000  -0.0000  -0.0000  -0.0000  -0.0000  -0.0000  -0.0000

          k =-0.6736-0.4763 0.1667 (  4674 PWs)   bands (ev):

   -27.6291 -27.6287 -27.6251 -27.6244 -27.6244  -8.2655  -8.2241  -8.2200
    -8.2022  -8.2005  -1.8094   0.8570   4.8098   6.1397   6.2428  12.2708
    12.7531  13.1337  13.9003  18.0780  18.6645  19.3980  19.5054  20.6043

     occupation numbers 
     1.0000   1.0000   1.0000   1.0000   1.0000   1.0000   1.0000   1.0000
     1.0000   1.0000   1.0000   1.0000   1.0000   1.0000   1.0000  -0.0000
    -0.0000  -0.0000  -0.0000  -0.0000  -0.0000  -0.0000  -0.0000  -0.0000

          k =-0.7698-0.5443 0.3333 (  4662 PWs)   bands (ev):

   -27.6289 -27.6287 -27.6248 -27.6246 -27.6245  -8.2462  -8.2316  -8.2170
    -8.2079  -8.2037  -1.9152   0.2902   6.2888   6.9407   7.2591  10.6342
    10.9168  11.6538  14.8337  17.4309  18.0178  18.4263  19.3446  21.4001

     occupation numbers 
     1.0000   1.0000   1.0000   1.0000   1.0000   1.0000   1.0000   1.0000
     1.0000   1.0000   1.0000   1.0000   1.0000   1.0000   1.0000  -0.0000
    -0.0000  -0.0000  -0.0000  -0.0000  -0.0000  -0.0000  -0.0000  -0.0000

          k =-0.2887-0.2041-0.5000 (  4664 PWs)   bands (ev):

   -27.6288 -27.6288 -27.6248 -27.6246 -27.6246  -8.2378  -8.2378  -8.2179
    -8.2050  -8.2050  -1.9521   0.0336   7.6585   7.6585   8.4238   9.2350
     9.7921   9.7921  16.8112  17.6686  17.8503  17.8503  19.0086  19.0087

     occupation numbers 
     1.0000   1.0000   1.0000   1.0000   1.0000   1.0000   1.0000   1.0000
     1.0000   1.0000   1.0000   1.0000   1.0000   1.0000   1.0001  -0.0001
    -0.0000  -0.0000  -0.0000  -0.0000  -0.0000  -0.0000  -0.0000  -0.0000

          k =-0.3849-0.2722-0.3333 (  4662 PWs)   bands (ev):

   -27.6289 -27.6287 -27.6248 -27.6246 -27.6245  -8.2462  -8.2316  -8.2170
    -8.2079  -8.2037  -1.9152   0.2902   6.2888   6.9407   7.2591  10.6342
    10.9168  11.6538  14.8337  17.4309  18.0178  18.4263  19.3446  21.4001

     occupation numbers 
     1.0000   1.0000   1.0000   1.0000   1.0000   1.0000   1.0000   1.0000
     1.0000   1.0000   1.0000   1.0000   1.0000   1.0000   1.0000  -0.0000
    -0.0000  -0.0000  -0.0000  -0.0000  -0.0000  -0.0000  -0.0000  -0.0000

          k =-0.4811-0.3402-0.1667 (  4674 PWs)   bands (ev):

   -27.6291 -27.6287 -27.6251 -27.6244 -27.6244  -8.2655  -8.2241  -8.2200
    -8.2022  -8.2005  -1.8094   0.8570   4.8098   6.1397   6.2428  12.2708
    12.7531  13.1337  13.9003  18.0780  18.6645  19.3980  19.5054  20.6040

     occupation numbers 
     1.0000   1.0000   1.0000   1.0000   1.0000   1.0000   1.0000   1.0000
     1.0000   1.0000   1.0000   1.0000   1.0000   1.0000   1.0000  -0.0000
    -0.0000  -0.0000  -0.0000  -0.0000  -0.0000  -0.0000  -0.0000  -0.0000

          k =-0.5774-0.2041 0.0000 (  4674 PWs)   bands (ev):

   -27.6291 -27.6287 -27.6251 -27.6244 -27.6244  -8.2655  -8.2241  -8.2200
    -8.2022  -8.2005  -1.8094   0.8570   4.8098   6.1397   6.2428  12.2708
    12.7531  13.1337  13.9003  18.0780  18.6645  19.3980  19.5054  20.6040

     occupation numbers 
     1.0000   1.0000   1.0000   1.0000   1.0000   1.0000   1.0000   1.0000
     1.0000   1.0000   1.0000   1.0000   1.0000   1.0000   1.0000  -0.0000
    -0.0000  -0.0000  -0.0000  -0.0000  -0.0000  -0.0000  -0.0000  -0.0000

          k =-0.6736-0.2722 0.1667 (  4670 PWs)   bands (ev):

   -27.6291 -27.6287 -27.6250 -27.6245 -27.6243  -8.2651  -8.2225  -8.2211
    -8.2060  -8.1981  -1.6353   0.7181   4.5463   5.3304   7.2900  11.2110
    12.8650  14.2994  14.3565  16.5559  19.1410  20.0073  20.2130  20.2157

     occupation numbers 
     1.0000   1.0000   1.0000   1.0000   1.0000   1.0000   1.0000   1.0000
     1.0000   1.0000   1.0000   1.0000   1.0000   1.0000   1.0000  -0.0000
    -0.0000  -0.0000  -0.0000  -0.0000  -0.0000  -0.0000  -0.0000  -0.0000

          k =-0.7698-0.3402 0.3333 (  4666 PWs)   bands (ev):

   -27.6290 -27.6287 -27.6247 -27.6247 -27.6244  -8.2546  -8.2287  -8.2138
    -8.2118  -8.2010  -1.6914   0.4139   5.3509   5.4524   8.0766   9.9769
    12.9044  13.1860  15.0887  15.3045  18.8574  18.9736  20.3216  20.8322

     occupation numbers 
     1.0000   1.0000   1.0000   1.0000   1.0000   1.0000   1.0000   1.0000
     1.0000   1.0000   1.0000   1.0000   1.0000   1.0000   1.0000  -0.0000
    -0.0000  -0.0000  -0.0000  -0.0000  -0.0000  -0.0000  -0.0000  -0.0000

          k =-0.2887-0.0000-0.5000 (  4662 PWs)   bands (ev):

   -27.6289 -27.6287 -27.6248 -27.6246 -27.6245  -8.2462  -8.2316  -8.2170
    -8.2079  -8.2037  -1.9152   0.2902   6.2888   6.9407   7.2591  10.6342
    10.9168  11.6538  14.8337  17.4309  18.0178  18.4263  19.3446  21.4002

     occupation numbers 
     1.0000   1.0000   1.0000   1.0000   1.0000   1.0000   1.0000   1.0000
     1.0000   1.0000   1.0000   1.0000   1.0000   1.0000   1.0000  -0.0000
    -0.0000  -0.0000  -0.0000  -0.0000  -0.0000  -0.0000  -0.0000  -0.0000

          k =-0.3849-0.0680-0.3333 (  4666 PWs)   bands (ev):

   -27.6289 -27.6288 -27.6248 -27.6247 -27.6246  -8.2400  -8.2349  -8.2156
    -8.2079  -8.2077  -2.0818   0.4747   5.9694   7.5230   7.9444   9.9217
    10.1429  12.3493  15.3339  16.1395  17.2780  18.7199  19.1933  21.8524

     occupation numbers 
     1.0000   1.0000   1.0000   1.0000   1.0000   1.0000   1.0000   1.0000
     1.0000   1.0000   1.0000   1.0000   1.0000   1.0000   1.0000  -0.0000
    -0.0000  -0.0000  -0.0000  -0.0000  -0.0000  -0.0000  -0.0000  -0.0000

          k =-0.4811-0.1361-0.1667 (  4660 PWs)   bands (ev):

   -27.6290 -27.6287 -27.6249 -27.6246 -27.6244  -8.2521  -8.2263  -8.2198
    -8.2067  -8.2041  -2.0318   0.7490   5.6355   6.0255   7.5534  10.6378
    12.1081  12.9043  14.1195  17.3178  17.6197  18.0529  19.4281  21.6949

     occupation numbers 
     1.0000   1.0000   1.0000   1.0000   1.0000   1.0000   1.0000   1.0000
     1.0000   1.0000   1.0000   1.0000   1.0000   1.0000   1.0000  -0.0000
    -0.0000  -0.0000  -0.0000  -0.0000  -0.0000  -0.0000  -0.0000  -0.0000

          k =-0.5774-0.0000 0.0000 (  4662 PWs)   bands (ev):

   -27.6289 -27.6287 -27.6248 -27.6246 -27.6245  -8.2462  -8.2316  -8.2170
    -8.2079  -8.2037  -1.9152   0.2902   6.2888   6.9407   7.2591  10.6342
    10.9168  11.6538  14.8337  17.4309  18.0178  18.4263  19.3446  21.4002

     occupation numbers 
     1.0000   1.0000   1.0000   1.0000   1.0000   1.0000   1.0000   1.0000
     1.0000   1.0000   1.0000   1.0000   1.0000   1.0000   1.0000  -0.0000
    -0.0000  -0.0000  -0.0000  -0.0000  -0.0000  -0.0000  -0.0000  -0.0000

          k =-0.6736-0.0680 0.1667 (  4666 PWs)   bands (ev):

   -27.6290 -27.6287 -27.6247 -27.6247 -27.6244  -8.2546  -8.2287  -8.2138
    -8.2118  -8.2010  -1.6914   0.4139   5.3509   5.4524   8.0766   9.9769
    12.9044  13.1860  15.0887  15.3045  18.8574  18.9736  20.3216  20.8322

     occupation numbers 
     1.0000   1.0000   1.0000   1.0000   1.0000   1.0000   1.0000   1.0000
     1.0000   1.0000   1.0000   1.0000   1.0000   1.0000   1.0000  -0.0000
    -0.0000  -0.0000  -0.0000  -0.0000  -0.0000  -0.0000  -0.0000  -0.0000

          k =-0.7698-0.1361 0.3333 (  4670 PWs)   bands (ev):

   -27.6291 -27.6287 -27.6250 -27.6245 -27.6243  -8.2651  -8.2225  -8.2211
    -8.2060  -8.1981  -1.6353   0.7181   4.5463   5.3304   7.2900  11.2110
    12.8650  14.2994  14.3565  16.5559  19.1410  20.0073  20.2129  20.2156

     occupation numbers 
     1.0000   1.0000   1.0000   1.0000   1.0000   1.0000   1.0000   1.0000
     1.0000   1.0000   1.0000   1.0000   1.0000   1.0000   1.0000  -0.0000
    -0.0000  -0.0000  -0.0000  -0.0000  -0.0000  -0.0000  -0.0000  -0.0000

          k =-0.2887 0.2041-0.5000 (  4674 PWs)   bands (ev):

   -27.6291 -27.6287 -27.6251 -27.6244 -27.6244  -8.2655  -8.2241  -8.2200
    -8.2022  -8.2005  -1.8094   0.8570   4.8098   6.1397   6.2428  12.2708
    12.7531  13.1337  13.9003  18.0780  18.6645  19.3981  19.5054  20.6040

     occupation numbers 
     1.0000   1.0000   1.0000   1.0000   1.0000   1.0000   1.0000   1.0000
     1.0000   1.0000   1.0000   1.0000   1.0000   1.0000   1.0000  -0.0000
    -0.0000  -0.0000  -0.0000  -0.0000  -0.0000  -0.0000  -0.0000  -0.0000

          k =-0.3849 0.1361-0.3333 (  4660 PWs)   bands (ev):

   -27.6290 -27.6287 -27.6249 -27.6246 -27.6244  -8.2521  -8.2263  -8.2198
    -8.2067  -8.2041  -2.0318   0.7490   5.6355   6.0255   7.5534  10.6378
    12.1081  12.9043  14.1195  17.3178  17.6197  18.0529  19.4281  21.6948

     occupation numbers 
     1.0000   1.0000   1.0000   1.0000   1.0000   1.0000   1.0000   1.0000
     1.0000   1.0000   1.0000   1.0000   1.0000   1.0000   1.0000  -0.0000
    -0.0000  -0.0000  -0.0000  -0.0000  -0.0000  -0.0000  -0.0000  -0.0000

          k =-0.4811 0.0680-0.1667 (  4666 PWs)   bands (ev):

   -27.6289 -27.6288 -27.6248 -27.6247 -27.6246  -8.2400  -8.2349  -8.2156
    -8.2079  -8.2077  -2.0818   0.4747   5.9694   7.5230   7.9444   9.9217
    10.1429  12.3493  15.3339  16.1395  17.2780  18.7199  19.1933  21.8524

     occupation numbers 
     1.0000   1.0000   1.0000   1.0000   1.0000   1.0000   1.0000   1.0000
     1.0000   1.0000   1.0000   1.0000   1.0000   1.0000   1.0000  -0.0000
    -0.0000  -0.0000  -0.0000  -0.0000  -0.0000  -0.0000  -0.0000  -0.0000

          k =-0.3849 0.1361 0.0000 (  4693 PWs)   bands (ev):

   -27.6289 -27.6289 -27.6249 -27.6247 -27.6247  -8.2343  -8.2343  -8.2183
    -8.2089  -8.2089  -2.4582   0.8196   7.4978   7.4978   8.0738   9.9336
    10.3482  10.3482  15.1227  16.2091  16.2091  19.2539  20.4366  20.4367

     occupation numbers 
     1.0000   1.0000   1.0000   1.0000   1.0000   1.0000   1.0000   1.0000
     1.0000   1.0000   1.0000   1.0000   1.0000   1.0000   1.0000  -0.0000
    -0.0000  -0.0000  -0.0000  -0.0000  -0.0000  -0.0000  -0.0000  -0.0000

          k =-0.4811 0.0680 0.1667 (  4666 PWs)   bands (ev):

   -27.6289 -27.6288 -27.6248 -27.6247 -27.6246  -8.2400  -8.2349  -8.2156
    -8.2079  -8.2077  -2.0818   0.4747   5.9694   7.5230   7.9444   9.9217
    10.1429  12.3493  15.3339  16.1395  17.2780  18.7199  19.1933  21.8524

     occupation numbers 
     1.0000   1.0000   1.0000   1.0000   1.0000   1.0000   1.0000   1.0000
     1.0000   1.0000   1.0000   1.0000   1.0000   1.0000   1.0000  -0.0000
    -0.0000  -0.0000  -0.0000  -0.0000  -0.0000  -0.0000  -0.0000  -0.0000

          k =-0.5774-0.0000 0.3333 (  4674 PWs)   bands (ev):

   -27.6290 -27.6287 -27.6248 -27.6245 -27.6244  -8.2551  -8.2279  -8.2160
    -8.2076  -8.2033  -1.6920   0.4180   4.8633   6.6748   6.9119  11.3252
    11.4217  13.8372  14.6088  16.5801  16.9648  18.8276  21.7204  21.7753

     occupation numbers 
     1.0000   1.0000   1.0000   1.0000   1.0000   1.0000   1.0000   1.0000
     1.0000   1.0000   1.0000   1.0000   1.0000   1.0000   1.0000  -0.0000
    -0.0000  -0.0000  -0.0000  -0.0000  -0.0000  -0.0000  -0.0000  -0.0000

          k =-0.0962 0.3402-0.5000 (  4674 PWs)   bands (ev):

   -27.6291 -27.6287 -27.6251 -27.6244 -27.6244  -8.2655  -8.2241  -8.2200
    -8.2022  -8.2005  -1.8094   0.8570   4.8098   6.1397   6.2428  12.2708
    12.7531  13.1337  13.9003  18.0780  18.6645  19.3981  19.5054  20.6041

     occupation numbers 
     1.0000   1.0000   1.0000   1.0000   1.0000   1.0000   1.0000   1.0000
     1.0000   1.0000   1.0000   1.0000   1.0000   1.0000   1.0000  -0.0000
    -0.0000  -0.0000  -0.0000  -0.0000  -0.0000  -0.0000  -0.0000  -0.0000

          k =-0.1925 0.2722-0.3333 (  4672 PWs)   bands (ev):

   -27.6290 -27.6287 -27.6251 -27.6245 -27.6245  -8.2599  -8.2262  -8.2173
    -8.2039  -8.2039  -2.2383   1.3054   5.7410   6.1413   6.1413  12.2347
    12.5949  13.2705  13.2705  17.4440  17.6542  18.4480  18.4480  21.1065

     occupation numbers 
     1.0000   1.0000   1.0000   1.0000   1.0000   1.0000   1.0000   1.0000
     1.0000   1.0000   1.0000   1.0000   1.0000   1.0000   1.0000  -0.0000
    -0.0000  -0.0000  -0.0000  -0.0000  -0.0000  -0.0000  -0.0000  -0.0000

          k =-0.2887 0.2041-0.1667 (  4670 PWs)   bands (ev):

   -27.6289 -27.6288 -27.6250 -27.6247 -27.6246  -8.2434  -8.2250  -8.2214
    -8.2101  -8.2075  -2.5174   1.2198   6.6689   6.7273   7.3492  10.6417
    11.8690  11.9957  13.4303  16.6943  17.0010  18.0735  18.4221  20.3617

     occupation numbers 
     1.0000   1.0000   1.0000   1.0000   1.0000   1.0000   1.0000   1.0000
     1.0000   1.0000   1.0000   1.0000   1.0000   1.0000   1.0000  -0.0000
    -0.0000  -0.0000  -0.0000  -0.0000  -0.0000  -0.0000  -0.0000  -0.0000

          k =-0.3849 0.3402 0.0000 (  4666 PWs)   bands (ev):

   -27.6289 -27.6288 -27.6248 -27.6247 -27.6246  -8.2400  -8.2349  -8.2156
    -8.2079  -8.2077  -2.0818   0.4747   5.9694   7.5230   7.9444   9.9217
    10.1429  12.3493  15.3339  16.1395  17.2780  18.7199  19.1933  21.8528

     occupation numbers 
     1.0000   1.0000   1.0000   1.0000   1.0000   1.0000   1.0000   1.0000
     1.0000   1.0000   1.0000   1.0000   1.0000   1.0000   1.0000  -0.0000
    -0.0000  -0.0000  -0.0000  -0.0000  -0.0000  -0.0000  -0.0000  -0.0000

          k =-0.4811 0.2722 0.1667 (  4662 PWs)   bands (ev):

   -27.6289 -27.6287 -27.6248 -27.6246 -27.6245  -8.2462  -8.2316  -8.2170
    -8.2079  -8.2037  -1.9152   0.2902   6.2888   6.9407   7.2591  10.6342
    10.9168  11.6538  14.8337  17.4309  18.0178  18.4263  19.3446  21.7102

     occupation numbers 
     1.0000   1.0000   1.0000   1.0000   1.0000   1.0000   1.0000   1.0000
     1.0000   1.0000   1.0000   1.0000   1.0000   1.0000   1.0000  -0.0000
    -0.0000  -0.0000  -0.0000  -0.0000  -0.0000  -0.0000  -0.0000  -0.0000

          k =-0.5774 0.2041 0.3333 (  4666 PWs)   bands (ev):

   -27.6290 -27.6287 -27.6247 -27.6247 -27.6244  -8.2546  -8.2287  -8.2138
    -8.2118  -8.2010  -1.6914   0.4139   5.3509   5.4524   8.0766   9.9769
    12.9044  13.1860  15.0887  15.3045  18.8574  18.9736  20.3216  20.8322

     occupation numbers 
     1.0000   1.0000   1.0000   1.0000   1.0000   1.0000   1.0000   1.0000
     1.0000   1.0000   1.0000   1.0000   1.0000   1.0000   1.0000  -0.0000
    -0.0000  -0.0000  -0.0000  -0.0000  -0.0000  -0.0000  -0.0000  -0.0000

          k =-0.0962 0.5443-0.5000 (  4670 PWs)   bands (ev):

   -27.6291 -27.6287 -27.6250 -27.6245 -27.6243  -8.2651  -8.2225  -8.2211
    -8.2060  -8.1981  -1.6353   0.7181   4.5463   5.3304   7.2900  11.2110
    12.8650  14.2994  14.3565  16.5559  19.1410  20.0073  20.2130  20.2156

     occupation numbers 
     1.0000   1.0000   1.0000   1.0000   1.0000   1.0000   1.0000   1.0000
     1.0000   1.0000   1.0000   1.0000   1.0000   1.0000   1.0000  -0.0000
    -0.0000  -0.0000  -0.0000  -0.0000  -0.0000  -0.0000  -0.0000  -0.0000

          k =-0.1925 0.4763-0.3333 (  4674 PWs)   bands (ev):

   -27.6291 -27.6287 -27.6251 -27.6244 -27.6244  -8.2655  -8.2241  -8.2200
    -8.2022  -8.2005  -1.8094   0.8570   4.8098   6.1397   6.2428  12.2708
    12.7531  13.1337  13.9003  18.0780  18.6645  19.3980  19.5054  20.6046

     occupation numbers 
     1.0000   1.0000   1.0000   1.0000   1.0000   1.0000   1.0000   1.0000
     1.0000   1.0000   1.0000   1.0000   1.0000   1.0000   1.0000  -0.0000
    -0.0000  -0.0000  -0.0000  -0.0000  -0.0000  -0.0000  -0.0000  -0.0000

          k =-0.2887 0.4082-0.1667 (  4660 PWs)   bands (ev):

   -27.6290 -27.6287 -27.6249 -27.6246 -27.6244  -8.2521  -8.2263  -8.2198
    -8.2067  -8.2041  -2.0318   0.7490   5.6355   6.0255   7.5534  10.6378
    12.1081  12.9043  14.1195  17.3178  17.6197  18.0529  19.4281  21.6948

     occupation numbers 
     1.0000   1.0000   1.0000   1.0000   1.0000   1.0000   1.0000   1.0000
     1.0000   1.0000   1.0000   1.0000   1.0000   1.0000   1.0000  -0.0000
    -0.0000  -0.0000  -0.0000  -0.0000  -0.0000  -0.0000  -0.0000  -0.0000

          k =-0.3849 0.5443 0.0000 (  4674 PWs)   bands (ev):

   -27.6290 -27.6287 -27.6248 -27.6245 -27.6244  -8.2551  -8.2279  -8.2160
    -8.2076  -8.2033  -1.6920   0.4180   4.8633   6.6748   6.9119  11.3252
    11.4217  13.8372  14.6088  16.5801  16.9648  18.8276  21.7205  21.7753

     occupation numbers 
     1.0000   1.0000   1.0000   1.0000   1.0000   1.0000   1.0000   1.0000
     1.0000   1.0000   1.0000   1.0000   1.0000   1.0000   1.0000  -0.0000
    -0.0000  -0.0000  -0.0000  -0.0000  -0.0000  -0.0000  -0.0000  -0.0000

          k =-0.4811 0.4763 0.1667 (  4666 PWs)   bands (ev):

   -27.6290 -27.6287 -27.6247 -27.6247 -27.6244  -8.2546  -8.2287  -8.2138
    -8.2118  -8.2010  -1.6914   0.4139   5.3509   5.4524   8.0766   9.9769
    12.9044  13.1860  15.0887  15.3045  18.8574  18.9736  20.3216  20.8322

     occupation numbers 
     1.0000   1.0000   1.0000   1.0000   1.0000   1.0000   1.0000   1.0000
     1.0000   1.0000   1.0000   1.0000   1.0000   1.0000   1.0000  -0.0000
    -0.0000  -0.0000  -0.0000  -0.0000  -0.0000  -0.0000  -0.0000  -0.0000

          k =-0.5774 0.4082 0.3333 (  4674 PWs)   bands (ev):

   -27.6290 -27.6287 -27.6248 -27.6245 -27.6244  -8.2551  -8.2279  -8.2160
    -8.2076  -8.2033  -1.6920   0.4180   4.8633   6.6748   6.9119  11.3252
    11.4217  13.8372  14.6088  16.5801  16.9648  18.8276  21.7204  21.7753

     occupation numbers 
     1.0000   1.0000   1.0000   1.0000   1.0000   1.0000   1.0000   1.0000
     1.0000   1.0000   1.0000   1.0000   1.0000   1.0000   1.0000  -0.0000
    -0.0000  -0.0000  -0.0000  -0.0000  -0.0000  -0.0000  -0.0000  -0.0000

          k =-0.0962 0.7485-0.5000 (  4666 PWs)   bands (ev):

   -27.6290 -27.6287 -27.6247 -27.6247 -27.6244  -8.2546  -8.2287  -8.2138
    -8.2118  -8.2010  -1.6914   0.4139   5.3509   5.4524   8.0766   9.9769
    12.9044  13.1860  15.0887  15.3045  18.8574  18.9736  20.3216  20.8322

     occupation numbers 
     1.0000   1.0000   1.0000   1.0000   1.0000   1.0000   1.0000   1.0000
     1.0000   1.0000   1.0000   1.0000   1.0000   1.0000   1.0000  -0.0000
    -0.0000  -0.0000  -0.0000  -0.0000  -0.0000  -0.0000  -0.0000  -0.0000

          k =-0.1925 0.6804-0.3333 (  4674 PWs)   bands (ev):

   -27.6290 -27.6287 -27.6248 -27.6245 -27.6244  -8.2551  -8.2279  -8.2160
    -8.2076  -8.2033  -1.6920   0.4180   4.8633   6.6748   6.9119  11.3252
    11.4217  13.8372  14.6088  16.5801  16.9648  18.8276  21.7203  21.7753

     occupation numbers 
     1.0000   1.0000   1.0000   1.0000   1.0000   1.0000   1.0000   1.0000
     1.0000   1.0000   1.0000   1.0000   1.0000   1.0000   1.0000  -0.0000
    -0.0000  -0.0000  -0.0000  -0.0000  -0.0000  -0.0000  -0.0000  -0.0000

          k =-0.2887 0.6124-0.1667 (  4666 PWs)   bands (ev):

   -27.6290 -27.6287 -27.6247 -27.6247 -27.6244  -8.2546  -8.2287  -8.2138
    -8.2118  -8.2010  -1.6914   0.4139   5.3509   5.4524   8.0766   9.9769
    12.9044  13.1860  15.0887  15.3045  18.8574  18.9736  20.3216  20.8322

     occupation numbers 
     1.0000   1.0000   1.0000   1.0000   1.0000   1.0000   1.0000   1.0000
     1.0000   1.0000   1.0000   1.0000   1.0000   1.0000   1.0000  -0.0000
    -0.0000  -0.0000  -0.0000  -0.0000  -0.0000  -0.0000  -0.0000  -0.0000

          k =-0.3849-0.4763 0.0000 (  4674 PWs)   bands (ev):

   -27.6291 -27.6287 -27.6251 -27.6244 -27.6244  -8.2655  -8.2241  -8.2200
    -8.2022  -8.2005  -1.8094   0.8570   4.8098   6.1397   6.2428  12.2708
    12.7531  13.1337  13.9003  18.0780  18.6645  19.3980  19.5054  20.6040

     occupation numbers 
     1.0000   1.0000   1.0000   1.0000   1.0000   1.0000   1.0000   1.0000
     1.0000   1.0000   1.0000   1.0000   1.0000   1.0000   1.0000  -0.0000
    -0.0000  -0.0000  -0.0000  -0.0000  -0.0000  -0.0000  -0.0000  -0.0000

          k =-0.4811-0.5443 0.1667 (  4670 PWs)   bands (ev):

   -27.6291 -27.6287 -27.6250 -27.6245 -27.6243  -8.2651  -8.2225  -8.2211
    -8.2060  -8.1981  -1.6353   0.7181   4.5463   5.3304   7.2900  11.2110
    12.8650  14.2994  14.3565  16.5559  19.1410  20.0073  20.2129  20.2156

     occupation numbers 
     1.0000   1.0000   1.0000   1.0000   1.0000   1.0000   1.0000   1.0000
     1.0000   1.0000   1.0000   1.0000   1.0000   1.0000   1.0000  -0.0000
    -0.0000  -0.0000  -0.0000  -0.0000  -0.0000  -0.0000  -0.0000  -0.0000

          k =-0.5774-0.6124 0.3333 (  4666 PWs)   bands (ev):

   -27.6290 -27.6287 -27.6247 -27.6247 -27.6244  -8.2546  -8.2287  -8.2138
    -8.2118  -8.2010  -1.6914   0.4139   5.3509   5.4524   8.0766   9.9769
    12.9044  13.1860  15.0887  15.3045  18.8573  18.9736  20.3216  20.8322

     occupation numbers 
     1.0000   1.0000   1.0000   1.0000   1.0000   1.0000   1.0000   1.0000
     1.0000   1.0000   1.0000   1.0000   1.0000   1.0000   1.0000  -0.0000
    -0.0000  -0.0000  -0.0000  -0.0000  -0.0000  -0.0000  -0.0000  -0.0000

          k =-0.0962-0.2722-0.5000 (  4662 PWs)   bands (ev):

   -27.6289 -27.6287 -27.6248 -27.6246 -27.6245  -8.2462  -8.2316  -8.2170
    -8.2079  -8.2037  -1.9152   0.2902   6.2888   6.9407   7.2591  10.6342
    10.9168  11.6538  14.8337  17.4309  18.0178  18.4263  19.3446  21.4001

     occupation numbers 
     1.0000   1.0000   1.0000   1.0000   1.0000   1.0000   1.0000   1.0000
     1.0000   1.0000   1.0000   1.0000   1.0000   1.0000   1.0000  -0.0000
    -0.0000  -0.0000  -0.0000  -0.0000  -0.0000  -0.0000  -0.0000  -0.0000

          k =-0.1925-0.3402-0.3333 (  4666 PWs)   bands (ev):

   -27.6289 -27.6288 -27.6248 -27.6247 -27.6246  -8.2400  -8.2349  -8.2156
    -8.2079  -8.2077  -2.0818   0.4747   5.9694   7.5230   7.9444   9.9217
    10.1429  12.3493  15.3339  16.1395  17.2780  18.7199  19.1933  21.8528

     occupation numbers 
     1.0000   1.0000   1.0000   1.0000   1.0000   1.0000   1.0000   1.0000
     1.0000   1.0000   1.0000   1.0000   1.0000   1.0000   1.0000  -0.0000
    -0.0000  -0.0000  -0.0000  -0.0000  -0.0000  -0.0000  -0.0000  -0.0000

          k =-0.2887-0.4082-0.1667 (  4660 PWs)   bands (ev):

   -27.6290 -27.6287 -27.6249 -27.6246 -27.6244  -8.2521  -8.2263  -8.2198
    -8.2067  -8.2041  -2.0318   0.7490   5.6355   6.0255   7.5534  10.6378
    12.1081  12.9043  14.1195  17.3178  17.6197  18.0529  19.4281  21.6949

     occupation numbers 
     1.0000   1.0000   1.0000   1.0000   1.0000   1.0000   1.0000   1.0000
     1.0000   1.0000   1.0000   1.0000   1.0000   1.0000   1.0000  -0.0000
    -0.0000  -0.0000  -0.0000  -0.0000  -0.0000  -0.0000  -0.0000  -0.0000

          k =-0.3849-0.2722 0.0000 (  4672 PWs)   bands (ev):

   -27.6290 -27.6287 -27.6251 -27.6245 -27.6245  -8.2599  -8.2262  -8.2173
    -8.2039  -8.2039  -2.2383   1.3054   5.7410   6.1413   6.1413  12.2347
    12.5949  13.2705  13.2705  17.4440  17.6542  18.4480  18.4480  21.1063

     occupation numbers 
     1.0000   1.0000   1.0000   1.0000   1.0000   1.0000   1.0000   1.0000
     1.0000   1.0000   1.0000   1.0000   1.0000   1.0000   1.0000  -0.0000
    -0.0000  -0.0000  -0.0000  -0.0000  -0.0000  -0.0000  -0.0000  -0.0000

          k =-0.4811-0.3402 0.1667 (  4674 PWs)   bands (ev):

   -27.6291 -27.6287 -27.6251 -27.6244 -27.6244  -8.2655  -8.2241  -8.2200
    -8.2022  -8.2005  -1.8094   0.8570   4.8098   6.1397   6.2428  12.2708
    12.7531  13.1337  13.9003  18.0780  18.6645  19.3980  19.5054  20.6040

     occupation numbers 
     1.0000   1.0000   1.0000   1.0000   1.0000   1.0000   1.0000   1.0000
     1.0000   1.0000   1.0000   1.0000   1.0000   1.0000   1.0000  -0.0000
    -0.0000  -0.0000  -0.0000  -0.0000  -0.0000  -0.0000  -0.0000  -0.0000

          k =-0.5774-0.4082 0.3333 (  4674 PWs)   bands (ev):

   -27.6290 -27.6287 -27.6248 -27.6245 -27.6244  -8.2551  -8.2279  -8.2160
    -8.2076  -8.2033  -1.6920   0.4180   4.8633   6.6748   6.9119  11.3252
    11.4217  13.8372  14.6088  16.5801  16.9648  18.8276  21.7203  21.7753

     occupation numbers 
     1.0000   1.0000   1.0000   1.0000   1.0000   1.0000   1.0000   1.0000
     1.0000   1.0000   1.0000   1.0000   1.0000   1.0000   1.0000  -0.0000
    -0.0000  -0.0000  -0.0000  -0.0000  -0.0000  -0.0000  -0.0000  -0.0000

          k =-0.0962-0.0680-0.5000 (  4666 PWs)   bands (ev):

   -27.6289 -27.6288 -27.6248 -27.6247 -27.6246  -8.2400  -8.2349  -8.2156
    -8.2079  -8.2077  -2.0818   0.4747   5.9694   7.5230   7.9444   9.9217
    10.1429  12.3493  15.3339  16.1395  17.2780  18.7199  19.1933  21.8531

     occupation numbers 
     1.0000   1.0000   1.0000   1.0000   1.0000   1.0000   1.0000   1.0000
     1.0000   1.0000   1.0000   1.0000   1.0000   1.0000   1.0000  -0.0000
    -0.0000  -0.0000  -0.0000  -0.0000  -0.0000  -0.0000  -0.0000  -0.0000

          k =-0.1925-0.1361-0.3333 (  4693 PWs)   bands (ev):

   -27.6289 -27.6289 -27.6249 -27.6247 -27.6247  -8.2343  -8.2343  -8.2183
    -8.2089  -8.2089  -2.4582   0.8196   7.4978   7.4978   8.0738   9.9336
    10.3482  10.3482  15.1227  16.2091  16.2091  19.2539  20.4367  20.4370

     occupation numbers 
     1.0000   1.0000   1.0000   1.0000   1.0000   1.0000   1.0000   1.0000
     1.0000   1.0000   1.0000   1.0000   1.0000   1.0000   1.0000  -0.0000
    -0.0000  -0.0000  -0.0000  -0.0000  -0.0000  -0.0000  -0.0000  -0.0000

          k =-0.2887-0.2041-0.1667 (  4670 PWs)   bands (ev):

   -27.6289 -27.6288 -27.6250 -27.6247 -27.6246  -8.2434  -8.2250  -8.2214
    -8.2101  -8.2075  -2.5174   1.2198   6.6689   6.7273   7.3492  10.6417
    11.8690  11.9957  13.4303  16.6943  17.0010  18.0735  18.4221  20.3617

     occupation numbers 
     1.0000   1.0000   1.0000   1.0000   1.0000   1.0000   1.0000   1.0000
     1.0000   1.0000   1.0000   1.0000   1.0000   1.0000   1.0000  -0.0000
    -0.0000  -0.0000  -0.0000  -0.0000  -0.0000  -0.0000  -0.0000  -0.0000

          k =-0.3849-0.0680 0.0000 (  4670 PWs)   bands (ev):

   -27.6289 -27.6288 -27.6250 -27.6247 -27.6246  -8.2434  -8.2250  -8.2214
    -8.2101  -8.2075  -2.5174   1.2198   6.6689   6.7273   7.3492  10.6417
    11.8690  11.9957  13.4303  16.6943  17.0010  18.0735  18.4221  20.3617

     occupation numbers 
     1.0000   1.0000   1.0000   1.0000   1.0000   1.0000   1.0000   1.0000
     1.0000   1.0000   1.0000   1.0000   1.0000   1.0000   1.0000  -0.0000
    -0.0000  -0.0000  -0.0000  -0.0000  -0.0000  -0.0000  -0.0000  -0.0000

          k =-0.4811-0.1361 0.1667 (  4660 PWs)   bands (ev):

   -27.6290 -27.6287 -27.6249 -27.6246 -27.6244  -8.2521  -8.2263  -8.2198
    -8.2067  -8.2041  -2.0318   0.7490   5.6355   6.0255   7.5534  10.6378
    12.1081  12.9043  14.1195  17.3178  17.6197  18.0529  19.4281  21.6949

     occupation numbers 
     1.0000   1.0000   1.0000   1.0000   1.0000   1.0000   1.0000   1.0000
     1.0000   1.0000   1.0000   1.0000   1.0000   1.0000   1.0000  -0.0000
    -0.0000  -0.0000  -0.0000  -0.0000  -0.0000  -0.0000  -0.0000  -0.0000

          k =-0.5774-0.2041 0.3333 (  4666 PWs)   bands (ev):

   -27.6290 -27.6287 -27.6247 -27.6247 -27.6244  -8.2546  -8.2287  -8.2138
    -8.2118  -8.2010  -1.6914   0.4139   5.3509   5.4524   8.0766   9.9769
    12.9044  13.1860  15.0887  15.3045  18.8574  18.9736  20.3216  20.8322

     occupation numbers 
     1.0000   1.0000   1.0000   1.0000   1.0000   1.0000   1.0000   1.0000
     1.0000   1.0000   1.0000   1.0000   1.0000   1.0000   1.0000  -0.0000
    -0.0000  -0.0000  -0.0000  -0.0000  -0.0000  -0.0000  -0.0000  -0.0000

          k =-0.0962 0.1361-0.5000 (  4660 PWs)   bands (ev):

   -27.6290 -27.6287 -27.6249 -27.6246 -27.6244  -8.2521  -8.2263  -8.2198
    -8.2067  -8.2041  -2.0318   0.7490   5.6355   6.0255   7.5534  10.6378
    12.1081  12.9043  14.1195  17.3178  17.6197  18.0529  19.4281  21.6949

     occupation numbers 
     1.0000   1.0000   1.0000   1.0000   1.0000   1.0000   1.0000   1.0000
     1.0000   1.0000   1.0000   1.0000   1.0000   1.0000   1.0000  -0.0000
    -0.0000  -0.0000  -0.0000  -0.0000  -0.0000  -0.0000  -0.0000  -0.0000

          k =-0.1925 0.0680-0.3333 (  4670 PWs)   bands (ev):

   -27.6289 -27.6288 -27.6250 -27.6247 -27.6246  -8.2434  -8.2250  -8.2214
    -8.2101  -8.2075  -2.5174   1.2198   6.6689   6.7273   7.3492  10.6417
    11.8690  11.9957  13.4303  16.6943  17.0010  18.0735  18.4221  20.3617

     occupation numbers 
     1.0000   1.0000   1.0000   1.0000   1.0000   1.0000   1.0000   1.0000
     1.0000   1.0000   1.0000   1.0000   1.0000   1.0000   1.0000  -0.0000
    -0.0000  -0.0000  -0.0000  -0.0000  -0.0000  -0.0000  -0.0000  -0.0000

          k =-0.2887-0.0000-0.1667 (  4689 PWs)   bands (ev):

   -27.6289 -27.6289 -27.6249 -27.6248 -27.6247  -8.2326  -8.2306  -8.2185
    -8.2143  -8.2105  -2.7107   1.4116   6.3636   7.7559   8.2499   9.9911
    10.3132  12.5844  14.4398  14.9907  16.6810  16.9464  19.5757  19.5801

     occupation numbers 
     1.0000   1.0000   1.0000   1.0000   1.0000   1.0000   1.0000   1.0000
     1.0000   1.0000   1.0000   1.0000   1.0000   1.0000   1.0000  -0.0000
    -0.0000  -0.0000  -0.0000  -0.0000  -0.0000  -0.0000  -0.0000  -0.0000

          k =-0.1925 0.0680 0.0000 (  4699 PWs)   bands (ev):

   -27.6289 -27.6289 -27.6250 -27.6249 -27.6249  -8.2274  -8.2274  -8.2194
    -8.2166  -8.2166  -3.0631   2.0884   7.2982   7.2982   7.5566  11.3398
    11.5891  11.5891  14.2212  14.8442  14.8442  17.3690  17.8153  17.8419

     occupation numbers 
     1.0000   1.0000   1.0000   1.0000   1.0000   1.0000   1.0000   1.0000
     1.0000   1.0000   1.0000   1.0000   1.0000   1.0000   1.0000  -0.0000
    -0.0000  -0.0000  -0.0000  -0.0000  -0.0000  -0.0000  -0.0000  -0.0000

          k =-0.2887-0.0000 0.1667 (  4689 PWs)   bands (ev):

   -27.6289 -27.6289 -27.6249 -27.6248 -27.6247  -8.2326  -8.2306  -8.2185
    -8.2143  -8.2105  -2.7107   1.4116   6.3636   7.7559   8.2499   9.9911
    10.3132  12.5844  14.4398  14.9907  16.6810  16.9464  19.5757  19.5801

     occupation numbers 
     1.0000   1.0000   1.0000   1.0000   1.0000   1.0000   1.0000   1.0000
     1.0000   1.0000   1.0000   1.0000   1.0000   1.0000   1.0000  -0.0000
    -0.0000  -0.0000  -0.0000  -0.0000  -0.0000  -0.0000  -0.0000  -0.0000

          k =-0.3849-0.0680 0.3333 (  4666 PWs)   bands (ev):

   -27.6289 -27.6288 -27.6248 -27.6247 -27.6246  -8.2400  -8.2349  -8.2156
    -8.2079  -8.2077  -2.0818   0.4747   5.9694   7.5230   7.9444   9.9217
    10.1429  12.3493  15.3339  16.1395  17.2780  18.7199  19.1933  21.8524

     occupation numbers 
     1.0000   1.0000   1.0000   1.0000   1.0000   1.0000   1.0000   1.0000
     1.0000   1.0000   1.0000   1.0000   1.0000   1.0000   1.0000  -0.0000
    -0.0000  -0.0000  -0.0000  -0.0000  -0.0000  -0.0000  -0.0000  -0.0000

          k = 0.0962 0.2722-0.5000 (  4662 PWs)   bands (ev):

   -27.6289 -27.6287 -27.6248 -27.6246 -27.6245  -8.2462  -8.2316  -8.2170
    -8.2079  -8.2037  -1.9152   0.2902   6.2888   6.9407   7.2591  10.6342
    10.9168  11.6538  14.8337  17.4309  18.0178  18.4263  19.3446  21.7101

     occupation numbers 
     1.0000   1.0000   1.0000   1.0000   1.0000   1.0000   1.0000   1.0000
     1.0000   1.0000   1.0000   1.0000   1.0000   1.0000   1.0000  -0.0000
    -0.0000  -0.0000  -0.0000  -0.0000  -0.0000  -0.0000  -0.0000  -0.0000

          k = 0.0000 0.2041-0.3333 (  4670 PWs)   bands (ev):

   -27.6289 -27.6288 -27.6250 -27.6247 -27.6246  -8.2434  -8.2250  -8.2214
    -8.2101  -8.2075  -2.5174   1.2198   6.6689   6.7273   7.3492  10.6417
    11.8690  11.9957  13.4303  16.6943  17.0010  18.0735  18.4221  20.3618

     occupation numbers 
     1.0000   1.0000   1.0000   1.0000   1.0000   1.0000   1.0000   1.0000
     1.0000   1.0000   1.0000   1.0000   1.0000   1.0000   1.0000  -0.0000
    -0.0000  -0.0000  -0.0000  -0.0000  -0.0000  -0.0000  -0.0000  -0.0000

          k =-0.0962 0.1361-0.1667 (  4681 PWs)   bands (ev):

   -27.6289 -27.6288 -27.6250 -27.6248 -27.6248  -8.2341  -8.2221  -8.2220
    -8.2148  -8.2148  -2.9903   2.0469   6.8221   6.8221   8.1473  10.2230
    12.6008  12.6008  13.2298  15.6520  15.6520  16.4012  16.7766  17.8928

     occupation numbers 
     1.0000   1.0000   1.0000   1.0000   1.0000   1.0000   1.0000   1.0000
     1.0000   1.0000   1.0000   1.0000   1.0000   1.0000   1.0000  -0.0000
    -0.0000  -0.0000  -0.0000  -0.0000  -0.0000  -0.0000  -0.0000  -0.0000

          k =-0.1925 0.2722 0.0000 (  4689 PWs)   bands (ev):

   -27.6289 -27.6289 -27.6249 -27.6248 -27.6247  -8.2326  -8.2306  -8.2185
    -8.2143  -8.2105  -2.7107   1.4116   6.3636   7.7559   8.2499   9.9911
    10.3132  12.5844  14.4398  14.9907  16.6810  16.9464  19.5757  19.5801

     occupation numbers 
     1.0000   1.0000   1.0000   1.0000   1.0000   1.0000   1.0000   1.0000
     1.0000   1.0000   1.0000   1.0000   1.0000   1.0000   1.0000  -0.0000
    -0.0000  -0.0000  -0.0000  -0.0000  -0.0000  -0.0000  -0.0000  -0.0000

          k =-0.2887 0.2041 0.1667 (  4670 PWs)   bands (ev):

   -27.6289 -27.6288 -27.6250 -27.6247 -27.6246  -8.2434  -8.2250  -8.2214
    -8.2101  -8.2075  -2.5174   1.2198   6.6689   6.7273   7.3492  10.6417
    11.8690  11.9957  13.4303  16.6943  17.0010  18.0735  18.4221  20.3619

     occupation numbers 
     1.0000   1.0000   1.0000   1.0000   1.0000   1.0000   1.0000   1.0000
     1.0000   1.0000   1.0000   1.0000   1.0000   1.0000   1.0000  -0.0000
    -0.0000  -0.0000  -0.0000  -0.0000  -0.0000  -0.0000  -0.0000  -0.0000

          k =-0.3849 0.1361 0.3333 (  4660 PWs)   bands (ev):

   -27.6290 -27.6287 -27.6249 -27.6246 -27.6244  -8.2521  -8.2263  -8.2198
    -8.2067  -8.2041  -2.0318   0.7490   5.6355   6.0255   7.5534  10.6378
    12.1081  12.9043  14.1195  17.3178  17.6197  18.0529  19.4281  21.6949

     occupation numbers 
     1.0000   1.0000   1.0000   1.0000   1.0000   1.0000   1.0000   1.0000
     1.0000   1.0000   1.0000   1.0000   1.0000   1.0000   1.0000  -0.0000
    -0.0000  -0.0000  -0.0000  -0.0000  -0.0000  -0.0000  -0.0000  -0.0000

          k = 0.0962 0.4763-0.5000 (  4666 PWs)   bands (ev):

   -27.6290 -27.6287 -27.6247 -27.6247 -27.6244  -8.2546  -8.2287  -8.2138
    -8.2118  -8.2010  -1.6914   0.4139   5.3509   5.4524   8.0766   9.9769
    12.9044  13.1860  15.0887  15.3045  18.8574  18.9736  20.3216  20.8322

     occupation numbers 
     1.0000   1.0000   1.0000   1.0000   1.0000   1.0000   1.0000   1.0000
     1.0000   1.0000   1.0000   1.0000   1.0000   1.0000   1.0000  -0.0000
    -0.0000  -0.0000  -0.0000  -0.0000  -0.0000  -0.0000  -0.0000  -0.0000

          k = 0.0000 0.4082-0.3333 (  4660 PWs)   bands (ev):

   -27.6290 -27.6287 -27.6249 -27.6246 -27.6244  -8.2521  -8.2263  -8.2198
    -8.2067  -8.2041  -2.0318   0.7490   5.6355   6.0255   7.5534  10.6378
    12.1081  12.9043  14.1195  17.3178  17.6197  18.0529  19.4281  21.6949

     occupation numbers 
     1.0000   1.0000   1.0000   1.0000   1.0000   1.0000   1.0000   1.0000
     1.0000   1.0000   1.0000   1.0000   1.0000   1.0000   1.0000  -0.0000
    -0.0000  -0.0000  -0.0000  -0.0000  -0.0000  -0.0000  -0.0000  -0.0000

          k =-0.0962 0.3402-0.1667 (  4670 PWs)   bands (ev):

   -27.6289 -27.6288 -27.6250 -27.6247 -27.6246  -8.2434  -8.2250  -8.2214
    -8.2101  -8.2075  -2.5174   1.2198   6.6689   6.7273   7.3492  10.6417
    11.8690  11.9957  13.4303  16.6943  17.0010  18.0735  18.4221  20.3619

     occupation numbers 
     1.0000   1.0000   1.0000   1.0000   1.0000   1.0000   1.0000   1.0000
     1.0000   1.0000   1.0000   1.0000   1.0000   1.0000   1.0000  -0.0000
    -0.0000  -0.0000  -0.0000  -0.0000  -0.0000  -0.0000  -0.0000  -0.0000

          k =-0.1925 0.4763 0.0000 (  4666 PWs)   bands (ev):

   -27.6289 -27.6288 -27.6248 -27.6247 -27.6246  -8.2400  -8.2349  -8.2156
    -8.2079  -8.2077  -2.0818   0.4747   5.9694   7.5230   7.9444   9.9217
    10.1429  12.3493  15.3339  16.1395  17.2780  18.7199  19.1933  21.8605

     occupation numbers 
     1.0000   1.0000   1.0000   1.0000   1.0000   1.0000   1.0000   1.0000
     1.0000   1.0000   1.0000   1.0000   1.0000   1.0000   1.0000  -0.0000
    -0.0000  -0.0000  -0.0000  -0.0000  -0.0000  -0.0000  -0.0000  -0.0000

          k =-0.2887 0.4082 0.1667 (  4660 PWs)   bands (ev):

   -27.6290 -27.6287 -27.6249 -27.6246 -27.6244  -8.2521  -8.2263  -8.2198
    -8.2067  -8.2041  -2.0318   0.7490   5.6355   6.0255   7.5534  10.6378
    12.1081  12.9043  14.1195  17.3178  17.6197  18.0529  19.4281  21.6949

     occupation numbers 
     1.0000   1.0000   1.0000   1.0000   1.0000   1.0000   1.0000   1.0000
     1.0000   1.0000   1.0000   1.0000   1.0000   1.0000   1.0000  -0.0000
    -0.0000  -0.0000  -0.0000  -0.0000  -0.0000  -0.0000  -0.0000  -0.0000

          k =-0.3849 0.3402 0.3333 (  4674 PWs)   bands (ev):

   -27.6291 -27.6287 -27.6251 -27.6244 -27.6244  -8.2655  -8.2241  -8.2200
    -8.2022  -8.2005  -1.8094   0.8570   4.8098   6.1397   6.2428  12.2708
    12.7531  13.1337  13.9003  18.0780  18.6645  19.3981  19.5054  20.6042

     occupation numbers 
     1.0000   1.0000   1.0000   1.0000   1.0000   1.0000   1.0000   1.0000
     1.0000   1.0000   1.0000   1.0000   1.0000   1.0000   1.0000  -0.0000
    -0.0000  -0.0000  -0.0000  -0.0000  -0.0000  -0.0000  -0.0000  -0.0000

          k = 0.0962 0.6804-0.5000 (  4670 PWs)   bands (ev):

   -27.6291 -27.6287 -27.6250 -27.6245 -27.6243  -8.2651  -8.2225  -8.2211
    -8.2060  -8.1981  -1.6353   0.7181   4.5463   5.3304   7.2900  11.2110
    12.8650  14.2994  14.3565  16.5559  19.1410  20.0073  20.2129  20.2156

     occupation numbers 
     1.0000   1.0000   1.0000   1.0000   1.0000   1.0000   1.0000   1.0000
     1.0000   1.0000   1.0000   1.0000   1.0000   1.0000   1.0000  -0.0000
    -0.0000  -0.0000  -0.0000  -0.0000  -0.0000  -0.0000  -0.0000  -0.0000

          k = 0.0000 0.6124-0.3333 (  4666 PWs)   bands (ev):

   -27.6290 -27.6287 -27.6247 -27.6247 -27.6244  -8.2546  -8.2287  -8.2138
    -8.2118  -8.2010  -1.6914   0.4139   5.3509   5.4524   8.0766   9.9769
    12.9044  13.1860  15.0887  15.3045  18.8573  18.9736  20.3216  20.8322

     occupation numbers 
     1.0000   1.0000   1.0000   1.0000   1.0000   1.0000   1.0000   1.0000
     1.0000   1.0000   1.0000   1.0000   1.0000   1.0000   1.0000  -0.0000
    -0.0000  -0.0000  -0.0000  -0.0000  -0.0000  -0.0000  -0.0000  -0.0000

          k =-0.0962 0.5443-0.1667 (  4662 PWs)   bands (ev):

   -27.6289 -27.6287 -27.6248 -27.6246 -27.6245  -8.2462  -8.2316  -8.2170
    -8.2079  -8.2037  -1.9152   0.2902   6.2888   6.9407   7.2591  10.6342
    10.9168  11.6538  14.8337  17.4309  18.0178  18.4263  19.3446  21.4001

     occupation numbers 
     1.0000   1.0000   1.0000   1.0000   1.0000   1.0000   1.0000   1.0000
     1.0000   1.0000   1.0000   1.0000   1.0000   1.0000   1.0000  -0.0000
    -0.0000  -0.0000  -0.0000  -0.0000  -0.0000  -0.0000  -0.0000  -0.0000

          k =-0.1925-0.5443 0.0000 (  4662 PWs)   bands (ev):

   -27.6289 -27.6287 -27.6248 -27.6246 -27.6245  -8.2462  -8.2316  -8.2170
    -8.2079  -8.2037  -1.9152   0.2902   6.2888   6.9407   7.2591  10.6342
    10.9168  11.6538  14.8337  17.4309  18.0178  18.4263  19.3446  21.7104

     occupation numbers 
     1.0000   1.0000   1.0000   1.0000   1.0000   1.0000   1.0000   1.0000
     1.0000   1.0000   1.0000   1.0000   1.0000   1.0000   1.0000  -0.0000
    -0.0000  -0.0000  -0.0000  -0.0000  -0.0000  -0.0000  -0.0000  -0.0000

          k =-0.2887-0.6124 0.1667 (  4666 PWs)   bands (ev):

   -27.6290 -27.6287 -27.6247 -27.6247 -27.6244  -8.2546  -8.2287  -8.2138
    -8.2118  -8.2010  -1.6914   0.4139   5.3509   5.4524   8.0766   9.9769
    12.9044  13.1860  15.0887  15.3045  18.8574  18.9736  20.3216  20.8322

     occupation numbers 
     1.0000   1.0000   1.0000   1.0000   1.0000   1.0000   1.0000   1.0000
     1.0000   1.0000   1.0000   1.0000   1.0000   1.0000   1.0000  -0.0000
    -0.0000  -0.0000  -0.0000  -0.0000  -0.0000  -0.0000  -0.0000  -0.0000

          k =-0.3849-0.6804 0.3333 (  4670 PWs)   bands (ev):

   -27.6291 -27.6287 -27.6250 -27.6245 -27.6243  -8.2651  -8.2225  -8.2211
    -8.2060  -8.1981  -1.6353   0.7181   4.5463   5.3304   7.2900  11.2110
    12.8650  14.2994  14.3565  16.5559  19.1410  20.0073  20.2130  20.2159

     occupation numbers 
     1.0000   1.0000   1.0000   1.0000   1.0000   1.0000   1.0000   1.0000
     1.0000   1.0000   1.0000   1.0000   1.0000   1.0000   1.0000  -0.0000
    -0.0000  -0.0000  -0.0000  -0.0000  -0.0000  -0.0000  -0.0000  -0.0000

          k = 0.0962-0.3402-0.5000 (  4674 PWs)   bands (ev):

   -27.6291 -27.6287 -27.6251 -27.6244 -27.6244  -8.2655  -8.2241  -8.2200
    -8.2022  -8.2005  -1.8094   0.8570   4.8098   6.1397   6.2428  12.2708
    12.7531  13.1337  13.9003  18.0780  18.6645  19.3981  19.5054  20.6040

     occupation numbers 
     1.0000   1.0000   1.0000   1.0000   1.0000   1.0000   1.0000   1.0000
     1.0000   1.0000   1.0000   1.0000   1.0000   1.0000   1.0000  -0.0000
    -0.0000  -0.0000  -0.0000  -0.0000  -0.0000  -0.0000  -0.0000  -0.0000

          k = 0.0000-0.4082-0.3333 (  4660 PWs)   bands (ev):

   -27.6290 -27.6287 -27.6249 -27.6246 -27.6244  -8.2521  -8.2263  -8.2198
    -8.2067  -8.2041  -2.0318   0.7490   5.6355   6.0255   7.5534  10.6378
    12.1081  12.9043  14.1195  17.3178  17.6197  18.0529  19.4281  21.6949

     occupation numbers 
     1.0000   1.0000   1.0000   1.0000   1.0000   1.0000   1.0000   1.0000
     1.0000   1.0000   1.0000   1.0000   1.0000   1.0000   1.0000  -0.0000
    -0.0000  -0.0000  -0.0000  -0.0000  -0.0000  -0.0000  -0.0000  -0.0000

          k =-0.0962-0.4763-0.1667 (  4666 PWs)   bands (ev):

   -27.6289 -27.6288 -27.6248 -27.6247 -27.6246  -8.2400  -8.2349  -8.2156
    -8.2079  -8.2077  -2.0818   0.4747   5.9694   7.5230   7.9444   9.9217
    10.1429  12.3493  15.3339  16.1395  17.2780  18.7199  19.1933  21.8539

     occupation numbers 
     1.0000   1.0000   1.0000   1.0000   1.0000   1.0000   1.0000   1.0000
     1.0000   1.0000   1.0000   1.0000   1.0000   1.0000   1.0000  -0.0000
    -0.0000  -0.0000  -0.0000  -0.0000  -0.0000  -0.0000  -0.0000  -0.0000

          k =-0.1925-0.3402 0.0000 (  4670 PWs)   bands (ev):

   -27.6289 -27.6288 -27.6250 -27.6247 -27.6246  -8.2434  -8.2250  -8.2214
    -8.2101  -8.2075  -2.5174   1.2198   6.6689   6.7273   7.3492  10.6417
    11.8690  11.9957  13.4303  16.6943  17.0010  18.0735  18.4221  20.3617

     occupation numbers 
     1.0000   1.0000   1.0000   1.0000   1.0000   1.0000   1.0000   1.0000
     1.0000   1.0000   1.0000   1.0000   1.0000   1.0000   1.0000  -0.0000
    -0.0000  -0.0000  -0.0000  -0.0000  -0.0000  -0.0000  -0.0000  -0.0000

          k =-0.2887-0.4082 0.1667 (  4660 PWs)   bands (ev):

   -27.6290 -27.6287 -27.6249 -27.6246 -27.6244  -8.2521  -8.2263  -8.2198
    -8.2067  -8.2041  -2.0318   0.7490   5.6355   6.0255   7.5534  10.6378
    12.1081  12.9043  14.1195  17.3178  17.6197  18.0529  19.4281  21.6950

     occupation numbers 
     1.0000   1.0000   1.0000   1.0000   1.0000   1.0000   1.0000   1.0000
     1.0000   1.0000   1.0000   1.0000   1.0000   1.0000   1.0000  -0.0000
    -0.0000  -0.0000  -0.0000  -0.0000  -0.0000  -0.0000  -0.0000  -0.0000

          k =-0.3849-0.4763 0.3333 (  4666 PWs)   bands (ev):

   -27.6290 -27.6287 -27.6247 -27.6247 -27.6244  -8.2546  -8.2287  -8.2138
    -8.2118  -8.2010  -1.6914   0.4139   5.3509   5.4524   8.0766   9.9769
    12.9044  13.1860  15.0887  15.3045  18.8574  18.9736  20.3216  20.8322

     occupation numbers 
     1.0000   1.0000   1.0000   1.0000   1.0000   1.0000   1.0000   1.0000
     1.0000   1.0000   1.0000   1.0000   1.0000   1.0000   1.0000  -0.0000
    -0.0000  -0.0000  -0.0000  -0.0000  -0.0000  -0.0000  -0.0000  -0.0000

          k = 0.0962-0.1361-0.5000 (  4660 PWs)   bands (ev):

   -27.6290 -27.6287 -27.6249 -27.6246 -27.6244  -8.2521  -8.2263  -8.2198
    -8.2067  -8.2041  -2.0318   0.7490   5.6355   6.0255   7.5534  10.6378
    12.1081  12.9043  14.1195  17.3178  17.6197  18.0529  19.4281  21.6949

     occupation numbers 
     1.0000   1.0000   1.0000   1.0000   1.0000   1.0000   1.0000   1.0000
     1.0000   1.0000   1.0000   1.0000   1.0000   1.0000   1.0000  -0.0000
    -0.0000  -0.0000  -0.0000  -0.0000  -0.0000  -0.0000  -0.0000  -0.0000

          k = 0.0000-0.2041-0.3333 (  4670 PWs)   bands (ev):

   -27.6289 -27.6288 -27.6250 -27.6247 -27.6246  -8.2434  -8.2250  -8.2214
    -8.2101  -8.2075  -2.5174   1.2198   6.6689   6.7273   7.3492  10.6417
    11.8690  11.9957  13.4303  16.6943  17.0010  18.0735  18.4221  20.3617

     occupation numbers 
     1.0000   1.0000   1.0000   1.0000   1.0000   1.0000   1.0000   1.0000
     1.0000   1.0000   1.0000   1.0000   1.0000   1.0000   1.0000  -0.0000
    -0.0000  -0.0000  -0.0000  -0.0000  -0.0000  -0.0000  -0.0000  -0.0000

          k =-0.0962-0.2722-0.1667 (  4689 PWs)   bands (ev):

   -27.6289 -27.6289 -27.6249 -27.6248 -27.6247  -8.2326  -8.2306  -8.2185
    -8.2143  -8.2105  -2.7107   1.4116   6.3636   7.7559   8.2499   9.9911
    10.3132  12.5844  14.4398  14.9907  16.6810  16.9464  19.5757  19.5801

     occupation numbers 
     1.0000   1.0000   1.0000   1.0000   1.0000   1.0000   1.0000   1.0000
     1.0000   1.0000   1.0000   1.0000   1.0000   1.0000   1.0000  -0.0000
    -0.0000  -0.0000  -0.0000  -0.0000  -0.0000  -0.0000  -0.0000  -0.0000

          k =-0.1925-0.1361 0.0000 (  4681 PWs)   bands (ev):

   -27.6289 -27.6288 -27.6250 -27.6248 -27.6248  -8.2341  -8.2221  -8.2220
    -8.2148  -8.2148  -2.9903   2.0469   6.8221   6.8221   8.1473  10.2230
    12.6008  12.6008  13.2298  15.6520  15.6520  16.4012  16.7766  17.8928

     occupation numbers 
     1.0000   1.0000   1.0000   1.0000   1.0000   1.0000   1.0000   1.0000
     1.0000   1.0000   1.0000   1.0000   1.0000   1.0000   1.0000  -0.0000
    -0.0000  -0.0000  -0.0000  -0.0000  -0.0000  -0.0000  -0.0000  -0.0000

          k =-0.2887-0.2041 0.1667 (  4670 PWs)   bands (ev):

   -27.6289 -27.6288 -27.6250 -27.6247 -27.6246  -8.2434  -8.2250  -8.2214
    -8.2101  -8.2075  -2.5174   1.2198   6.6689   6.7273   7.3492  10.6417
    11.8690  11.9957  13.4303  16.6943  17.0010  18.0735  18.4221  20.3617

     occupation numbers 
     1.0000   1.0000   1.0000   1.0000   1.0000   1.0000   1.0000   1.0000
     1.0000   1.0000   1.0000   1.0000   1.0000   1.0000   1.0000  -0.0000
    -0.0000  -0.0000  -0.0000  -0.0000  -0.0000  -0.0000  -0.0000  -0.0000

          k =-0.3849-0.2722 0.3333 (  4662 PWs)   bands (ev):

   -27.6289 -27.6287 -27.6248 -27.6246 -27.6245  -8.2462  -8.2316  -8.2170
    -8.2079  -8.2037  -1.9152   0.2902   6.2888   6.9407   7.2591  10.6342
    10.9168  11.6538  14.8337  17.4309  18.0178  18.4263  19.3446  21.4001

     occupation numbers 
     1.0000   1.0000   1.0000   1.0000   1.0000   1.0000   1.0000   1.0000
     1.0000   1.0000   1.0000   1.0000   1.0000   1.0000   1.0000  -0.0000
    -0.0000  -0.0000  -0.0000  -0.0000  -0.0000  -0.0000  -0.0000  -0.0000

          k = 0.0962 0.0680-0.5000 (  4666 PWs)   bands (ev):

   -27.6289 -27.6288 -27.6248 -27.6247 -27.6246  -8.2400  -8.2349  -8.2156
    -8.2079  -8.2077  -2.0818   0.4747   5.9694   7.5230   7.9444   9.9217
    10.1429  12.3493  15.3339  16.1395  17.2780  18.7199  19.1933  21.8544

     occupation numbers 
     1.0000   1.0000   1.0000   1.0000   1.0000   1.0000   1.0000   1.0000
     1.0000   1.0000   1.0000   1.0000   1.0000   1.0000   1.0000  -0.0000
    -0.0000  -0.0000  -0.0000  -0.0000  -0.0000  -0.0000  -0.0000  -0.0000

          k = 0.0000 0.0000-0.3333 (  4689 PWs)   bands (ev):

   -27.6289 -27.6289 -27.6249 -27.6248 -27.6247  -8.2326  -8.2306  -8.2185
    -8.2143  -8.2105  -2.7107   1.4116   6.3636   7.7559   8.2499   9.9911
    10.3132  12.5844  14.4398  14.9907  16.6810  16.9464  19.5757  19.5802

     occupation numbers 
     1.0000   1.0000   1.0000   1.0000   1.0000   1.0000   1.0000   1.0000
     1.0000   1.0000   1.0000   1.0000   1.0000   1.0000   1.0000  -0.0000
    -0.0000  -0.0000  -0.0000  -0.0000  -0.0000  -0.0000  -0.0000  -0.0000

          k =-0.0962-0.0680-0.1667 (  4699 PWs)   bands (ev):

   -27.6289 -27.6289 -27.6250 -27.6249 -27.6249  -8.2274  -8.2274  -8.2194
    -8.2166  -8.2166  -3.0631   2.0884   7.2982   7.2982   7.5566  11.3398
    11.5891  11.5891  14.2212  14.8442  14.8442  17.3690  17.8153  17.8419

     occupation numbers 
     1.0000   1.0000   1.0000   1.0000   1.0000   1.0000   1.0000   1.0000
     1.0000   1.0000   1.0000   1.0000   1.0000   1.0000   1.0000  -0.0000
    -0.0000  -0.0000  -0.0000  -0.0000  -0.0000  -0.0000  -0.0000  -0.0000

     the Fermi energy is     8.8294 ev

!    total energy              =    -350.54272865 Ry
     estimated scf accuracy    <          4.8E-09 Ry
     smearing contrib. (-TS)   =       0.00000024 Ry
     internal energy E=F+TS    =    -350.54272889 Ry

     The total energy is F=E-TS. E is the sum of the following terms:
     one-electron contribution =    -137.68869201 Ry
     hartree contribution      =      83.43580720 Ry
     xc contribution           =     -89.22372319 Ry
     ewald contribution        =    -207.06612089 Ry

     convergence has been achieved in   8 iterations

     Writing all to output data dir ./out_nosoc_nc_PbTe/PbTe_nosoc_nc.save/ :
     XML data file, charge density, pseudopotentials, collected wavefunctions

     init_run     :      2.36s CPU      2.54s WALL (       1 calls)
     electrons    :     33.50s CPU     35.08s WALL (       1 calls)

     Called by init_run:
     wfcinit      :      1.55s CPU      1.70s WALL (       1 calls)
     wfcinit:atom :      0.02s CPU      0.02s WALL (      27 calls)
     wfcinit:wfcr :      1.46s CPU      1.59s WALL (      27 calls)
     potinit      :      0.10s CPU      0.11s WALL (       1 calls)
     hinit0       :      0.69s CPU      0.71s WALL (       1 calls)

     Called by electrons:
     c_bands      :     29.08s CPU     30.43s WALL (       9 calls)
     sum_band     :      4.08s CPU      4.26s WALL (       9 calls)
     v_of_rho     :      0.30s CPU      0.32s WALL (       9 calls)
     v_h          :      0.01s CPU      0.01s WALL (       9 calls)
     v_xc         :      0.29s CPU      0.31s WALL (       9 calls)
     mix_rho      :      0.02s CPU      0.03s WALL (       9 calls)

     Called by c_bands:
     init_us_2    :      0.60s CPU      0.64s WALL (     513 calls)
     cegterg      :     25.33s CPU     26.34s WALL (     243 calls)

     Called by sum_band:
     sum_band:wei :      0.01s CPU      0.01s WALL (       9 calls)
     sum_band:loo :      4.03s CPU      4.20s WALL (       9 calls)
     sum_band:buf :      0.00s CPU      0.07s WALL (     243 calls)
     sum_band:ini :      0.27s CPU      0.29s WALL (     243 calls)

     Called by *egterg:
     cdiaghg      :      0.53s CPU      0.56s WALL (     986 calls)
     cegterg:over :      1.59s CPU      1.66s WALL (     770 calls)
     cegterg:upda :      1.04s CPU      1.10s WALL (     770 calls)
     cegterg:last :      1.64s CPU      1.73s WALL (     474 calls)
     h_psi        :     21.08s CPU     21.91s WALL (    1040 calls)
     g_psi        :      0.10s CPU      0.10s WALL (     770 calls)

     Called by h_psi:
     h_psi:calbec :      1.26s CPU      1.32s WALL (    1040 calls)
     vloc_psi     :     18.55s CPU     19.24s WALL (    1040 calls)
                                        0.00s GPU  (    1040 calls)
     add_vuspsi   :      1.21s CPU      1.26s WALL (    1040 calls)

     General routines
     calbec       :      1.26s CPU      1.32s WALL (    1040 calls)
     fft          :      0.50s CPU      0.51s WALL (      91 calls)
     ffts         :      0.01s CPU      0.01s WALL (       9 calls)
     fftw         :     20.01s CPU     20.63s WALL (   34760 calls)
     davcio       :      0.00s CPU      0.27s WALL (     851 calls)

     Parallel routines

     PWSCF        :     36.02s CPU     38.15s WALL


   This run was terminated on:  21:58:46  12Jul2026            

=------------------------------------------------------------------------------=
   JOB DONE.
=------------------------------------------------------------------------------=
