
     Program PWSCF v.7.5 starts on  8Jul2026 at 22:16:42 

     This program is part of the open-source Quantum ESPRESSO suite
     for quantum simulation of materials; please cite
         "P. Giannozzi et al., J. Phys.:Condens. Matter 21 395502 (2009);
         "P. Giannozzi et al., J. Phys.:Condens. Matter 29 465901 (2017);
         "P. Giannozzi et al., J. Chem. Phys. 152 154105 (2020);
          URL http://www.quantum-espresso.org", 
     in publications or presentations arising from this work. More details at
     http://www.quantum-espresso.org/quote

     Parallel version (MPI & OpenMP), running on       8 processor cores
     Number of MPI processes:                 8
     Threads/MPI process:                     1

     MPI processes distributed on     1 nodes
     0 MiB available memory on the printing compute node when the environment starts

     Reading input from Ba3BiSb.scf.nosoc.nc.in

     Current dimensions of program PWSCF are:
     Max number of different atomic species (ntypx) = 10
     Max number of k-points (npk) =  40000
     Max angular momentum in pseudopotentials (lmaxx) =  4

     K-points division:     npool     =       8
     Subspace diagonalization in iterative solution of the eigenvalue problem:
     a serial algorithm will be used


     G-vector sticks info
     --------------------
     sticks:   dense  smooth     PW     G-vecs:    dense   smooth      PW
     Sum        3341    3341    933               145165   145165   21247

     Using Slab Decomposition



     bravais-lattice index     =            0
     lattice parameter (alat)  =      12.2377  a.u.
     unit-cell volume          =    1832.7237 (a.u.)^3
     number of atoms/cell      =            5
     number of atomic types    =            3
     number of electrons       =        60.00
     number of Kohn-Sham states=           48
     kinetic-energy cutoff     =      70.0000  Ry
     charge density cutoff     =     280.0000  Ry
     scf convergence threshold =      1.0E-08
     mixing beta               =       0.3000
     number of iterations used =            8  plain     mixing
     Exchange-correlation= PBE
                           (   1   4   3   4   0   0   0)

     celldm(1)=  12.237677  celldm(2)=   0.000000  celldm(3)=   0.000000
     celldm(4)=   0.000000  celldm(5)=   0.000000  celldm(6)=   0.000000

     crystal axes: (cart. coord. in units of alat)
               a(1) = (   1.000000   0.000000   0.000000 )  
               a(2) = (   0.000000   1.000000   0.000000 )  
               a(3) = (   0.000000   0.000000   1.000000 )  

     reciprocal axes: (cart. coord. in units 2 pi/alat)
               b(1) = (  1.000000  0.000000  0.000000 )  
               b(2) = (  0.000000  1.000000  0.000000 )  
               b(3) = (  0.000000  0.000000  1.000000 )  


     PseudoPot. # 1 for Ba read from file:
     ./pseudo_nc/Ba_SR.upf
     MD5 check sum: d1993ebf099ea5c29fdb9ecc5bd2bc91
     Pseudo is Norm-conserving + core correction, Zval = 10.0
     Generated using ONCVPSP code by D. R. Hamann
     Using radial grid of 1958 points,  6 beta functions with: 
                l(1) =   0
                l(2) =   0
                l(3) =   1
                l(4) =   1
                l(5) =   2
                l(6) =   2

     PseudoPot. # 2 for Bi read from file:
     ./pseudo_nc/Bi_SR.upf
     MD5 check sum: 200c63f77f1a5690b65e64056759e8a3
     Pseudo is Norm-conserving + core correction, Zval = 15.0
     Generated using ONCVPSP code by D. R. Hamann
     Using radial grid of 1490 points,  6 beta functions with: 
                l(1) =   0
                l(2) =   0
                l(3) =   1
                l(4) =   1
                l(5) =   2
                l(6) =   2

     PseudoPot. # 3 for Sb read from file:
     ./pseudo_nc/Sb_SR.upf
     MD5 check sum: 127f69b6101c45666faeae1b5d611565
     Pseudo is Norm-conserving + core correction, Zval = 15.0
     Generated using ONCVPSP code by D. R. Hamann
     Using radial grid of 1434 points,  6 beta functions with: 
                l(1) =   0
                l(2) =   0
                l(3) =   1
                l(4) =   1
                l(5) =   2
                l(6) =   2

     atomic species   valence    mass     pseudopotential
     Ba               10.00   137.32700     Ba( 1.00)
     Bi               15.00   208.98000     Bi( 1.00)
     Sb               15.00   121.76000     Sb( 1.00)

     No symmetry found


                                    s                        frac. trans.

      isym =  1     identity                                     

 cryst.   s( 1) = (     1          0          0      )
                  (     0          1          0      )
                  (     0          0          1      )

 cart.    s( 1) = (  1.0000000  0.0000000  0.0000000 )
                  (  0.0000000  1.0000000  0.0000000 )
                  (  0.0000000  0.0000000  1.0000000 )


   Cartesian axes

     site n.     atom                  positions (alat units)
         1        Ba     tau(   1) = (   0.0000000   0.5000000   0.5000000  )
         2        Ba     tau(   2) = (   0.5000000   0.0000000   0.5000000  )
         3        Ba     tau(   3) = (   0.5000000   0.5000000   0.0000000  )
         4        Bi     tau(   4) = (   0.0000000   0.0000000   0.0000000  )
         5        Sb     tau(   5) = (   0.5000000   0.5000000   0.5000000  )

   Crystallographic axes

     site n.     atom                  positions (cryst. coord.)
         1        Ba     tau(   1) = (  0.0000000  0.5000000  0.5000000  )
         2        Ba     tau(   2) = (  0.5000000  0.0000000  0.5000000  )
         3        Ba     tau(   3) = (  0.5000000  0.5000000  0.0000000  )
         4        Bi     tau(   4) = (  0.0000000  0.0000000  0.0000000  )
         5        Sb     tau(   5) = (  0.5000000  0.5000000  0.5000000  )

     number of k points=    64  Methfessel-Paxton smearing, width (Ry)=  0.0100
                       cart. coord. in units 2pi/alat
        k(    1) = (   0.0000000   0.0000000   0.0000000), wk =   0.0312500
        k(    2) = (   0.0000000   0.0000000   0.2500000), wk =   0.0312500
        k(    3) = (   0.0000000   0.0000000  -0.5000000), wk =   0.0312500
        k(    4) = (   0.0000000   0.0000000  -0.2500000), wk =   0.0312500
        k(    5) = (   0.0000000   0.2500000   0.0000000), wk =   0.0312500
        k(    6) = (   0.0000000   0.2500000   0.2500000), wk =   0.0312500
        k(    7) = (   0.0000000   0.2500000  -0.5000000), wk =   0.0312500
        k(    8) = (   0.0000000   0.2500000  -0.2500000), wk =   0.0312500
        k(    9) = (   0.0000000  -0.5000000   0.0000000), wk =   0.0312500
        k(   10) = (   0.0000000  -0.5000000   0.2500000), wk =   0.0312500
        k(   11) = (   0.0000000  -0.5000000  -0.5000000), wk =   0.0312500
        k(   12) = (   0.0000000  -0.5000000  -0.2500000), wk =   0.0312500
        k(   13) = (   0.0000000  -0.2500000   0.0000000), wk =   0.0312500
        k(   14) = (   0.0000000  -0.2500000   0.2500000), wk =   0.0312500
        k(   15) = (   0.0000000  -0.2500000  -0.5000000), wk =   0.0312500
        k(   16) = (   0.0000000  -0.2500000  -0.2500000), wk =   0.0312500
        k(   17) = (   0.2500000   0.0000000   0.0000000), wk =   0.0312500
        k(   18) = (   0.2500000   0.0000000   0.2500000), wk =   0.0312500
        k(   19) = (   0.2500000   0.0000000  -0.5000000), wk =   0.0312500
        k(   20) = (   0.2500000   0.0000000  -0.2500000), wk =   0.0312500
        k(   21) = (   0.2500000   0.2500000   0.0000000), wk =   0.0312500
        k(   22) = (   0.2500000   0.2500000   0.2500000), wk =   0.0312500
        k(   23) = (   0.2500000   0.2500000  -0.5000000), wk =   0.0312500
        k(   24) = (   0.2500000   0.2500000  -0.2500000), wk =   0.0312500
        k(   25) = (   0.2500000  -0.5000000   0.0000000), wk =   0.0312500
        k(   26) = (   0.2500000  -0.5000000   0.2500000), wk =   0.0312500
        k(   27) = (   0.2500000  -0.5000000  -0.5000000), wk =   0.0312500
        k(   28) = (   0.2500000  -0.5000000  -0.2500000), wk =   0.0312500
        k(   29) = (   0.2500000  -0.2500000   0.0000000), wk =   0.0312500
        k(   30) = (   0.2500000  -0.2500000   0.2500000), wk =   0.0312500
        k(   31) = (   0.2500000  -0.2500000  -0.5000000), wk =   0.0312500
        k(   32) = (   0.2500000  -0.2500000  -0.2500000), wk =   0.0312500
        k(   33) = (  -0.5000000   0.0000000   0.0000000), wk =   0.0312500
        k(   34) = (  -0.5000000   0.0000000   0.2500000), wk =   0.0312500
        k(   35) = (  -0.5000000   0.0000000  -0.5000000), wk =   0.0312500
        k(   36) = (  -0.5000000   0.0000000  -0.2500000), wk =   0.0312500
        k(   37) = (  -0.5000000   0.2500000   0.0000000), wk =   0.0312500
        k(   38) = (  -0.5000000   0.2500000   0.2500000), wk =   0.0312500
        k(   39) = (  -0.5000000   0.2500000  -0.5000000), wk =   0.0312500
        k(   40) = (  -0.5000000   0.2500000  -0.2500000), wk =   0.0312500
        k(   41) = (  -0.5000000  -0.5000000   0.0000000), wk =   0.0312500
        k(   42) = (  -0.5000000  -0.5000000   0.2500000), wk =   0.0312500
        k(   43) = (  -0.5000000  -0.5000000  -0.5000000), wk =   0.0312500
        k(   44) = (  -0.5000000  -0.5000000  -0.2500000), wk =   0.0312500
        k(   45) = (  -0.5000000  -0.2500000   0.0000000), wk =   0.0312500
        k(   46) = (  -0.5000000  -0.2500000   0.2500000), wk =   0.0312500
        k(   47) = (  -0.5000000  -0.2500000  -0.5000000), wk =   0.0312500
        k(   48) = (  -0.5000000  -0.2500000  -0.2500000), wk =   0.0312500
        k(   49) = (  -0.2500000   0.0000000   0.0000000), wk =   0.0312500
        k(   50) = (  -0.2500000   0.0000000   0.2500000), wk =   0.0312500
        k(   51) = (  -0.2500000   0.0000000  -0.5000000), wk =   0.0312500
        k(   52) = (  -0.2500000   0.0000000  -0.2500000), wk =   0.0312500
        k(   53) = (  -0.2500000   0.2500000   0.0000000), wk =   0.0312500
        k(   54) = (  -0.2500000   0.2500000   0.2500000), wk =   0.0312500
        k(   55) = (  -0.2500000   0.2500000  -0.5000000), wk =   0.0312500
        k(   56) = (  -0.2500000   0.2500000  -0.2500000), wk =   0.0312500
        k(   57) = (  -0.2500000  -0.5000000   0.0000000), wk =   0.0312500
        k(   58) = (  -0.2500000  -0.5000000   0.2500000), wk =   0.0312500
        k(   59) = (  -0.2500000  -0.5000000  -0.5000000), wk =   0.0312500
        k(   60) = (  -0.2500000  -0.5000000  -0.2500000), wk =   0.0312500
        k(   61) = (  -0.2500000  -0.2500000   0.0000000), wk =   0.0312500
        k(   62) = (  -0.2500000  -0.2500000   0.2500000), wk =   0.0312500
        k(   63) = (  -0.2500000  -0.2500000  -0.5000000), wk =   0.0312500
        k(   64) = (  -0.2500000  -0.2500000  -0.2500000), wk =   0.0312500

                       cryst. coord.
        k(    1) = (   0.0000000   0.0000000   0.0000000), wk =   0.0312500
        k(    2) = (   0.0000000   0.0000000   0.2500000), wk =   0.0312500
        k(    3) = (   0.0000000   0.0000000  -0.5000000), wk =   0.0312500
        k(    4) = (   0.0000000   0.0000000  -0.2500000), wk =   0.0312500
        k(    5) = (   0.0000000   0.2500000   0.0000000), wk =   0.0312500
        k(    6) = (   0.0000000   0.2500000   0.2500000), wk =   0.0312500
        k(    7) = (   0.0000000   0.2500000  -0.5000000), wk =   0.0312500
        k(    8) = (   0.0000000   0.2500000  -0.2500000), wk =   0.0312500
        k(    9) = (   0.0000000  -0.5000000   0.0000000), wk =   0.0312500
        k(   10) = (   0.0000000  -0.5000000   0.2500000), wk =   0.0312500
        k(   11) = (   0.0000000  -0.5000000  -0.5000000), wk =   0.0312500
        k(   12) = (   0.0000000  -0.5000000  -0.2500000), wk =   0.0312500
        k(   13) = (   0.0000000  -0.2500000   0.0000000), wk =   0.0312500
        k(   14) = (   0.0000000  -0.2500000   0.2500000), wk =   0.0312500
        k(   15) = (   0.0000000  -0.2500000  -0.5000000), wk =   0.0312500
        k(   16) = (   0.0000000  -0.2500000  -0.2500000), wk =   0.0312500
        k(   17) = (   0.2500000   0.0000000   0.0000000), wk =   0.0312500
        k(   18) = (   0.2500000   0.0000000   0.2500000), wk =   0.0312500
        k(   19) = (   0.2500000   0.0000000  -0.5000000), wk =   0.0312500
        k(   20) = (   0.2500000   0.0000000  -0.2500000), wk =   0.0312500
        k(   21) = (   0.2500000   0.2500000   0.0000000), wk =   0.0312500
        k(   22) = (   0.2500000   0.2500000   0.2500000), wk =   0.0312500
        k(   23) = (   0.2500000   0.2500000  -0.5000000), wk =   0.0312500
        k(   24) = (   0.2500000   0.2500000  -0.2500000), wk =   0.0312500
        k(   25) = (   0.2500000  -0.5000000   0.0000000), wk =   0.0312500
        k(   26) = (   0.2500000  -0.5000000   0.2500000), wk =   0.0312500
        k(   27) = (   0.2500000  -0.5000000  -0.5000000), wk =   0.0312500
        k(   28) = (   0.2500000  -0.5000000  -0.2500000), wk =   0.0312500
        k(   29) = (   0.2500000  -0.2500000   0.0000000), wk =   0.0312500
        k(   30) = (   0.2500000  -0.2500000   0.2500000), wk =   0.0312500
        k(   31) = (   0.2500000  -0.2500000  -0.5000000), wk =   0.0312500
        k(   32) = (   0.2500000  -0.2500000  -0.2500000), wk =   0.0312500
        k(   33) = (  -0.5000000   0.0000000   0.0000000), wk =   0.0312500
        k(   34) = (  -0.5000000   0.0000000   0.2500000), wk =   0.0312500
        k(   35) = (  -0.5000000   0.0000000  -0.5000000), wk =   0.0312500
        k(   36) = (  -0.5000000   0.0000000  -0.2500000), wk =   0.0312500
        k(   37) = (  -0.5000000   0.2500000   0.0000000), wk =   0.0312500
        k(   38) = (  -0.5000000   0.2500000   0.2500000), wk =   0.0312500
        k(   39) = (  -0.5000000   0.2500000  -0.5000000), wk =   0.0312500
        k(   40) = (  -0.5000000   0.2500000  -0.2500000), wk =   0.0312500
        k(   41) = (  -0.5000000  -0.5000000   0.0000000), wk =   0.0312500
        k(   42) = (  -0.5000000  -0.5000000   0.2500000), wk =   0.0312500
        k(   43) = (  -0.5000000  -0.5000000  -0.5000000), wk =   0.0312500
        k(   44) = (  -0.5000000  -0.5000000  -0.2500000), wk =   0.0312500
        k(   45) = (  -0.5000000  -0.2500000   0.0000000), wk =   0.0312500
        k(   46) = (  -0.5000000  -0.2500000   0.2500000), wk =   0.0312500
        k(   47) = (  -0.5000000  -0.2500000  -0.5000000), wk =   0.0312500
        k(   48) = (  -0.5000000  -0.2500000  -0.2500000), wk =   0.0312500
        k(   49) = (  -0.2500000   0.0000000   0.0000000), wk =   0.0312500
        k(   50) = (  -0.2500000   0.0000000   0.2500000), wk =   0.0312500
        k(   51) = (  -0.2500000   0.0000000  -0.5000000), wk =   0.0312500
        k(   52) = (  -0.2500000   0.0000000  -0.2500000), wk =   0.0312500
        k(   53) = (  -0.2500000   0.2500000   0.0000000), wk =   0.0312500
        k(   54) = (  -0.2500000   0.2500000   0.2500000), wk =   0.0312500
        k(   55) = (  -0.2500000   0.2500000  -0.5000000), wk =   0.0312500
        k(   56) = (  -0.2500000   0.2500000  -0.2500000), wk =   0.0312500
        k(   57) = (  -0.2500000  -0.5000000   0.0000000), wk =   0.0312500
        k(   58) = (  -0.2500000  -0.5000000   0.2500000), wk =   0.0312500
        k(   59) = (  -0.2500000  -0.5000000  -0.5000000), wk =   0.0312500
        k(   60) = (  -0.2500000  -0.5000000  -0.2500000), wk =   0.0312500
        k(   61) = (  -0.2500000  -0.2500000   0.0000000), wk =   0.0312500
        k(   62) = (  -0.2500000  -0.2500000   0.2500000), wk =   0.0312500
        k(   63) = (  -0.2500000  -0.2500000  -0.5000000), wk =   0.0312500
        k(   64) = (  -0.2500000  -0.2500000  -0.2500000), wk =   0.0312500

     Dense  grid:   145165 G-vectors     FFT dimensions: (  72,  72,  72)

     Dynamical RAM for                 wfc:      13.28 MB

     Dynamical RAM for     wfc (w. buffer):      13.28 MB

     Dynamical RAM for           str. fact:       6.65 MB

     Dynamical RAM for           local pot:       0.00 MB

     Dynamical RAM for          nlocal pot:      24.89 MB

     Dynamical RAM for                qrad:       4.03 MB

     Dynamical RAM for          rho,v,vnew:      15.19 MB

     Dynamical RAM for               rhoin:       5.06 MB

     Dynamical RAM for           G-vectors:       9.41 MB

     Dynamical RAM for          h,s,v(r/c):       0.42 MB

     Dynamical RAM for          <psi|beta>:       0.07 MB

     Dynamical RAM for                 psi:      26.55 MB

     Dynamical RAM for                hpsi:      26.55 MB

     Dynamical RAM for      wfcinit/wfcrot:      26.60 MB

     Estimated static dynamical RAM per process >     101.61 MB

     Estimated max dynamical RAM per process >     155.20 MB

     Estimated total dynamical RAM >       1.21 GB

     Initial potential from superposition of free atoms

     starting charge      59.9489, renormalised to      60.0000
     Starting wfcs are   33 randomized atomic wfcs +   15 random wfcs

     total cpu time spent up to now is        6.1 secs

     Self-consistent Calculation

     iteration #  1     ecut=    70.00 Ry     beta= 0.30
     Davidson diagonalization with overlap

---- Real-time Memory Report at c_bands before calling an iterative solver
             0 MiB given to the printing process from OS
             0 MiB allocation reported by mallinfo(arena+hblkhd)
             0 MiB available memory on the node where the printing process lives
------------------
     ethr =  1.00E-02,  avg # of iterations =  7.9

     Threshold (ethr) on eigenvalues was too large:
     Diagonalizing with lowered threshold

     Davidson diagonalization with overlap

---- Real-time Memory Report at c_bands before calling an iterative solver
             0 MiB given to the printing process from OS
             0 MiB allocation reported by mallinfo(arena+hblkhd)
             0 MiB available memory on the node where the printing process lives
------------------
     ethr =  4.29E-04,  avg # of iterations =  2.7

     total cpu time spent up to now is       33.6 secs

     total energy              =    -514.77148479 Ry
     estimated scf accuracy    <       0.25432529 Ry

     iteration #  2     ecut=    70.00 Ry     beta= 0.30
     Davidson diagonalization with overlap

---- Real-time Memory Report at c_bands before calling an iterative solver
             0 MiB given to the printing process from OS
             0 MiB allocation reported by mallinfo(arena+hblkhd)
             0 MiB available memory on the node where the printing process lives
------------------
     ethr =  4.24E-04,  avg # of iterations =  3.3

     total cpu time spent up to now is       43.3 secs

     total energy              =    -514.77951109 Ry
     estimated scf accuracy    <       0.04477072 Ry

     iteration #  3     ecut=    70.00 Ry     beta= 0.30
     Davidson diagonalization with overlap

---- Real-time Memory Report at c_bands before calling an iterative solver
             0 MiB given to the printing process from OS
             0 MiB allocation reported by mallinfo(arena+hblkhd)
             0 MiB available memory on the node where the printing process lives
------------------
     ethr =  7.46E-05,  avg # of iterations =  6.4

     total cpu time spent up to now is       55.3 secs

     total energy              =    -514.78503919 Ry
     estimated scf accuracy    <       0.00588318 Ry

     iteration #  4     ecut=    70.00 Ry     beta= 0.30
     Davidson diagonalization with overlap

---- Real-time Memory Report at c_bands before calling an iterative solver
             0 MiB given to the printing process from OS
             0 MiB allocation reported by mallinfo(arena+hblkhd)
             0 MiB available memory on the node where the printing process lives
------------------
     c_bands:  1 eigenvalues not converged
     ethr =  9.81E-06,  avg # of iterations =  6.5

     total cpu time spent up to now is       69.7 secs

     total energy              =    -514.78586015 Ry
     estimated scf accuracy    <       0.00069567 Ry

     iteration #  5     ecut=    70.00 Ry     beta= 0.30
     Davidson diagonalization with overlap

---- Real-time Memory Report at c_bands before calling an iterative solver
             0 MiB given to the printing process from OS
             0 MiB allocation reported by mallinfo(arena+hblkhd)
             0 MiB available memory on the node where the printing process lives
------------------
     ethr =  1.16E-06,  avg # of iterations =  6.9

     total cpu time spent up to now is       82.8 secs

     total energy              =    -514.78593841 Ry
     estimated scf accuracy    <       0.00033680 Ry

     iteration #  6     ecut=    70.00 Ry     beta= 0.30
     Davidson diagonalization with overlap

---- Real-time Memory Report at c_bands before calling an iterative solver
             0 MiB given to the printing process from OS
             0 MiB allocation reported by mallinfo(arena+hblkhd)
             0 MiB available memory on the node where the printing process lives
------------------
     ethr =  5.61E-07,  avg # of iterations =  2.0

     total cpu time spent up to now is       90.6 secs

     total energy              =    -514.78595460 Ry
     estimated scf accuracy    <       0.00004423 Ry

     iteration #  7     ecut=    70.00 Ry     beta= 0.30
     Davidson diagonalization with overlap

---- Real-time Memory Report at c_bands before calling an iterative solver
             0 MiB given to the printing process from OS
             0 MiB allocation reported by mallinfo(arena+hblkhd)
             0 MiB available memory on the node where the printing process lives
------------------
     ethr =  7.37E-08,  avg # of iterations =  3.8

     total cpu time spent up to now is       99.8 secs

     total energy              =    -514.78595709 Ry
     estimated scf accuracy    <       0.00000719 Ry

     iteration #  8     ecut=    70.00 Ry     beta= 0.30
     Davidson diagonalization with overlap

---- Real-time Memory Report at c_bands before calling an iterative solver
             0 MiB given to the printing process from OS
             0 MiB allocation reported by mallinfo(arena+hblkhd)
             0 MiB available memory on the node where the printing process lives
------------------
     ethr =  1.20E-08,  avg # of iterations =  2.5

     total cpu time spent up to now is      108.8 secs

     total energy              =    -514.78595894 Ry
     estimated scf accuracy    <       0.00000046 Ry

     iteration #  9     ecut=    70.00 Ry     beta= 0.30
     Davidson diagonalization with overlap

---- Real-time Memory Report at c_bands before calling an iterative solver
             0 MiB given to the printing process from OS
             0 MiB allocation reported by mallinfo(arena+hblkhd)
             0 MiB available memory on the node where the printing process lives
------------------
     ethr =  7.75E-10,  avg # of iterations =  3.5

     total cpu time spent up to now is      118.5 secs

     total energy              =    -514.78595909 Ry
     estimated scf accuracy    <       0.00000016 Ry

     iteration # 10     ecut=    70.00 Ry     beta= 0.30
     Davidson diagonalization with overlap

---- Real-time Memory Report at c_bands before calling an iterative solver
             0 MiB given to the printing process from OS
             0 MiB allocation reported by mallinfo(arena+hblkhd)
             0 MiB available memory on the node where the printing process lives
------------------
     ethr =  2.64E-10,  avg # of iterations =  2.0

     total cpu time spent up to now is      127.2 secs

     total energy              =    -514.78595912 Ry
     estimated scf accuracy    <       0.00000001 Ry

     iteration # 11     ecut=    70.00 Ry     beta= 0.30
     Davidson diagonalization with overlap

---- Real-time Memory Report at c_bands before calling an iterative solver
             0 MiB given to the printing process from OS
             0 MiB allocation reported by mallinfo(arena+hblkhd)
             0 MiB available memory on the node where the printing process lives
------------------
     ethr =  2.08E-11,  avg # of iterations =  2.5

     total cpu time spent up to now is      136.3 secs

     End of self-consistent calculation

          k = 0.0000 0.0000 0.0000 ( 18037 PWs)   bands (ev):

   -22.7607 -22.7481 -22.7481 -21.9784 -21.9784 -21.9694 -21.9694 -21.9694
   -15.7403 -15.7403 -15.7403 -15.7396 -15.7396  -8.1014  -8.1014  -8.1014
    -7.9248  -7.9248  -7.9248  -7.8278  -7.8278  -7.8278  -3.4349  -2.9437
     5.1707   5.1707   5.1707   5.6418   5.9293   5.9293   5.9293   6.3890
     6.3890   6.3890   6.4111   6.4111   8.7373   8.7373   8.7373   9.0466
     9.0466  10.4947  10.7833  10.7833  10.7833  11.3563  11.5808  11.5809

     occupation numbers 
     1.0000   1.0000   1.0000   1.0000   1.0000   1.0000   1.0000   1.0000
     1.0000   1.0000   1.0000   1.0000   1.0000   1.0000   1.0000   1.0000
     1.0000   1.0000   1.0000   1.0000   1.0000   1.0000   1.0000   1.0000
     1.0000   1.0000   1.0000   1.0026   0.6659   0.6659   0.6659  -0.0000
    -0.0000  -0.0000  -0.0000  -0.0000  -0.0000  -0.0000  -0.0000  -0.0000
    -0.0000  -0.0000  -0.0000  -0.0000  -0.0000  -0.0000  -0.0000  -0.0000

          k = 0.0000 0.0000 0.2500 ( 18145 PWs)   bands (ev):

   -22.7579 -22.7481 -22.7441 -21.9867 -21.9787 -21.9698 -21.9698 -21.9697
   -15.7403 -15.7403 -15.7403 -15.7396 -15.7396  -8.0807  -8.0800  -8.0800
    -7.9317  -7.9317  -7.9266  -7.8882  -7.8427  -7.8427  -3.4162  -2.7349
     4.3791   4.7946   5.0936   5.0936   5.4976   5.4976   6.3739   6.4817
     6.7221   7.1534   7.1534   7.2813   8.4220   9.0307   9.0307   9.0772
     9.3192   9.6181  10.0701  10.0701  10.5030  10.7856  11.2932  11.2932

     occupation numbers 
     1.0000   1.0000   1.0000   1.0000   1.0000   1.0000   1.0000   1.0000
     1.0000   1.0000   1.0000   1.0000   1.0000   1.0000   1.0000   1.0000
     1.0000   1.0000   1.0000   1.0000   1.0000   1.0000   1.0000   1.0000
     1.0000   1.0000   1.0000   1.0000   1.0000   1.0000  -0.0001  -0.0000
    -0.0000  -0.0000  -0.0000  -0.0000  -0.0000  -0.0000  -0.0000  -0.0000
    -0.0000  -0.0000  -0.0000  -0.0000  -0.0000  -0.0000  -0.0000  -0.0000

          k = 0.0000 0.0000-0.5000 ( 18184 PWs)   bands (ev):

   -22.7564 -22.7481 -22.7385 -21.9953 -21.9786 -21.9700 -21.9700 -21.9699
   -15.7403 -15.7403 -15.7403 -15.7396 -15.7395  -8.0520  -8.0520  -8.0301
    -7.9770  -7.9456  -7.9456  -7.9285  -7.8572  -7.8572  -3.3994  -2.5039
     3.6916   4.4267   5.0141   5.0141   5.3075   5.3075   6.5967   6.7693
     7.2452   7.7945   7.8507   7.8507   8.1243   8.6506   9.1101   9.1846
     9.3644   9.3644   9.5501   9.5501  10.5772  10.6059  10.6059  10.7879

     occupation numbers 
     1.0000   1.0000   1.0000   1.0000   1.0000   1.0000   1.0000   1.0000
     1.0000   1.0000   1.0000   1.0000   1.0000   1.0000   1.0000   1.0000
     1.0000   1.0000   1.0000   1.0000   1.0000   1.0000   1.0000   1.0000
     1.0000   1.0000   1.0000   1.0000   1.0000   1.0000  -0.0000  -0.0000
    -0.0000  -0.0000  -0.0000  -0.0000  -0.0000  -0.0000  -0.0000  -0.0000
    -0.0000  -0.0000  -0.0000  -0.0000  -0.0000  -0.0000  -0.0000  -0.0000

          k = 0.0000 0.0000-0.2500 ( 18145 PWs)   bands (ev):

   -22.7579 -22.7481 -22.7441 -21.9867 -21.9787 -21.9698 -21.9698 -21.9697
   -15.7403 -15.7403 -15.7403 -15.7396 -15.7396  -8.0807  -8.0800  -8.0800
    -7.9317  -7.9317  -7.9266  -7.8882  -7.8427  -7.8427  -3.4162  -2.7349
     4.3791   4.7946   5.0936   5.0936   5.4976   5.4976   6.3739   6.4817
     6.7221   7.1534   7.1534   7.2813   8.4220   9.0307   9.0307   9.0772
     9.3192   9.6181  10.0701  10.0701  10.5030  10.7856  11.2932  11.2932

     occupation numbers 
     1.0000   1.0000   1.0000   1.0000   1.0000   1.0000   1.0000   1.0000
     1.0000   1.0000   1.0000   1.0000   1.0000   1.0000   1.0000   1.0000
     1.0000   1.0000   1.0000   1.0000   1.0000   1.0000   1.0000   1.0000
     1.0000   1.0000   1.0000   1.0000   1.0000   1.0000  -0.0001  -0.0000
    -0.0000  -0.0000  -0.0000  -0.0000  -0.0000  -0.0000  -0.0000  -0.0000
    -0.0000  -0.0000  -0.0000  -0.0000  -0.0000  -0.0000  -0.0000  -0.0000

          k = 0.0000 0.2500 0.0000 ( 18145 PWs)   bands (ev):

   -22.7579 -22.7481 -22.7441 -21.9867 -21.9787 -21.9698 -21.9698 -21.9697
   -15.7403 -15.7403 -15.7403 -15.7396 -15.7396  -8.0807  -8.0800  -8.0800
    -7.9317  -7.9317  -7.9266  -7.8882  -7.8427  -7.8427  -3.4162  -2.7349
     4.3791   4.7946   5.0936   5.0936   5.4976   5.4976   6.3739   6.4817
     6.7221   7.1534   7.1534   7.2813   8.4220   9.0307   9.0307   9.0772
     9.3192   9.6181  10.0701  10.0701  10.5030  10.7856  11.2932  11.2932

     occupation numbers 
     1.0000   1.0000   1.0000   1.0000   1.0000   1.0000   1.0000   1.0000
     1.0000   1.0000   1.0000   1.0000   1.0000   1.0000   1.0000   1.0000
     1.0000   1.0000   1.0000   1.0000   1.0000   1.0000   1.0000   1.0000
     1.0000   1.0000   1.0000   1.0000   1.0000   1.0000  -0.0001  -0.0000
    -0.0000  -0.0000  -0.0000  -0.0000  -0.0000  -0.0000  -0.0000  -0.0000
    -0.0000  -0.0000  -0.0000  -0.0000  -0.0000  -0.0000  -0.0000  -0.0000

          k = 0.0000 0.2500 0.2500 ( 18095 PWs)   bands (ev):

   -22.7547 -22.7451 -22.7434 -21.9906 -21.9826 -21.9697 -21.9697 -21.9697
   -15.7403 -15.7403 -15.7403 -15.7396 -15.7396  -8.1537  -8.0568  -8.0043
    -7.9843  -7.9349  -7.9262  -7.8982  -7.8630  -7.8138  -3.4055  -2.5287
     4.1541   4.2478   4.8428   4.9676   5.2870   5.3483   6.6983   6.7879
     6.9632   7.2889   7.4216   7.8940   8.6848   8.7987   8.8572   9.0082
     9.4082   9.4942   9.8082   9.9023  10.1275  10.7175  10.9072  11.9088

     occupation numbers 
     1.0000   1.0000   1.0000   1.0000   1.0000   1.0000   1.0000   1.0000
     1.0000   1.0000   1.0000   1.0000   1.0000   1.0000   1.0000   1.0000
     1.0000   1.0000   1.0000   1.0000   1.0000   1.0000   1.0000   1.0000
     1.0000   1.0000   1.0000   1.0000   1.0000   1.0000  -0.0000  -0.0000
    -0.0000  -0.0000  -0.0000  -0.0000  -0.0000  -0.0000  -0.0000  -0.0000
    -0.0000  -0.0000  -0.0000  -0.0000  -0.0000  -0.0000  -0.0000  -0.0000

          k = 0.0000 0.2500-0.5000 ( 18136 PWs)   bands (ev):

   -22.7533 -22.7443 -22.7384 -21.9981 -21.9838 -21.9699 -21.9699 -21.9697
   -15.7403 -15.7403 -15.7403 -15.7396 -15.7395  -8.1857  -8.0241  -8.0241
    -7.9609  -7.9516  -7.9452  -7.8856  -7.8743  -7.8136  -3.3953  -2.2997
     3.5429   4.0338   4.8076   4.8538   5.1352   5.2556   6.9725   7.1445
     7.4390   7.5108   7.8022   8.1213   8.4071   8.6919   8.8290   9.2045
     9.2253   9.3628   9.4926   9.8168   9.9201  10.1255  11.2304  11.5413

     occupation numbers 
     1.0000   1.0000   1.0000   1.0000   1.0000   1.0000   1.0000   1.0000
     1.0000   1.0000   1.0000   1.0000   1.0000   1.0000   1.0000   1.0000
     1.0000   1.0000   1.0000   1.0000   1.0000   1.0000   1.0000   1.0000
     1.0000   1.0000   1.0000   1.0000   1.0000   1.0000  -0.0000  -0.0000
    -0.0000  -0.0000  -0.0000  -0.0000  -0.0000  -0.0000  -0.0000  -0.0000
    -0.0000  -0.0000  -0.0000  -0.0000  -0.0000  -0.0000  -0.0000  -0.0000

          k = 0.0000 0.2500-0.2500 ( 18095 PWs)   bands (ev):

   -22.7547 -22.7451 -22.7434 -21.9906 -21.9826 -21.9697 -21.9697 -21.9697
   -15.7403 -15.7403 -15.7403 -15.7396 -15.7396  -8.1537  -8.0568  -8.0043
    -7.9843  -7.9349  -7.9262  -7.8982  -7.8630  -7.8138  -3.4055  -2.5287
     4.1541   4.2478   4.8428   4.9676   5.2870   5.3483   6.6983   6.7879
     6.9632   7.2889   7.4216   7.8940   8.6848   8.7987   8.8572   9.0082
     9.4082   9.4942   9.8082   9.9023  10.1275  10.7175  10.9072  11.9088

     occupation numbers 
     1.0000   1.0000   1.0000   1.0000   1.0000   1.0000   1.0000   1.0000
     1.0000   1.0000   1.0000   1.0000   1.0000   1.0000   1.0000   1.0000
     1.0000   1.0000   1.0000   1.0000   1.0000   1.0000   1.0000   1.0000
     1.0000   1.0000   1.0000   1.0000   1.0000   1.0000  -0.0000  -0.0000
    -0.0000  -0.0000  -0.0000  -0.0000  -0.0000  -0.0000  -0.0000  -0.0000
    -0.0000  -0.0000  -0.0000  -0.0000  -0.0000  -0.0000  -0.0000  -0.0000

          k = 0.0000-0.5000 0.0000 ( 18184 PWs)   bands (ev):

   -22.7564 -22.7481 -22.7385 -21.9953 -21.9786 -21.9700 -21.9700 -21.9699
   -15.7403 -15.7403 -15.7403 -15.7396 -15.7395  -8.0520  -8.0520  -8.0301
    -7.9770  -7.9456  -7.9456  -7.9285  -7.8572  -7.8572  -3.3994  -2.5039
     3.6916   4.4267   5.0141   5.0141   5.3075   5.3075   6.5967   6.7693
     7.2452   7.7945   7.8507   7.8507   8.1243   8.6506   9.1101   9.1846
     9.3644   9.3644   9.5501   9.5501  10.5772  10.6059  10.6059  10.7879

     occupation numbers 
     1.0000   1.0000   1.0000   1.0000   1.0000   1.0000   1.0000   1.0000
     1.0000   1.0000   1.0000   1.0000   1.0000   1.0000   1.0000   1.0000
     1.0000   1.0000   1.0000   1.0000   1.0000   1.0000   1.0000   1.0000
     1.0000   1.0000   1.0000   1.0000   1.0000   1.0000  -0.0000  -0.0000
    -0.0000  -0.0000  -0.0000  -0.0000  -0.0000  -0.0000  -0.0000  -0.0000
    -0.0000  -0.0000  -0.0000  -0.0000  -0.0000  -0.0000  -0.0000  -0.0000

          k = 0.0000-0.5000 0.2500 ( 18136 PWs)   bands (ev):

   -22.7533 -22.7443 -22.7384 -21.9981 -21.9838 -21.9699 -21.9699 -21.9697
   -15.7403 -15.7403 -15.7403 -15.7396 -15.7395  -8.1857  -8.0241  -8.0241
    -7.9609  -7.9516  -7.9452  -7.8856  -7.8743  -7.8136  -3.3953  -2.2997
     3.5429   4.0338   4.8076   4.8538   5.1352   5.2556   6.9725   7.1445
     7.4390   7.5108   7.8022   8.1213   8.4071   8.6919   8.8290   9.2045
     9.2253   9.3628   9.4926   9.8168   9.9201  10.1254  11.2304  11.5412

     occupation numbers 
     1.0000   1.0000   1.0000   1.0000   1.0000   1.0000   1.0000   1.0000
     1.0000   1.0000   1.0000   1.0000   1.0000   1.0000   1.0000   1.0000
     1.0000   1.0000   1.0000   1.0000   1.0000   1.0000   1.0000   1.0000
     1.0000   1.0000   1.0000   1.0000   1.0000   1.0000  -0.0000  -0.0000
    -0.0000  -0.0000  -0.0000  -0.0000  -0.0000  -0.0000  -0.0000  -0.0000
    -0.0000  -0.0000  -0.0000  -0.0000  -0.0000  -0.0000  -0.0000  -0.0000

          k = 0.0000-0.5000-0.5000 ( 18176 PWs)   bands (ev):

   -22.7522 -22.7384 -22.7384 -22.0035 -21.9869 -21.9700 -21.9700 -21.9698
   -15.7403 -15.7403 -15.7403 -15.7396 -15.7395  -8.2538  -8.0518  -7.9655
    -7.9514  -7.9514  -7.9449  -7.9449  -7.8456  -7.7757  -3.3912  -2.0708
     3.4144   3.4144   4.7294   4.9871   4.9871   5.2051   7.3916   7.3916
     7.5440   7.5658   7.8245   7.8245   8.6297   8.6744   9.0419   9.0837
     9.0837   9.4282   9.4477   9.7313   9.8608  10.7018  10.7018  11.7518

     occupation numbers 
     1.0000   1.0000   1.0000   1.0000   1.0000   1.0000   1.0000   1.0000
     1.0000   1.0000   1.0000   1.0000   1.0000   1.0000   1.0000   1.0000
     1.0000   1.0000   1.0000   1.0000   1.0000   1.0000   1.0000   1.0000
     1.0000   1.0000   1.0000   1.0000   1.0000   1.0000  -0.0000  -0.0000
    -0.0000  -0.0000  -0.0000  -0.0000  -0.0000  -0.0000  -0.0000  -0.0000
    -0.0000  -0.0000  -0.0000  -0.0000  -0.0000  -0.0000  -0.0000  -0.0000

          k = 0.0000-0.5000-0.2500 ( 18136 PWs)   bands (ev):

   -22.7533 -22.7443 -22.7384 -21.9981 -21.9838 -21.9699 -21.9699 -21.9697
   -15.7403 -15.7403 -15.7403 -15.7396 -15.7395  -8.1857  -8.0241  -8.0241
    -7.9609  -7.9516  -7.9452  -7.8856  -7.8743  -7.8136  -3.3953  -2.2997
     3.5429   4.0338   4.8076   4.8538   5.1352   5.2556   6.9725   7.1445
     7.4390   7.5108   7.8022   8.1213   8.4071   8.6919   8.8290   9.2045
     9.2253   9.3628   9.4926   9.8168   9.9201  10.1255  11.2304  11.5412

     occupation numbers 
     1.0000   1.0000   1.0000   1.0000   1.0000   1.0000   1.0000   1.0000
     1.0000   1.0000   1.0000   1.0000   1.0000   1.0000   1.0000   1.0000
     1.0000   1.0000   1.0000   1.0000   1.0000   1.0000   1.0000   1.0000
     1.0000   1.0000   1.0000   1.0000   1.0000   1.0000  -0.0000  -0.0000
    -0.0000  -0.0000  -0.0000  -0.0000  -0.0000  -0.0000  -0.0000  -0.0000
    -0.0000  -0.0000  -0.0000  -0.0000  -0.0000  -0.0000  -0.0000  -0.0000

          k = 0.0000-0.2500 0.0000 ( 18145 PWs)   bands (ev):

   -22.7579 -22.7481 -22.7441 -21.9867 -21.9787 -21.9698 -21.9698 -21.9697
   -15.7403 -15.7403 -15.7403 -15.7396 -15.7396  -8.0807  -8.0800  -8.0800
    -7.9317  -7.9317  -7.9266  -7.8882  -7.8427  -7.8427  -3.4162  -2.7349
     4.3791   4.7946   5.0936   5.0936   5.4976   5.4976   6.3739   6.4817
     6.7221   7.1534   7.1534   7.2813   8.4220   9.0307   9.0307   9.0772
     9.3192   9.6181  10.0701  10.0701  10.5030  10.7856  11.2932  11.2932

     occupation numbers 
     1.0000   1.0000   1.0000   1.0000   1.0000   1.0000   1.0000   1.0000
     1.0000   1.0000   1.0000   1.0000   1.0000   1.0000   1.0000   1.0000
     1.0000   1.0000   1.0000   1.0000   1.0000   1.0000   1.0000   1.0000
     1.0000   1.0000   1.0000   1.0000   1.0000   1.0000  -0.0001  -0.0000
    -0.0000  -0.0000  -0.0000  -0.0000  -0.0000  -0.0000  -0.0000  -0.0000
    -0.0000  -0.0000  -0.0000  -0.0000  -0.0000  -0.0000  -0.0000  -0.0000

          k = 0.0000-0.2500 0.2500 ( 18095 PWs)   bands (ev):

   -22.7547 -22.7451 -22.7434 -21.9906 -21.9826 -21.9697 -21.9697 -21.9697
   -15.7403 -15.7403 -15.7403 -15.7396 -15.7396  -8.1537  -8.0568  -8.0043
    -7.9843  -7.9349  -7.9262  -7.8982  -7.8630  -7.8138  -3.4055  -2.5287
     4.1541   4.2478   4.8428   4.9676   5.2870   5.3483   6.6983   6.7879
     6.9632   7.2889   7.4216   7.8940   8.6848   8.7987   8.8572   9.0082
     9.4082   9.4942   9.8081   9.9023  10.1275  10.7175  10.9073  11.9087

     occupation numbers 
     1.0000   1.0000   1.0000   1.0000   1.0000   1.0000   1.0000   1.0000
     1.0000   1.0000   1.0000   1.0000   1.0000   1.0000   1.0000   1.0000
     1.0000   1.0000   1.0000   1.0000   1.0000   1.0000   1.0000   1.0000
     1.0000   1.0000   1.0000   1.0000   1.0000   1.0000  -0.0000  -0.0000
    -0.0000  -0.0000  -0.0000  -0.0000  -0.0000  -0.0000  -0.0000  -0.0000
    -0.0000  -0.0000  -0.0000  -0.0000  -0.0000  -0.0000  -0.0000  -0.0000

          k = 0.0000-0.2500-0.5000 ( 18136 PWs)   bands (ev):

   -22.7533 -22.7443 -22.7384 -21.9981 -21.9838 -21.9699 -21.9699 -21.9697
   -15.7403 -15.7403 -15.7403 -15.7396 -15.7395  -8.1857  -8.0241  -8.0241
    -7.9609  -7.9516  -7.9452  -7.8856  -7.8743  -7.8136  -3.3953  -2.2997
     3.5429   4.0338   4.8076   4.8538   5.1352   5.2556   6.9725   7.1445
     7.4390   7.5108   7.8022   8.1213   8.4071   8.6919   8.8290   9.2045
     9.2253   9.3628   9.4926   9.8168   9.9201  10.1255  11.2304  11.5412

     occupation numbers 
     1.0000   1.0000   1.0000   1.0000   1.0000   1.0000   1.0000   1.0000
     1.0000   1.0000   1.0000   1.0000   1.0000   1.0000   1.0000   1.0000
     1.0000   1.0000   1.0000   1.0000   1.0000   1.0000   1.0000   1.0000
     1.0000   1.0000   1.0000   1.0000   1.0000   1.0000  -0.0000  -0.0000
    -0.0000  -0.0000  -0.0000  -0.0000  -0.0000  -0.0000  -0.0000  -0.0000
    -0.0000  -0.0000  -0.0000  -0.0000  -0.0000  -0.0000  -0.0000  -0.0000

          k = 0.0000-0.2500-0.2500 ( 18095 PWs)   bands (ev):

   -22.7547 -22.7451 -22.7434 -21.9906 -21.9826 -21.9697 -21.9697 -21.9697
   -15.7403 -15.7403 -15.7403 -15.7396 -15.7396  -8.1537  -8.0568  -8.0043
    -7.9843  -7.9349  -7.9262  -7.8982  -7.8630  -7.8138  -3.4055  -2.5287
     4.1541   4.2478   4.8428   4.9676   5.2870   5.3483   6.6983   6.7879
     6.9632   7.2889   7.4216   7.8940   8.6848   8.7987   8.8572   9.0082
     9.4082   9.4942   9.8081   9.9023  10.1275  10.7175  10.9072  11.9088

     occupation numbers 
     1.0000   1.0000   1.0000   1.0000   1.0000   1.0000   1.0000   1.0000
     1.0000   1.0000   1.0000   1.0000   1.0000   1.0000   1.0000   1.0000
     1.0000   1.0000   1.0000   1.0000   1.0000   1.0000   1.0000   1.0000
     1.0000   1.0000   1.0000   1.0000   1.0000   1.0000  -0.0000  -0.0000
    -0.0000  -0.0000  -0.0000  -0.0000  -0.0000  -0.0000  -0.0000  -0.0000
    -0.0000  -0.0000  -0.0000  -0.0000  -0.0000  -0.0000  -0.0000  -0.0000

          k = 0.2500 0.0000 0.0000 ( 18145 PWs)   bands (ev):

   -22.7579 -22.7481 -22.7441 -21.9867 -21.9787 -21.9698 -21.9698 -21.9697
   -15.7403 -15.7403 -15.7403 -15.7396 -15.7396  -8.0807  -8.0800  -8.0800
    -7.9317  -7.9317  -7.9266  -7.8882  -7.8427  -7.8427  -3.4162  -2.7349
     4.3791   4.7946   5.0936   5.0936   5.4976   5.4976   6.3739   6.4817
     6.7221   7.1534   7.1534   7.2813   8.4220   9.0307   9.0307   9.0772
     9.3192   9.6181  10.0701  10.0701  10.5030  10.7856  11.2932  11.2932

     occupation numbers 
     1.0000   1.0000   1.0000   1.0000   1.0000   1.0000   1.0000   1.0000
     1.0000   1.0000   1.0000   1.0000   1.0000   1.0000   1.0000   1.0000
     1.0000   1.0000   1.0000   1.0000   1.0000   1.0000   1.0000   1.0000
     1.0000   1.0000   1.0000   1.0000   1.0000   1.0000  -0.0001  -0.0000
    -0.0000  -0.0000  -0.0000  -0.0000  -0.0000  -0.0000  -0.0000  -0.0000
    -0.0000  -0.0000  -0.0000  -0.0000  -0.0000  -0.0000  -0.0000  -0.0000

          k = 0.2500 0.0000 0.2500 ( 18095 PWs)   bands (ev):

   -22.7547 -22.7451 -22.7434 -21.9906 -21.9826 -21.9697 -21.9697 -21.9697
   -15.7403 -15.7403 -15.7403 -15.7396 -15.7396  -8.1537  -8.0568  -8.0043
    -7.9843  -7.9349  -7.9262  -7.8982  -7.8630  -7.8138  -3.4055  -2.5287
     4.1541   4.2478   4.8428   4.9676   5.2870   5.3483   6.6983   6.7879
     6.9632   7.2889   7.4216   7.8940   8.6848   8.7987   8.8572   9.0082
     9.4082   9.4942   9.8082   9.9023  10.1275  10.7175  10.9072  11.9088

     occupation numbers 
     1.0000   1.0000   1.0000   1.0000   1.0000   1.0000   1.0000   1.0000
     1.0000   1.0000   1.0000   1.0000   1.0000   1.0000   1.0000   1.0000
     1.0000   1.0000   1.0000   1.0000   1.0000   1.0000   1.0000   1.0000
     1.0000   1.0000   1.0000   1.0000   1.0000   1.0000  -0.0000  -0.0000
    -0.0000  -0.0000  -0.0000  -0.0000  -0.0000  -0.0000  -0.0000  -0.0000
    -0.0000  -0.0000  -0.0000  -0.0000  -0.0000  -0.0000  -0.0000  -0.0000

          k = 0.2500 0.0000-0.5000 ( 18136 PWs)   bands (ev):

   -22.7533 -22.7443 -22.7384 -21.9981 -21.9838 -21.9699 -21.9699 -21.9697
   -15.7403 -15.7403 -15.7403 -15.7396 -15.7395  -8.1857  -8.0241  -8.0241
    -7.9609  -7.9516  -7.9452  -7.8856  -7.8743  -7.8136  -3.3953  -2.2997
     3.5429   4.0338   4.8076   4.8538   5.1352   5.2556   6.9725   7.1445
     7.4390   7.5108   7.8022   8.1213   8.4071   8.6919   8.8290   9.2045
     9.2253   9.3628   9.4926   9.8168   9.9201  10.1254  11.2304  11.5412

     occupation numbers 
     1.0000   1.0000   1.0000   1.0000   1.0000   1.0000   1.0000   1.0000
     1.0000   1.0000   1.0000   1.0000   1.0000   1.0000   1.0000   1.0000
     1.0000   1.0000   1.0000   1.0000   1.0000   1.0000   1.0000   1.0000
     1.0000   1.0000   1.0000   1.0000   1.0000   1.0000  -0.0000  -0.0000
    -0.0000  -0.0000  -0.0000  -0.0000  -0.0000  -0.0000  -0.0000  -0.0000
    -0.0000  -0.0000  -0.0000  -0.0000  -0.0000  -0.0000  -0.0000  -0.0000

          k = 0.2500 0.0000-0.2500 ( 18095 PWs)   bands (ev):

   -22.7547 -22.7451 -22.7434 -21.9906 -21.9826 -21.9697 -21.9697 -21.9697
   -15.7403 -15.7403 -15.7403 -15.7396 -15.7396  -8.1537  -8.0568  -8.0043
    -7.9843  -7.9349  -7.9262  -7.8982  -7.8630  -7.8138  -3.4055  -2.5287
     4.1541   4.2478   4.8428   4.9676   5.2870   5.3483   6.6983   6.7879
     6.9632   7.2889   7.4216   7.8940   8.6848   8.7987   8.8572   9.0082
     9.4082   9.4942   9.8081   9.9023  10.1275  10.7175  10.9072  11.9088

     occupation numbers 
     1.0000   1.0000   1.0000   1.0000   1.0000   1.0000   1.0000   1.0000
     1.0000   1.0000   1.0000   1.0000   1.0000   1.0000   1.0000   1.0000
     1.0000   1.0000   1.0000   1.0000   1.0000   1.0000   1.0000   1.0000
     1.0000   1.0000   1.0000   1.0000   1.0000   1.0000  -0.0000  -0.0000
    -0.0000  -0.0000  -0.0000  -0.0000  -0.0000  -0.0000  -0.0000  -0.0000
    -0.0000  -0.0000  -0.0000  -0.0000  -0.0000  -0.0000  -0.0000  -0.0000

          k = 0.2500 0.2500 0.0000 ( 18095 PWs)   bands (ev):

   -22.7547 -22.7451 -22.7434 -21.9906 -21.9826 -21.9697 -21.9697 -21.9697
   -15.7403 -15.7403 -15.7403 -15.7396 -15.7396  -8.1537  -8.0568  -8.0043
    -7.9843  -7.9349  -7.9262  -7.8982  -7.8630  -7.8138  -3.4055  -2.5287
     4.1541   4.2478   4.8428   4.9676   5.2870   5.3483   6.6983   6.7879
     6.9632   7.2889   7.4216   7.8940   8.6848   8.7987   8.8572   9.0082
     9.4082   9.4942   9.8081   9.9023  10.1275  10.7175  10.9072  11.9088

     occupation numbers 
     1.0000   1.0000   1.0000   1.0000   1.0000   1.0000   1.0000   1.0000
     1.0000   1.0000   1.0000   1.0000   1.0000   1.0000   1.0000   1.0000
     1.0000   1.0000   1.0000   1.0000   1.0000   1.0000   1.0000   1.0000
     1.0000   1.0000   1.0000   1.0000   1.0000   1.0000  -0.0000  -0.0000
    -0.0000  -0.0000  -0.0000  -0.0000  -0.0000  -0.0000  -0.0000  -0.0000
    -0.0000  -0.0000  -0.0000  -0.0000  -0.0000  -0.0000  -0.0000  -0.0000

          k = 0.2500 0.2500 0.2500 ( 18079 PWs)   bands (ev):

   -22.7496 -22.7433 -22.7433 -21.9907 -21.9907 -21.9697 -21.9697 -21.9697
   -15.7403 -15.7403 -15.7403 -15.7396 -15.7396  -8.2442  -8.0092  -8.0092
    -7.9937  -7.9358  -7.9358  -7.8855  -7.8212  -7.8212  -3.4006  -2.3261
     4.0916   4.0916   4.1026   4.9539   5.2461   5.2461   6.8605   7.0617
     7.0617   7.6196   7.8229   7.8229   8.5247   8.5247   8.7822   9.3176
     9.3176   9.3459   9.5311  10.5284  10.7751  10.7751  11.0149  11.0149

     occupation numbers 
     1.0000   1.0000   1.0000   1.0000   1.0000   1.0000   1.0000   1.0000
     1.0000   1.0000   1.0000   1.0000   1.0000   1.0000   1.0000   1.0000
     1.0000   1.0000   1.0000   1.0000   1.0000   1.0000   1.0000   1.0000
     1.0000   1.0000   1.0000   1.0000   1.0000   1.0000  -0.0000  -0.0000
    -0.0000  -0.0000  -0.0000  -0.0000  -0.0000  -0.0000  -0.0000  -0.0000
    -0.0000  -0.0000  -0.0000  -0.0000  -0.0000  -0.0000  -0.0000  -0.0000

          k = 0.2500 0.2500-0.5000 ( 18128 PWs)   bands (ev):

   -22.7475 -22.7433 -22.7384 -21.9991 -21.9908 -21.9699 -21.9698 -21.9698
   -15.7403 -15.7403 -15.7403 -15.7396 -15.7395  -8.3010  -8.0277  -8.0144
    -7.9998  -7.9352  -7.8813  -7.8700  -7.8327  -7.8143  -3.3960  -2.0990
     3.4434   3.9800   4.0254   4.9603   5.0992   5.2398   7.1829   7.2307
     7.5463   7.6282   7.8697   7.9100   8.5160   8.5984   8.6075   9.1860
     9.3454   9.3914   9.4564   9.8997  10.8028  10.8623  11.1950  11.4588

     occupation numbers 
     1.0000   1.0000   1.0000   1.0000   1.0000   1.0000   1.0000   1.0000
     1.0000   1.0000   1.0000   1.0000   1.0000   1.0000   1.0000   1.0000
     1.0000   1.0000   1.0000   1.0000   1.0000   1.0000   1.0000   1.0000
     1.0000   1.0000   1.0000   1.0000   1.0000   1.0000  -0.0000  -0.0000
    -0.0000  -0.0000  -0.0000  -0.0000  -0.0000  -0.0000  -0.0000  -0.0000
    -0.0000  -0.0000  -0.0000  -0.0000  -0.0000  -0.0000  -0.0000  -0.0000

          k = 0.2500 0.2500-0.2500 ( 18079 PWs)   bands (ev):

   -22.7496 -22.7433 -22.7433 -21.9907 -21.9907 -21.9697 -21.9697 -21.9697
   -15.7403 -15.7403 -15.7403 -15.7396 -15.7396  -8.2442  -8.0092  -8.0092
    -7.9937  -7.9358  -7.9358  -7.8855  -7.8212  -7.8212  -3.4006  -2.3261
     4.0916   4.0916   4.1026   4.9539   5.2461   5.2461   6.8605   7.0617
     7.0617   7.6196   7.8229   7.8229   8.5247   8.5247   8.7822   9.3176
     9.3176   9.3459   9.5311  10.5284  10.7751  10.7751  11.0149  11.0149

     occupation numbers 
     1.0000   1.0000   1.0000   1.0000   1.0000   1.0000   1.0000   1.0000
     1.0000   1.0000   1.0000   1.0000   1.0000   1.0000   1.0000   1.0000
     1.0000   1.0000   1.0000   1.0000   1.0000   1.0000   1.0000   1.0000
     1.0000   1.0000   1.0000   1.0000   1.0000   1.0000  -0.0000  -0.0000
    -0.0000  -0.0000  -0.0000  -0.0000  -0.0000  -0.0000  -0.0000  -0.0000
    -0.0000  -0.0000  -0.0000  -0.0000  -0.0000  -0.0000  -0.0000  -0.0000

          k = 0.2500-0.5000 0.0000 ( 18136 PWs)   bands (ev):

   -22.7533 -22.7443 -22.7384 -21.9981 -21.9838 -21.9699 -21.9699 -21.9697
   -15.7403 -15.7403 -15.7403 -15.7396 -15.7395  -8.1857  -8.0241  -8.0241
    -7.9609  -7.9516  -7.9452  -7.8856  -7.8743  -7.8136  -3.3953  -2.2997
     3.5429   4.0338   4.8076   4.8538   5.1352   5.2556   6.9725   7.1445
     7.4390   7.5108   7.8022   8.1213   8.4071   8.6919   8.8290   9.2045
     9.2253   9.3628   9.4926   9.8168   9.9201  10.1254  11.2304  11.5412

     occupation numbers 
     1.0000   1.0000   1.0000   1.0000   1.0000   1.0000   1.0000   1.0000
     1.0000   1.0000   1.0000   1.0000   1.0000   1.0000   1.0000   1.0000
     1.0000   1.0000   1.0000   1.0000   1.0000   1.0000   1.0000   1.0000
     1.0000   1.0000   1.0000   1.0000   1.0000   1.0000  -0.0000  -0.0000
    -0.0000  -0.0000  -0.0000  -0.0000  -0.0000  -0.0000  -0.0000  -0.0000
    -0.0000  -0.0000  -0.0000  -0.0000  -0.0000  -0.0000  -0.0000  -0.0000

          k = 0.2500-0.5000 0.2500 ( 18128 PWs)   bands (ev):

   -22.7475 -22.7433 -22.7384 -21.9991 -21.9908 -21.9699 -21.9698 -21.9698
   -15.7403 -15.7403 -15.7403 -15.7396 -15.7395  -8.3010  -8.0277  -8.0144
    -7.9998  -7.9352  -7.8813  -7.8700  -7.8327  -7.8143  -3.3960  -2.0990
     3.4434   3.9800   4.0254   4.9603   5.0992   5.2398   7.1829   7.2307
     7.5463   7.6282   7.8697   7.9100   8.5160   8.5984   8.6075   9.1860
     9.3454   9.3914   9.4564   9.8997  10.8028  10.8623  11.1950  11.5747

     occupation numbers 
     1.0000   1.0000   1.0000   1.0000   1.0000   1.0000   1.0000   1.0000
     1.0000   1.0000   1.0000   1.0000   1.0000   1.0000   1.0000   1.0000
     1.0000   1.0000   1.0000   1.0000   1.0000   1.0000   1.0000   1.0000
     1.0000   1.0000   1.0000   1.0000   1.0000   1.0000  -0.0000  -0.0000
    -0.0000  -0.0000  -0.0000  -0.0000  -0.0000  -0.0000  -0.0000  -0.0000
    -0.0000  -0.0000  -0.0000  -0.0000  -0.0000  -0.0000  -0.0000  -0.0000

          k = 0.2500-0.5000-0.5000 ( 18112 PWs)   bands (ev):

   -22.7454 -22.7384 -22.7384 -22.0033 -21.9949 -21.9698 -21.9698 -21.9697
   -15.7403 -15.7403 -15.7403 -15.7395 -15.7395  -8.3745  -8.0505  -8.0197
    -8.0197  -7.8757  -7.8757  -7.8506  -7.8456  -7.7755  -3.3966  -1.8714
     3.3529   3.3529   3.9519   5.0758   5.0758   5.2009   7.3275   7.5037
     7.5037   7.5392   7.8092   7.8092   8.1320   8.9225   9.2257   9.2257
     9.3122   9.4764   9.7766   9.8173  10.6585  10.6585  11.5879  11.5879

     occupation numbers 
     1.0000   1.0000   1.0000   1.0000   1.0000   1.0000   1.0000   1.0000
     1.0000   1.0000   1.0000   1.0000   1.0000   1.0000   1.0000   1.0000
     1.0000   1.0000   1.0000   1.0000   1.0000   1.0000   1.0000   1.0000
     1.0000   1.0000   1.0000   1.0000   1.0000   1.0000  -0.0000  -0.0000
    -0.0000  -0.0000  -0.0000  -0.0000  -0.0000  -0.0000  -0.0000  -0.0000
    -0.0000  -0.0000  -0.0000  -0.0000  -0.0000  -0.0000  -0.0000  -0.0000

          k = 0.2500-0.5000-0.2500 ( 18128 PWs)   bands (ev):

   -22.7475 -22.7433 -22.7384 -21.9991 -21.9908 -21.9699 -21.9698 -21.9698
   -15.7403 -15.7403 -15.7403 -15.7396 -15.7395  -8.3010  -8.0277  -8.0144
    -7.9998  -7.9352  -7.8813  -7.8700  -7.8327  -7.8143  -3.3960  -2.0990
     3.4434   3.9800   4.0254   4.9603   5.0992   5.2398   7.1829   7.2307
     7.5463   7.6282   7.8697   7.9100   8.5160   8.5984   8.6075   9.1860
     9.3454   9.3914   9.4564   9.8997  10.8028  10.8623  11.1952  11.5746

     occupation numbers 
     1.0000   1.0000   1.0000   1.0000   1.0000   1.0000   1.0000   1.0000
     1.0000   1.0000   1.0000   1.0000   1.0000   1.0000   1.0000   1.0000
     1.0000   1.0000   1.0000   1.0000   1.0000   1.0000   1.0000   1.0000
     1.0000   1.0000   1.0000   1.0000   1.0000   1.0000  -0.0000  -0.0000
    -0.0000  -0.0000  -0.0000  -0.0000  -0.0000  -0.0000  -0.0000  -0.0000
    -0.0000  -0.0000  -0.0000  -0.0000  -0.0000  -0.0000  -0.0000  -0.0000

          k = 0.2500-0.2500 0.0000 ( 18095 PWs)   bands (ev):

   -22.7547 -22.7451 -22.7434 -21.9906 -21.9826 -21.9697 -21.9697 -21.9697
   -15.7403 -15.7403 -15.7403 -15.7396 -15.7396  -8.1537  -8.0568  -8.0043
    -7.9843  -7.9349  -7.9262  -7.8982  -7.8630  -7.8138  -3.4055  -2.5287
     4.1541   4.2478   4.8428   4.9676   5.2870   5.3483   6.6983   6.7879
     6.9632   7.2889   7.4216   7.8940   8.6848   8.7987   8.8572   9.0082
     9.4082   9.4942   9.8081   9.9023  10.1275  10.7175  10.9072  11.9088

     occupation numbers 
     1.0000   1.0000   1.0000   1.0000   1.0000   1.0000   1.0000   1.0000
     1.0000   1.0000   1.0000   1.0000   1.0000   1.0000   1.0000   1.0000
     1.0000   1.0000   1.0000   1.0000   1.0000   1.0000   1.0000   1.0000
     1.0000   1.0000   1.0000   1.0000   1.0000   1.0000  -0.0000  -0.0000
    -0.0000  -0.0000  -0.0000  -0.0000  -0.0000  -0.0000  -0.0000  -0.0000
    -0.0000  -0.0000  -0.0000  -0.0000  -0.0000  -0.0000  -0.0000  -0.0000

          k = 0.2500-0.2500 0.2500 ( 18079 PWs)   bands (ev):

   -22.7496 -22.7433 -22.7433 -21.9907 -21.9907 -21.9697 -21.9697 -21.9697
   -15.7403 -15.7403 -15.7403 -15.7396 -15.7396  -8.2442  -8.0092  -8.0092
    -7.9937  -7.9358  -7.9358  -7.8855  -7.8212  -7.8212  -3.4006  -2.3261
     4.0916   4.0916   4.1026   4.9539   5.2461   5.2461   6.8605   7.0617
     7.0617   7.6196   7.8229   7.8229   8.5247   8.5247   8.7822   9.3176
     9.3176   9.3459   9.5311  10.5284  10.7751  10.7751  11.0149  11.0149

     occupation numbers 
     1.0000   1.0000   1.0000   1.0000   1.0000   1.0000   1.0000   1.0000
     1.0000   1.0000   1.0000   1.0000   1.0000   1.0000   1.0000   1.0000
     1.0000   1.0000   1.0000   1.0000   1.0000   1.0000   1.0000   1.0000
     1.0000   1.0000   1.0000   1.0000   1.0000   1.0000  -0.0000  -0.0000
    -0.0000  -0.0000  -0.0000  -0.0000  -0.0000  -0.0000  -0.0000  -0.0000
    -0.0000  -0.0000  -0.0000  -0.0000  -0.0000  -0.0000  -0.0000  -0.0000

          k = 0.2500-0.2500-0.5000 ( 18128 PWs)   bands (ev):

   -22.7475 -22.7433 -22.7384 -21.9991 -21.9908 -21.9699 -21.9698 -21.9698
   -15.7403 -15.7403 -15.7403 -15.7396 -15.7395  -8.3010  -8.0277  -8.0144
    -7.9998  -7.9352  -7.8813  -7.8700  -7.8327  -7.8143  -3.3960  -2.0990
     3.4434   3.9800   4.0254   4.9603   5.0992   5.2398   7.1829   7.2307
     7.5463   7.6282   7.8697   7.9100   8.5160   8.5984   8.6075   9.1860
     9.3454   9.3914   9.4564   9.8997  10.8028  10.8623  11.1952  11.5748

     occupation numbers 
     1.0000   1.0000   1.0000   1.0000   1.0000   1.0000   1.0000   1.0000
     1.0000   1.0000   1.0000   1.0000   1.0000   1.0000   1.0000   1.0000
     1.0000   1.0000   1.0000   1.0000   1.0000   1.0000   1.0000   1.0000
     1.0000   1.0000   1.0000   1.0000   1.0000   1.0000  -0.0000  -0.0000
    -0.0000  -0.0000  -0.0000  -0.0000  -0.0000  -0.0000  -0.0000  -0.0000
    -0.0000  -0.0000  -0.0000  -0.0000  -0.0000  -0.0000  -0.0000  -0.0000

          k = 0.2500-0.2500-0.2500 ( 18079 PWs)   bands (ev):

   -22.7496 -22.7433 -22.7433 -21.9907 -21.9907 -21.9697 -21.9697 -21.9697
   -15.7403 -15.7403 -15.7403 -15.7396 -15.7396  -8.2442  -8.0092  -8.0092
    -7.9937  -7.9358  -7.9358  -7.8855  -7.8212  -7.8212  -3.4006  -2.3261
     4.0916   4.0916   4.1026   4.9539   5.2461   5.2461   6.8605   7.0617
     7.0617   7.6196   7.8229   7.8229   8.5247   8.5247   8.7822   9.3176
     9.3176   9.3459   9.5311  10.5284  10.7751  10.7751  11.0149  11.0149

     occupation numbers 
     1.0000   1.0000   1.0000   1.0000   1.0000   1.0000   1.0000   1.0000
     1.0000   1.0000   1.0000   1.0000   1.0000   1.0000   1.0000   1.0000
     1.0000   1.0000   1.0000   1.0000   1.0000   1.0000   1.0000   1.0000
     1.0000   1.0000   1.0000   1.0000   1.0000   1.0000  -0.0000  -0.0000
    -0.0000  -0.0000  -0.0000  -0.0000  -0.0000  -0.0000  -0.0000  -0.0000
    -0.0000  -0.0000  -0.0000  -0.0000  -0.0000  -0.0000  -0.0000  -0.0000

          k =-0.5000 0.0000 0.0000 ( 18184 PWs)   bands (ev):

   -22.7564 -22.7481 -22.7385 -21.9953 -21.9786 -21.9700 -21.9700 -21.9699
   -15.7403 -15.7403 -15.7403 -15.7396 -15.7395  -8.0520  -8.0520  -8.0301
    -7.9770  -7.9456  -7.9456  -7.9285  -7.8572  -7.8572  -3.3994  -2.5039
     3.6916   4.4267   5.0141   5.0141   5.3075   5.3075   6.5967   6.7693
     7.2452   7.7945   7.8507   7.8507   8.1243   8.6506   9.1101   9.1846
     9.3644   9.3644   9.5501   9.5501  10.5772  10.6059  10.6059  10.7879

     occupation numbers 
     1.0000   1.0000   1.0000   1.0000   1.0000   1.0000   1.0000   1.0000
     1.0000   1.0000   1.0000   1.0000   1.0000   1.0000   1.0000   1.0000
     1.0000   1.0000   1.0000   1.0000   1.0000   1.0000   1.0000   1.0000
     1.0000   1.0000   1.0000   1.0000   1.0000   1.0000  -0.0000  -0.0000
    -0.0000  -0.0000  -0.0000  -0.0000  -0.0000  -0.0000  -0.0000  -0.0000
    -0.0000  -0.0000  -0.0000  -0.0000  -0.0000  -0.0000  -0.0000  -0.0000

          k =-0.5000 0.0000 0.2500 ( 18136 PWs)   bands (ev):

   -22.7533 -22.7443 -22.7384 -21.9981 -21.9838 -21.9699 -21.9699 -21.9697
   -15.7403 -15.7403 -15.7403 -15.7396 -15.7395  -8.1857  -8.0241  -8.0241
    -7.9609  -7.9516  -7.9452  -7.8856  -7.8743  -7.8136  -3.3953  -2.2997
     3.5429   4.0338   4.8076   4.8538   5.1352   5.2556   6.9725   7.1445
     7.4390   7.5108   7.8022   8.1213   8.4071   8.6919   8.8290   9.2045
     9.2253   9.3628   9.4926   9.8168   9.9201  10.1254  11.2304  11.5412

     occupation numbers 
     1.0000   1.0000   1.0000   1.0000   1.0000   1.0000   1.0000   1.0000
     1.0000   1.0000   1.0000   1.0000   1.0000   1.0000   1.0000   1.0000
     1.0000   1.0000   1.0000   1.0000   1.0000   1.0000   1.0000   1.0000
     1.0000   1.0000   1.0000   1.0000   1.0000   1.0000  -0.0000  -0.0000
    -0.0000  -0.0000  -0.0000  -0.0000  -0.0000  -0.0000  -0.0000  -0.0000
    -0.0000  -0.0000  -0.0000  -0.0000  -0.0000  -0.0000  -0.0000  -0.0000

          k =-0.5000 0.0000-0.5000 ( 18176 PWs)   bands (ev):

   -22.7522 -22.7384 -22.7384 -22.0035 -21.9869 -21.9700 -21.9700 -21.9698
   -15.7403 -15.7403 -15.7403 -15.7396 -15.7395  -8.2538  -8.0518  -7.9655
    -7.9514  -7.9514  -7.9449  -7.9449  -7.8456  -7.7757  -3.3912  -2.0708
     3.4144   3.4144   4.7294   4.9871   4.9871   5.2051   7.3916   7.3916
     7.5440   7.5658   7.8245   7.8245   8.6297   8.6744   9.0419   9.0837
     9.0837   9.4282   9.4477   9.7313   9.8608  10.7018  10.7018  11.7518

     occupation numbers 
     1.0000   1.0000   1.0000   1.0000   1.0000   1.0000   1.0000   1.0000
     1.0000   1.0000   1.0000   1.0000   1.0000   1.0000   1.0000   1.0000
     1.0000   1.0000   1.0000   1.0000   1.0000   1.0000   1.0000   1.0000
     1.0000   1.0000   1.0000   1.0000   1.0000   1.0000  -0.0000  -0.0000
    -0.0000  -0.0000  -0.0000  -0.0000  -0.0000  -0.0000  -0.0000  -0.0000
    -0.0000  -0.0000  -0.0000  -0.0000  -0.0000  -0.0000  -0.0000  -0.0000

          k =-0.5000 0.0000-0.2500 ( 18136 PWs)   bands (ev):

   -22.7533 -22.7443 -22.7384 -21.9981 -21.9838 -21.9699 -21.9699 -21.9697
   -15.7403 -15.7403 -15.7403 -15.7396 -15.7395  -8.1857  -8.0241  -8.0241
    -7.9609  -7.9516  -7.9452  -7.8856  -7.8743  -7.8136  -3.3953  -2.2997
     3.5429   4.0338   4.8076   4.8538   5.1352   5.2556   6.9725   7.1445
     7.4390   7.5108   7.8022   8.1213   8.4071   8.6919   8.8290   9.2045
     9.2253   9.3628   9.4926   9.8168   9.9201  10.1255  11.2304  11.5413

     occupation numbers 
     1.0000   1.0000   1.0000   1.0000   1.0000   1.0000   1.0000   1.0000
     1.0000   1.0000   1.0000   1.0000   1.0000   1.0000   1.0000   1.0000
     1.0000   1.0000   1.0000   1.0000   1.0000   1.0000   1.0000   1.0000
     1.0000   1.0000   1.0000   1.0000   1.0000   1.0000  -0.0000  -0.0000
    -0.0000  -0.0000  -0.0000  -0.0000  -0.0000  -0.0000  -0.0000  -0.0000
    -0.0000  -0.0000  -0.0000  -0.0000  -0.0000  -0.0000  -0.0000  -0.0000

          k =-0.5000 0.2500 0.0000 ( 18136 PWs)   bands (ev):

   -22.7533 -22.7443 -22.7384 -21.9981 -21.9838 -21.9699 -21.9699 -21.9697
   -15.7403 -15.7403 -15.7403 -15.7396 -15.7395  -8.1857  -8.0241  -8.0241
    -7.9609  -7.9516  -7.9452  -7.8856  -7.8743  -7.8136  -3.3953  -2.2997
     3.5429   4.0338   4.8076   4.8538   5.1352   5.2556   6.9725   7.1445
     7.4390   7.5108   7.8022   8.1213   8.4071   8.6919   8.8290   9.2045
     9.2253   9.3628   9.4926   9.8168   9.9201  10.1255  11.2304  11.5413

     occupation numbers 
     1.0000   1.0000   1.0000   1.0000   1.0000   1.0000   1.0000   1.0000
     1.0000   1.0000   1.0000   1.0000   1.0000   1.0000   1.0000   1.0000
     1.0000   1.0000   1.0000   1.0000   1.0000   1.0000   1.0000   1.0000
     1.0000   1.0000   1.0000   1.0000   1.0000   1.0000  -0.0000  -0.0000
    -0.0000  -0.0000  -0.0000  -0.0000  -0.0000  -0.0000  -0.0000  -0.0000
    -0.0000  -0.0000  -0.0000  -0.0000  -0.0000  -0.0000  -0.0000  -0.0000

          k =-0.5000 0.2500 0.2500 ( 18128 PWs)   bands (ev):

   -22.7475 -22.7433 -22.7384 -21.9991 -21.9908 -21.9699 -21.9698 -21.9698
   -15.7403 -15.7403 -15.7403 -15.7396 -15.7395  -8.3010  -8.0277  -8.0144
    -7.9998  -7.9352  -7.8813  -7.8700  -7.8327  -7.8143  -3.3960  -2.0990
     3.4434   3.9800   4.0254   4.9603   5.0992   5.2398   7.1829   7.2307
     7.5463   7.6282   7.8697   7.9100   8.5160   8.5984   8.6075   9.1860
     9.3454   9.3914   9.4564   9.8997  10.8029  10.8623  11.1953  11.5743

     occupation numbers 
     1.0000   1.0000   1.0000   1.0000   1.0000   1.0000   1.0000   1.0000
     1.0000   1.0000   1.0000   1.0000   1.0000   1.0000   1.0000   1.0000
     1.0000   1.0000   1.0000   1.0000   1.0000   1.0000   1.0000   1.0000
     1.0000   1.0000   1.0000   1.0000   1.0000   1.0000  -0.0000  -0.0000
    -0.0000  -0.0000  -0.0000  -0.0000  -0.0000  -0.0000  -0.0000  -0.0000
    -0.0000  -0.0000  -0.0000  -0.0000  -0.0000  -0.0000  -0.0000  -0.0000

          k =-0.5000 0.2500-0.5000 ( 18112 PWs)   bands (ev):

   -22.7454 -22.7384 -22.7384 -22.0033 -21.9949 -21.9698 -21.9698 -21.9697
   -15.7403 -15.7403 -15.7403 -15.7395 -15.7395  -8.3745  -8.0505  -8.0197
    -8.0197  -7.8757  -7.8757  -7.8506  -7.8456  -7.7755  -3.3966  -1.8714
     3.3529   3.3529   3.9519   5.0758   5.0758   5.2009   7.3275   7.5037
     7.5037   7.5392   7.8092   7.8092   8.1320   8.9225   9.2257   9.2257
     9.3122   9.4764   9.7766   9.8173  10.6585  10.6585  11.5879  11.5879

     occupation numbers 
     1.0000   1.0000   1.0000   1.0000   1.0000   1.0000   1.0000   1.0000
     1.0000   1.0000   1.0000   1.0000   1.0000   1.0000   1.0000   1.0000
     1.0000   1.0000   1.0000   1.0000   1.0000   1.0000   1.0000   1.0000
     1.0000   1.0000   1.0000   1.0000   1.0000   1.0000  -0.0000  -0.0000
    -0.0000  -0.0000  -0.0000  -0.0000  -0.0000  -0.0000  -0.0000  -0.0000
    -0.0000  -0.0000  -0.0000  -0.0000  -0.0000  -0.0000  -0.0000  -0.0000

          k =-0.5000 0.2500-0.2500 ( 18128 PWs)   bands (ev):

   -22.7475 -22.7433 -22.7384 -21.9991 -21.9908 -21.9699 -21.9698 -21.9698
   -15.7403 -15.7403 -15.7403 -15.7396 -15.7395  -8.3010  -8.0277  -8.0144
    -7.9998  -7.9352  -7.8813  -7.8700  -7.8327  -7.8143  -3.3960  -2.0990
     3.4434   3.9800   4.0254   4.9603   5.0992   5.2398   7.1829   7.2307
     7.5463   7.6282   7.8697   7.9100   8.5160   8.5984   8.6075   9.1860
     9.3454   9.3914   9.4564   9.8997  10.8028  10.8623  11.1950  11.4588

     occupation numbers 
     1.0000   1.0000   1.0000   1.0000   1.0000   1.0000   1.0000   1.0000
     1.0000   1.0000   1.0000   1.0000   1.0000   1.0000   1.0000   1.0000
     1.0000   1.0000   1.0000   1.0000   1.0000   1.0000   1.0000   1.0000
     1.0000   1.0000   1.0000   1.0000   1.0000   1.0000  -0.0000  -0.0000
    -0.0000  -0.0000  -0.0000  -0.0000  -0.0000  -0.0000  -0.0000  -0.0000
    -0.0000  -0.0000  -0.0000  -0.0000  -0.0000  -0.0000  -0.0000  -0.0000

          k =-0.5000-0.5000 0.0000 ( 18176 PWs)   bands (ev):

   -22.7522 -22.7384 -22.7384 -22.0035 -21.9869 -21.9700 -21.9700 -21.9698
   -15.7403 -15.7403 -15.7403 -15.7396 -15.7395  -8.2538  -8.0518  -7.9655
    -7.9514  -7.9514  -7.9449  -7.9449  -7.8456  -7.7757  -3.3912  -2.0708
     3.4144   3.4144   4.7294   4.9871   4.9871   5.2051   7.3916   7.3916
     7.5440   7.5658   7.8245   7.8245   8.6297   8.6744   9.0419   9.0837
     9.0837   9.4282   9.4477   9.7313   9.8608  10.7018  10.7018  11.7518

     occupation numbers 
     1.0000   1.0000   1.0000   1.0000   1.0000   1.0000   1.0000   1.0000
     1.0000   1.0000   1.0000   1.0000   1.0000   1.0000   1.0000   1.0000
     1.0000   1.0000   1.0000   1.0000   1.0000   1.0000   1.0000   1.0000
     1.0000   1.0000   1.0000   1.0000   1.0000   1.0000  -0.0000  -0.0000
    -0.0000  -0.0000  -0.0000  -0.0000  -0.0000  -0.0000  -0.0000  -0.0000
    -0.0000  -0.0000  -0.0000  -0.0000  -0.0000  -0.0000  -0.0000  -0.0000

          k =-0.5000-0.5000 0.2500 ( 18112 PWs)   bands (ev):

   -22.7454 -22.7384 -22.7384 -22.0033 -21.9949 -21.9698 -21.9698 -21.9697
   -15.7403 -15.7403 -15.7403 -15.7395 -15.7395  -8.3745  -8.0505  -8.0197
    -8.0197  -7.8757  -7.8757  -7.8506  -7.8456  -7.7755  -3.3966  -1.8714
     3.3529   3.3529   3.9519   5.0758   5.0758   5.2009   7.3275   7.5037
     7.5037   7.5392   7.8092   7.8092   8.1320   8.9225   9.2257   9.2257
     9.3122   9.4764   9.7766   9.8173  10.6585  10.6585  11.5879  11.5879

     occupation numbers 
     1.0000   1.0000   1.0000   1.0000   1.0000   1.0000   1.0000   1.0000
     1.0000   1.0000   1.0000   1.0000   1.0000   1.0000   1.0000   1.0000
     1.0000   1.0000   1.0000   1.0000   1.0000   1.0000   1.0000   1.0000
     1.0000   1.0000   1.0000   1.0000   1.0000   1.0000  -0.0000  -0.0000
    -0.0000  -0.0000  -0.0000  -0.0000  -0.0000  -0.0000  -0.0000  -0.0000
    -0.0000  -0.0000  -0.0000  -0.0000  -0.0000  -0.0000  -0.0000  -0.0000

          k =-0.5000-0.5000-0.5000 ( 18048 PWs)   bands (ev):

   -22.7384 -22.7384 -22.7384 -22.0031 -22.0031 -21.9696 -21.9696 -21.9696
   -15.7403 -15.7403 -15.7403 -15.7395 -15.7395  -8.4556  -8.0491  -8.0491
    -8.0491  -7.8455  -7.8455  -7.8455  -7.7754  -7.7754  -3.4020  -1.6425
     3.2912   3.2912   3.2912   5.2002   5.2002   5.2002   7.1315   7.3623
     7.3623   7.3623   7.9021   7.9021   7.9021   9.2112   9.2112  10.0816
    10.0816  10.0816  10.4143  10.4143  10.4143  10.6267  10.8203  10.8203

     occupation numbers 
     1.0000   1.0000   1.0000   1.0000   1.0000   1.0000   1.0000   1.0000
     1.0000   1.0000   1.0000   1.0000   1.0000   1.0000   1.0000   1.0000
     1.0000   1.0000   1.0000   1.0000   1.0000   1.0000   1.0000   1.0000
     1.0000   1.0000   1.0000   1.0000   1.0000   1.0000  -0.0000  -0.0000
    -0.0000  -0.0000  -0.0000  -0.0000  -0.0000  -0.0000  -0.0000  -0.0000
    -0.0000  -0.0000  -0.0000  -0.0000  -0.0000  -0.0000  -0.0000  -0.0000

          k =-0.5000-0.5000-0.2500 ( 18112 PWs)   bands (ev):

   -22.7454 -22.7384 -22.7384 -22.0033 -21.9949 -21.9698 -21.9698 -21.9697
   -15.7403 -15.7403 -15.7403 -15.7395 -15.7395  -8.3745  -8.0505  -8.0197
    -8.0197  -7.8757  -7.8757  -7.8506  -7.8456  -7.7755  -3.3966  -1.8714
     3.3529   3.3529   3.9519   5.0758   5.0758   5.2009   7.3275   7.5037
     7.5037   7.5392   7.8092   7.8092   8.1320   8.9225   9.2257   9.2257
     9.3122   9.4764   9.7766   9.8173  10.6585  10.6585  11.5879  11.7283

     occupation numbers 
     1.0000   1.0000   1.0000   1.0000   1.0000   1.0000   1.0000   1.0000
     1.0000   1.0000   1.0000   1.0000   1.0000   1.0000   1.0000   1.0000
     1.0000   1.0000   1.0000   1.0000   1.0000   1.0000   1.0000   1.0000
     1.0000   1.0000   1.0000   1.0000   1.0000   1.0000  -0.0000  -0.0000
    -0.0000  -0.0000  -0.0000  -0.0000  -0.0000  -0.0000  -0.0000  -0.0000
    -0.0000  -0.0000  -0.0000  -0.0000  -0.0000  -0.0000  -0.0000  -0.0000

          k =-0.5000-0.2500 0.0000 ( 18136 PWs)   bands (ev):

   -22.7533 -22.7443 -22.7384 -21.9981 -21.9838 -21.9699 -21.9699 -21.9697
   -15.7403 -15.7403 -15.7403 -15.7396 -15.7395  -8.1857  -8.0241  -8.0241
    -7.9609  -7.9516  -7.9452  -7.8856  -7.8743  -7.8136  -3.3953  -2.2997
     3.5429   4.0338   4.8076   4.8538   5.1352   5.2556   6.9725   7.1445
     7.4390   7.5108   7.8022   8.1213   8.4071   8.6919   8.8290   9.2045
     9.2253   9.3628   9.4926   9.8168   9.9201  10.1254  11.2304  11.5412

     occupation numbers 
     1.0000   1.0000   1.0000   1.0000   1.0000   1.0000   1.0000   1.0000
     1.0000   1.0000   1.0000   1.0000   1.0000   1.0000   1.0000   1.0000
     1.0000   1.0000   1.0000   1.0000   1.0000   1.0000   1.0000   1.0000
     1.0000   1.0000   1.0000   1.0000   1.0000   1.0000  -0.0000  -0.0000
    -0.0000  -0.0000  -0.0000  -0.0000  -0.0000  -0.0000  -0.0000  -0.0000
    -0.0000  -0.0000  -0.0000  -0.0000  -0.0000  -0.0000  -0.0000  -0.0000

          k =-0.5000-0.2500 0.2500 ( 18128 PWs)   bands (ev):

   -22.7475 -22.7433 -22.7384 -21.9991 -21.9908 -21.9699 -21.9698 -21.9698
   -15.7403 -15.7403 -15.7403 -15.7396 -15.7395  -8.3010  -8.0277  -8.0144
    -7.9998  -7.9352  -7.8813  -7.8700  -7.8327  -7.8143  -3.3960  -2.0990
     3.4434   3.9800   4.0254   4.9603   5.0992   5.2398   7.1829   7.2307
     7.5463   7.6282   7.8697   7.9100   8.5160   8.5984   8.6075   9.1860
     9.3454   9.3914   9.4564   9.8997  10.8028  10.8623  11.1950  11.4588

     occupation numbers 
     1.0000   1.0000   1.0000   1.0000   1.0000   1.0000   1.0000   1.0000
     1.0000   1.0000   1.0000   1.0000   1.0000   1.0000   1.0000   1.0000
     1.0000   1.0000   1.0000   1.0000   1.0000   1.0000   1.0000   1.0000
     1.0000   1.0000   1.0000   1.0000   1.0000   1.0000  -0.0000  -0.0000
    -0.0000  -0.0000  -0.0000  -0.0000  -0.0000  -0.0000  -0.0000  -0.0000
    -0.0000  -0.0000  -0.0000  -0.0000  -0.0000  -0.0000  -0.0000  -0.0000

          k =-0.5000-0.2500-0.5000 ( 18112 PWs)   bands (ev):

   -22.7454 -22.7384 -22.7384 -22.0033 -21.9949 -21.9698 -21.9698 -21.9697
   -15.7403 -15.7403 -15.7403 -15.7395 -15.7395  -8.3745  -8.0505  -8.0197
    -8.0197  -7.8757  -7.8757  -7.8506  -7.8456  -7.7755  -3.3966  -1.8714
     3.3529   3.3529   3.9519   5.0758   5.0758   5.2009   7.3275   7.5037
     7.5037   7.5392   7.8092   7.8092   8.1320   8.9225   9.2257   9.2257
     9.3122   9.4764   9.7766   9.8173  10.6585  10.6585  11.5879  11.5879

     occupation numbers 
     1.0000   1.0000   1.0000   1.0000   1.0000   1.0000   1.0000   1.0000
     1.0000   1.0000   1.0000   1.0000   1.0000   1.0000   1.0000   1.0000
     1.0000   1.0000   1.0000   1.0000   1.0000   1.0000   1.0000   1.0000
     1.0000   1.0000   1.0000   1.0000   1.0000   1.0000  -0.0000  -0.0000
    -0.0000  -0.0000  -0.0000  -0.0000  -0.0000  -0.0000  -0.0000  -0.0000
    -0.0000  -0.0000  -0.0000  -0.0000  -0.0000  -0.0000  -0.0000  -0.0000

          k =-0.5000-0.2500-0.2500 ( 18128 PWs)   bands (ev):

   -22.7475 -22.7433 -22.7384 -21.9991 -21.9908 -21.9699 -21.9698 -21.9698
   -15.7403 -15.7403 -15.7403 -15.7396 -15.7395  -8.3010  -8.0277  -8.0144
    -7.9998  -7.9352  -7.8813  -7.8700  -7.8327  -7.8143  -3.3960  -2.0990
     3.4434   3.9800   4.0254   4.9603   5.0992   5.2398   7.1829   7.2307
     7.5463   7.6282   7.8697   7.9100   8.5160   8.5984   8.6075   9.1860
     9.3454   9.3914   9.4564   9.8997  10.8028  10.8623  11.1951  11.5746

     occupation numbers 
     1.0000   1.0000   1.0000   1.0000   1.0000   1.0000   1.0000   1.0000
     1.0000   1.0000   1.0000   1.0000   1.0000   1.0000   1.0000   1.0000
     1.0000   1.0000   1.0000   1.0000   1.0000   1.0000   1.0000   1.0000
     1.0000   1.0000   1.0000   1.0000   1.0000   1.0000  -0.0000  -0.0000
    -0.0000  -0.0000  -0.0000  -0.0000  -0.0000  -0.0000  -0.0000  -0.0000
    -0.0000  -0.0000  -0.0000  -0.0000  -0.0000  -0.0000  -0.0000  -0.0000

          k =-0.2500 0.0000 0.0000 ( 18145 PWs)   bands (ev):

   -22.7579 -22.7481 -22.7441 -21.9867 -21.9787 -21.9698 -21.9698 -21.9697
   -15.7403 -15.7403 -15.7403 -15.7396 -15.7396  -8.0807  -8.0800  -8.0800
    -7.9317  -7.9317  -7.9266  -7.8882  -7.8427  -7.8427  -3.4162  -2.7349
     4.3791   4.7946   5.0936   5.0936   5.4976   5.4976   6.3739   6.4817
     6.7221   7.1534   7.1534   7.2813   8.4220   9.0307   9.0307   9.0772
     9.3192   9.6181  10.0701  10.0701  10.5030  10.7856  11.2932  11.2932

     occupation numbers 
     1.0000   1.0000   1.0000   1.0000   1.0000   1.0000   1.0000   1.0000
     1.0000   1.0000   1.0000   1.0000   1.0000   1.0000   1.0000   1.0000
     1.0000   1.0000   1.0000   1.0000   1.0000   1.0000   1.0000   1.0000
     1.0000   1.0000   1.0000   1.0000   1.0000   1.0000  -0.0001  -0.0000
    -0.0000  -0.0000  -0.0000  -0.0000  -0.0000  -0.0000  -0.0000  -0.0000
    -0.0000  -0.0000  -0.0000  -0.0000  -0.0000  -0.0000  -0.0000  -0.0000

          k =-0.2500 0.0000 0.2500 ( 18095 PWs)   bands (ev):

   -22.7547 -22.7451 -22.7434 -21.9906 -21.9826 -21.9697 -21.9697 -21.9697
   -15.7403 -15.7403 -15.7403 -15.7396 -15.7396  -8.1537  -8.0568  -8.0043
    -7.9843  -7.9349  -7.9262  -7.8982  -7.8630  -7.8138  -3.4055  -2.5287
     4.1541   4.2478   4.8428   4.9676   5.2870   5.3483   6.6983   6.7879
     6.9632   7.2889   7.4216   7.8940   8.6848   8.7987   8.8572   9.0082
     9.4082   9.4942   9.8082   9.9023  10.1275  10.7175  10.9072  11.9088

     occupation numbers 
     1.0000   1.0000   1.0000   1.0000   1.0000   1.0000   1.0000   1.0000
     1.0000   1.0000   1.0000   1.0000   1.0000   1.0000   1.0000   1.0000
     1.0000   1.0000   1.0000   1.0000   1.0000   1.0000   1.0000   1.0000
     1.0000   1.0000   1.0000   1.0000   1.0000   1.0000  -0.0000  -0.0000
    -0.0000  -0.0000  -0.0000  -0.0000  -0.0000  -0.0000  -0.0000  -0.0000
    -0.0000  -0.0000  -0.0000  -0.0000  -0.0000  -0.0000  -0.0000  -0.0000

          k =-0.2500 0.0000-0.5000 ( 18136 PWs)   bands (ev):

   -22.7533 -22.7443 -22.7384 -21.9981 -21.9838 -21.9699 -21.9699 -21.9697
   -15.7403 -15.7403 -15.7403 -15.7396 -15.7395  -8.1857  -8.0241  -8.0241
    -7.9609  -7.9516  -7.9452  -7.8856  -7.8743  -7.8136  -3.3953  -2.2997
     3.5429   4.0338   4.8076   4.8538   5.1352   5.2556   6.9725   7.1445
     7.4390   7.5108   7.8022   8.1213   8.4071   8.6919   8.8290   9.2045
     9.2253   9.3628   9.4926   9.8168   9.9201  10.1255  11.2304  11.5412

     occupation numbers 
     1.0000   1.0000   1.0000   1.0000   1.0000   1.0000   1.0000   1.0000
     1.0000   1.0000   1.0000   1.0000   1.0000   1.0000   1.0000   1.0000
     1.0000   1.0000   1.0000   1.0000   1.0000   1.0000   1.0000   1.0000
     1.0000   1.0000   1.0000   1.0000   1.0000   1.0000  -0.0000  -0.0000
    -0.0000  -0.0000  -0.0000  -0.0000  -0.0000  -0.0000  -0.0000  -0.0000
    -0.0000  -0.0000  -0.0000  -0.0000  -0.0000  -0.0000  -0.0000  -0.0000

          k =-0.2500 0.0000-0.2500 ( 18095 PWs)   bands (ev):

   -22.7547 -22.7451 -22.7434 -21.9906 -21.9826 -21.9697 -21.9697 -21.9697
   -15.7403 -15.7403 -15.7403 -15.7396 -15.7396  -8.1537  -8.0568  -8.0043
    -7.9843  -7.9349  -7.9262  -7.8982  -7.8630  -7.8138  -3.4055  -2.5287
     4.1541   4.2478   4.8428   4.9676   5.2870   5.3483   6.6983   6.7879
     6.9632   7.2889   7.4216   7.8940   8.6848   8.7987   8.8572   9.0082
     9.4082   9.4942   9.8081   9.9023  10.1275  10.7175  10.9072  11.9088

     occupation numbers 
     1.0000   1.0000   1.0000   1.0000   1.0000   1.0000   1.0000   1.0000
     1.0000   1.0000   1.0000   1.0000   1.0000   1.0000   1.0000   1.0000
     1.0000   1.0000   1.0000   1.0000   1.0000   1.0000   1.0000   1.0000
     1.0000   1.0000   1.0000   1.0000   1.0000   1.0000  -0.0000  -0.0000
    -0.0000  -0.0000  -0.0000  -0.0000  -0.0000  -0.0000  -0.0000  -0.0000
    -0.0000  -0.0000  -0.0000  -0.0000  -0.0000  -0.0000  -0.0000  -0.0000

          k =-0.2500 0.2500 0.0000 ( 18095 PWs)   bands (ev):

   -22.7547 -22.7451 -22.7434 -21.9906 -21.9826 -21.9697 -21.9697 -21.9697
   -15.7403 -15.7403 -15.7403 -15.7396 -15.7396  -8.1537  -8.0568  -8.0043
    -7.9843  -7.9349  -7.9262  -7.8982  -7.8630  -7.8138  -3.4055  -2.5287
     4.1541   4.2478   4.8428   4.9676   5.2870   5.3483   6.6983   6.7879
     6.9632   7.2889   7.4216   7.8940   8.6848   8.7987   8.8572   9.0082
     9.4082   9.4942   9.8081   9.9023  10.1275  10.7175  10.9072  11.9088

     occupation numbers 
     1.0000   1.0000   1.0000   1.0000   1.0000   1.0000   1.0000   1.0000
     1.0000   1.0000   1.0000   1.0000   1.0000   1.0000   1.0000   1.0000
     1.0000   1.0000   1.0000   1.0000   1.0000   1.0000   1.0000   1.0000
     1.0000   1.0000   1.0000   1.0000   1.0000   1.0000  -0.0000  -0.0000
    -0.0000  -0.0000  -0.0000  -0.0000  -0.0000  -0.0000  -0.0000  -0.0000
    -0.0000  -0.0000  -0.0000  -0.0000  -0.0000  -0.0000  -0.0000  -0.0000

          k =-0.2500 0.2500 0.2500 ( 18079 PWs)   bands (ev):

   -22.7496 -22.7433 -22.7433 -21.9907 -21.9907 -21.9697 -21.9697 -21.9697
   -15.7403 -15.7403 -15.7403 -15.7396 -15.7396  -8.2442  -8.0092  -8.0092
    -7.9937  -7.9358  -7.9358  -7.8855  -7.8212  -7.8212  -3.4006  -2.3261
     4.0916   4.0916   4.1026   4.9539   5.2461   5.2461   6.8605   7.0617
     7.0617   7.6196   7.8229   7.8229   8.5247   8.5247   8.7822   9.3176
     9.3176   9.3459   9.5311  10.5284  10.7751  10.7752  11.0149  11.0149

     occupation numbers 
     1.0000   1.0000   1.0000   1.0000   1.0000   1.0000   1.0000   1.0000
     1.0000   1.0000   1.0000   1.0000   1.0000   1.0000   1.0000   1.0000
     1.0000   1.0000   1.0000   1.0000   1.0000   1.0000   1.0000   1.0000
     1.0000   1.0000   1.0000   1.0000   1.0000   1.0000  -0.0000  -0.0000
    -0.0000  -0.0000  -0.0000  -0.0000  -0.0000  -0.0000  -0.0000  -0.0000
    -0.0000  -0.0000  -0.0000  -0.0000  -0.0000  -0.0000  -0.0000  -0.0000

          k =-0.2500 0.2500-0.5000 ( 18128 PWs)   bands (ev):

   -22.7475 -22.7433 -22.7384 -21.9991 -21.9908 -21.9699 -21.9698 -21.9698
   -15.7403 -15.7403 -15.7403 -15.7396 -15.7395  -8.3010  -8.0277  -8.0144
    -7.9998  -7.9352  -7.8813  -7.8700  -7.8327  -7.8143  -3.3960  -2.0990
     3.4434   3.9800   4.0254   4.9603   5.0992   5.2398   7.1829   7.2307
     7.5463   7.6282   7.8697   7.9100   8.5160   8.5984   8.6075   9.1860
     9.3454   9.3914   9.4564   9.8997  10.8028  10.8623  11.1950  11.4588

     occupation numbers 
     1.0000   1.0000   1.0000   1.0000   1.0000   1.0000   1.0000   1.0000
     1.0000   1.0000   1.0000   1.0000   1.0000   1.0000   1.0000   1.0000
     1.0000   1.0000   1.0000   1.0000   1.0000   1.0000   1.0000   1.0000
     1.0000   1.0000   1.0000   1.0000   1.0000   1.0000  -0.0000  -0.0000
    -0.0000  -0.0000  -0.0000  -0.0000  -0.0000  -0.0000  -0.0000  -0.0000
    -0.0000  -0.0000  -0.0000  -0.0000  -0.0000  -0.0000  -0.0000  -0.0000

          k =-0.2500 0.2500-0.2500 ( 18079 PWs)   bands (ev):

   -22.7496 -22.7433 -22.7433 -21.9907 -21.9907 -21.9697 -21.9697 -21.9697
   -15.7403 -15.7403 -15.7403 -15.7396 -15.7396  -8.2442  -8.0092  -8.0092
    -7.9937  -7.9358  -7.9358  -7.8855  -7.8212  -7.8212  -3.4006  -2.3261
     4.0916   4.0916   4.1026   4.9539   5.2461   5.2461   6.8605   7.0617
     7.0617   7.6196   7.8229   7.8229   8.5247   8.5247   8.7822   9.3176
     9.3176   9.3459   9.5311  10.5284  10.7751  10.7751  11.0149  11.0149

     occupation numbers 
     1.0000   1.0000   1.0000   1.0000   1.0000   1.0000   1.0000   1.0000
     1.0000   1.0000   1.0000   1.0000   1.0000   1.0000   1.0000   1.0000
     1.0000   1.0000   1.0000   1.0000   1.0000   1.0000   1.0000   1.0000
     1.0000   1.0000   1.0000   1.0000   1.0000   1.0000  -0.0000  -0.0000
    -0.0000  -0.0000  -0.0000  -0.0000  -0.0000  -0.0000  -0.0000  -0.0000
    -0.0000  -0.0000  -0.0000  -0.0000  -0.0000  -0.0000  -0.0000  -0.0000

          k =-0.2500-0.5000 0.0000 ( 18136 PWs)   bands (ev):

   -22.7533 -22.7443 -22.7384 -21.9981 -21.9838 -21.9699 -21.9699 -21.9697
   -15.7403 -15.7403 -15.7403 -15.7396 -15.7395  -8.1857  -8.0241  -8.0241
    -7.9609  -7.9516  -7.9452  -7.8856  -7.8743  -7.8136  -3.3953  -2.2997
     3.5429   4.0338   4.8076   4.8538   5.1352   5.2556   6.9725   7.1445
     7.4390   7.5108   7.8022   8.1213   8.4071   8.6919   8.8290   9.2045
     9.2253   9.3628   9.4926   9.8168   9.9201  10.1255  11.2304  11.5412

     occupation numbers 
     1.0000   1.0000   1.0000   1.0000   1.0000   1.0000   1.0000   1.0000
     1.0000   1.0000   1.0000   1.0000   1.0000   1.0000   1.0000   1.0000
     1.0000   1.0000   1.0000   1.0000   1.0000   1.0000   1.0000   1.0000
     1.0000   1.0000   1.0000   1.0000   1.0000   1.0000  -0.0000  -0.0000
    -0.0000  -0.0000  -0.0000  -0.0000  -0.0000  -0.0000  -0.0000  -0.0000
    -0.0000  -0.0000  -0.0000  -0.0000  -0.0000  -0.0000  -0.0000  -0.0000

          k =-0.2500-0.5000 0.2500 ( 18128 PWs)   bands (ev):

   -22.7475 -22.7433 -22.7384 -21.9991 -21.9908 -21.9699 -21.9698 -21.9698
   -15.7403 -15.7403 -15.7403 -15.7396 -15.7395  -8.3010  -8.0277  -8.0144
    -7.9998  -7.9352  -7.8813  -7.8700  -7.8327  -7.8143  -3.3960  -2.0990
     3.4434   3.9800   4.0254   4.9603   5.0992   5.2398   7.1829   7.2307
     7.5463   7.6282   7.8697   7.9100   8.5160   8.5984   8.6075   9.1860
     9.3454   9.3914   9.4564   9.8997  10.8028  10.8623  11.1950  11.4588

     occupation numbers 
     1.0000   1.0000   1.0000   1.0000   1.0000   1.0000   1.0000   1.0000
     1.0000   1.0000   1.0000   1.0000   1.0000   1.0000   1.0000   1.0000
     1.0000   1.0000   1.0000   1.0000   1.0000   1.0000   1.0000   1.0000
     1.0000   1.0000   1.0000   1.0000   1.0000   1.0000  -0.0000  -0.0000
    -0.0000  -0.0000  -0.0000  -0.0000  -0.0000  -0.0000  -0.0000  -0.0000
    -0.0000  -0.0000  -0.0000  -0.0000  -0.0000  -0.0000  -0.0000  -0.0000

          k =-0.2500-0.5000-0.5000 ( 18112 PWs)   bands (ev):

   -22.7454 -22.7384 -22.7384 -22.0033 -21.9949 -21.9698 -21.9698 -21.9697
   -15.7403 -15.7403 -15.7403 -15.7395 -15.7395  -8.3745  -8.0505  -8.0197
    -8.0197  -7.8757  -7.8757  -7.8506  -7.8456  -7.7755  -3.3966  -1.8714
     3.3529   3.3529   3.9519   5.0758   5.0758   5.2009   7.3275   7.5037
     7.5037   7.5392   7.8092   7.8092   8.1320   8.9225   9.2257   9.2257
     9.3122   9.4764   9.7766   9.8173  10.6585  10.6585  11.5879  11.5879

     occupation numbers 
     1.0000   1.0000   1.0000   1.0000   1.0000   1.0000   1.0000   1.0000
     1.0000   1.0000   1.0000   1.0000   1.0000   1.0000   1.0000   1.0000
     1.0000   1.0000   1.0000   1.0000   1.0000   1.0000   1.0000   1.0000
     1.0000   1.0000   1.0000   1.0000   1.0000   1.0000  -0.0000  -0.0000
    -0.0000  -0.0000  -0.0000  -0.0000  -0.0000  -0.0000  -0.0000  -0.0000
    -0.0000  -0.0000  -0.0000  -0.0000  -0.0000  -0.0000  -0.0000  -0.0000

          k =-0.2500-0.5000-0.2500 ( 18128 PWs)   bands (ev):

   -22.7475 -22.7433 -22.7384 -21.9991 -21.9908 -21.9699 -21.9698 -21.9698
   -15.7403 -15.7403 -15.7403 -15.7396 -15.7395  -8.3010  -8.0277  -8.0144
    -7.9998  -7.9352  -7.8813  -7.8700  -7.8327  -7.8143  -3.3960  -2.0990
     3.4434   3.9800   4.0254   4.9603   5.0992   5.2398   7.1829   7.2307
     7.5463   7.6282   7.8697   7.9100   8.5160   8.5984   8.6075   9.1860
     9.3454   9.3914   9.4564   9.8997  10.8028  10.8623  11.1950  11.4588

     occupation numbers 
     1.0000   1.0000   1.0000   1.0000   1.0000   1.0000   1.0000   1.0000
     1.0000   1.0000   1.0000   1.0000   1.0000   1.0000   1.0000   1.0000
     1.0000   1.0000   1.0000   1.0000   1.0000   1.0000   1.0000   1.0000
     1.0000   1.0000   1.0000   1.0000   1.0000   1.0000  -0.0000  -0.0000
    -0.0000  -0.0000  -0.0000  -0.0000  -0.0000  -0.0000  -0.0000  -0.0000
    -0.0000  -0.0000  -0.0000  -0.0000  -0.0000  -0.0000  -0.0000  -0.0000

          k =-0.2500-0.2500 0.0000 ( 18095 PWs)   bands (ev):

   -22.7547 -22.7451 -22.7434 -21.9906 -21.9826 -21.9697 -21.9697 -21.9697
   -15.7403 -15.7403 -15.7403 -15.7396 -15.7396  -8.1537  -8.0568  -8.0043
    -7.9843  -7.9349  -7.9262  -7.8982  -7.8630  -7.8138  -3.4055  -2.5287
     4.1541   4.2478   4.8428   4.9676   5.2870   5.3483   6.6983   6.7879
     6.9632   7.2889   7.4216   7.8940   8.6848   8.7987   8.8572   9.0082
     9.4082   9.4942   9.8081   9.9023  10.1275  10.7175  10.9072  11.9088

     occupation numbers 
     1.0000   1.0000   1.0000   1.0000   1.0000   1.0000   1.0000   1.0000
     1.0000   1.0000   1.0000   1.0000   1.0000   1.0000   1.0000   1.0000
     1.0000   1.0000   1.0000   1.0000   1.0000   1.0000   1.0000   1.0000
     1.0000   1.0000   1.0000   1.0000   1.0000   1.0000  -0.0000  -0.0000
    -0.0000  -0.0000  -0.0000  -0.0000  -0.0000  -0.0000  -0.0000  -0.0000
    -0.0000  -0.0000  -0.0000  -0.0000  -0.0000  -0.0000  -0.0000  -0.0000

          k =-0.2500-0.2500 0.2500 ( 18079 PWs)   bands (ev):

   -22.7496 -22.7433 -22.7433 -21.9907 -21.9907 -21.9697 -21.9697 -21.9697
   -15.7403 -15.7403 -15.7403 -15.7396 -15.7396  -8.2442  -8.0092  -8.0092
    -7.9937  -7.9358  -7.9358  -7.8855  -7.8212  -7.8212  -3.4006  -2.3261
     4.0916   4.0916   4.1026   4.9539   5.2461   5.2461   6.8605   7.0617
     7.0617   7.6196   7.8229   7.8229   8.5247   8.5247   8.7822   9.3176
     9.3176   9.3459   9.5311  10.5284  10.7751  10.7751  11.0149  11.0149

     occupation numbers 
     1.0000   1.0000   1.0000   1.0000   1.0000   1.0000   1.0000   1.0000
     1.0000   1.0000   1.0000   1.0000   1.0000   1.0000   1.0000   1.0000
     1.0000   1.0000   1.0000   1.0000   1.0000   1.0000   1.0000   1.0000
     1.0000   1.0000   1.0000   1.0000   1.0000   1.0000  -0.0000  -0.0000
    -0.0000  -0.0000  -0.0000  -0.0000  -0.0000  -0.0000  -0.0000  -0.0000
    -0.0000  -0.0000  -0.0000  -0.0000  -0.0000  -0.0000  -0.0000  -0.0000

          k =-0.2500-0.2500-0.5000 ( 18128 PWs)   bands (ev):

   -22.7475 -22.7433 -22.7384 -21.9991 -21.9908 -21.9699 -21.9698 -21.9698
   -15.7403 -15.7403 -15.7403 -15.7396 -15.7395  -8.3010  -8.0277  -8.0144
    -7.9998  -7.9352  -7.8813  -7.8700  -7.8327  -7.8143  -3.3960  -2.0990
     3.4434   3.9800   4.0254   4.9603   5.0992   5.2398   7.1829   7.2307
     7.5463   7.6282   7.8697   7.9100   8.5160   8.5984   8.6075   9.1860
     9.3454   9.3914   9.4564   9.8997  10.8028  10.8623  11.1950  11.4588

     occupation numbers 
     1.0000   1.0000   1.0000   1.0000   1.0000   1.0000   1.0000   1.0000
     1.0000   1.0000   1.0000   1.0000   1.0000   1.0000   1.0000   1.0000
     1.0000   1.0000   1.0000   1.0000   1.0000   1.0000   1.0000   1.0000
     1.0000   1.0000   1.0000   1.0000   1.0000   1.0000  -0.0000  -0.0000
    -0.0000  -0.0000  -0.0000  -0.0000  -0.0000  -0.0000  -0.0000  -0.0000
    -0.0000  -0.0000  -0.0000  -0.0000  -0.0000  -0.0000  -0.0000  -0.0000

          k =-0.2500-0.2500-0.2500 ( 18079 PWs)   bands (ev):

   -22.7496 -22.7433 -22.7433 -21.9907 -21.9907 -21.9697 -21.9697 -21.9697
   -15.7403 -15.7403 -15.7403 -15.7396 -15.7396  -8.2442  -8.0092  -8.0092
    -7.9937  -7.9358  -7.9358  -7.8855  -7.8212  -7.8212  -3.4006  -2.3261
     4.0916   4.0916   4.1026   4.9539   5.2461   5.2461   6.8605   7.0617
     7.0617   7.6196   7.8229   7.8229   8.5247   8.5247   8.7822   9.3176
     9.3176   9.3459   9.5311  10.5284  10.7751  10.7751  11.0149  11.0149

     occupation numbers 
     1.0000   1.0000   1.0000   1.0000   1.0000   1.0000   1.0000   1.0000
     1.0000   1.0000   1.0000   1.0000   1.0000   1.0000   1.0000   1.0000
     1.0000   1.0000   1.0000   1.0000   1.0000   1.0000   1.0000   1.0000
     1.0000   1.0000   1.0000   1.0000   1.0000   1.0000  -0.0000  -0.0000
    -0.0000  -0.0000  -0.0000  -0.0000  -0.0000  -0.0000  -0.0000  -0.0000
    -0.0000  -0.0000  -0.0000  -0.0000  -0.0000  -0.0000  -0.0000  -0.0000

     the Fermi energy is     5.9566 ev

!    total energy              =    -514.78595913 Ry
     estimated scf accuracy    <          2.4E-10 Ry
     smearing contrib. (-TS)   =      -0.00011413 Ry
     internal energy E=F+TS    =    -514.78584500 Ry

     The total energy is F=E-TS. E is the sum of the following terms:
     one-electron contribution =    -247.34707064 Ry
     hartree contribution      =     143.10149551 Ry
     xc contribution           =    -128.70855032 Ry
     ewald contribution        =    -281.83171955 Ry

     convergence has been achieved in  11 iterations

     Writing all to output data dir ./out_nosoc_nc/Ba3BiSb_nosoc_nc.save/ :
     XML data file, charge density, pseudopotentials, collected wavefunctions

     init_run     :      4.61s CPU      5.62s WALL (       1 calls)
     electrons    :    118.20s CPU    130.31s WALL (       1 calls)

     Called by init_run:
     wfcinit      :      3.25s CPU      3.86s WALL (       1 calls)
     wfcinit:atom :      0.03s CPU      0.06s WALL (       8 calls)
     wfcinit:wfcr :      3.06s CPU      3.30s WALL (       8 calls)
     potinit      :      0.25s CPU      0.55s WALL (       1 calls)
     hinit0       :      1.07s CPU      1.15s WALL (       1 calls)

     Called by electrons:
     c_bands      :    105.26s CPU    114.36s WALL (      12 calls)
     sum_band     :     11.06s CPU     12.40s WALL (      12 calls)
     v_of_rho     :      1.57s CPU      3.10s WALL (      12 calls)
     v_h          :      0.06s CPU      0.17s WALL (      12 calls)
     v_xc         :      1.51s CPU      2.92s WALL (      12 calls)
     mix_rho      :      0.14s CPU      0.39s WALL (      12 calls)

     Called by c_bands:
     init_us_2    :      1.68s CPU      2.12s WALL (     200 calls)
     cegterg      :     93.20s CPU    100.68s WALL (      96 calls)

     Called by sum_band:
     sum_band:wei :      0.02s CPU      0.02s WALL (      12 calls)
     sum_band:loo :     10.49s CPU     11.69s WALL (      12 calls)
     sum_band:buf :      0.00s CPU      0.31s WALL (      96 calls)
     sum_band:ini :      0.76s CPU      0.92s WALL (      96 calls)

     Called by *egterg:
     cdiaghg      :      1.18s CPU      1.25s WALL (     488 calls)
     cegterg:over :      9.73s CPU     10.32s WALL (     400 calls)
     cegterg:upda :      6.12s CPU      6.80s WALL (     400 calls)
     cegterg:last :     10.40s CPU     10.89s WALL (     203 calls)
     h_psi        :     64.16s CPU     69.71s WALL (     504 calls)
     g_psi        :      0.28s CPU      0.30s WALL (     400 calls)

     Called by h_psi:
     h_psi:calbec :      9.20s CPU     10.07s WALL (     504 calls)
     vloc_psi     :     46.03s CPU     50.03s WALL (     504 calls)
                                        0.00s GPU  (     504 calls)
     add_vuspsi   :      8.67s CPU      9.20s WALL (     504 calls)

     General routines
     calbec       :      9.20s CPU     10.06s WALL (     504 calls)
     fft          :      1.04s CPU      1.14s WALL (     121 calls)
     ffts         :      0.04s CPU      0.04s WALL (      12 calls)
     fftw         :     47.87s CPU     51.50s WALL (   27570 calls)
     davcio       :      0.01s CPU      1.36s WALL (     430 calls)

     Parallel routines

     PWSCF        :   2m 3.28s CPU   2m17.29s WALL


   This run was terminated on:  22:19: 0   8Jul2026            

=------------------------------------------------------------------------------=
   JOB DONE.
=------------------------------------------------------------------------------=
