
     Program PWSCF v.7.5 starts on  7Jul2026 at 16:46:23 

     This program is part of the open-source Quantum ESPRESSO suite
     for quantum simulation of materials; please cite
         "P. Giannozzi et al., J. Phys.:Condens. Matter 21 395502 (2009);
         "P. Giannozzi et al., J. Phys.:Condens. Matter 29 465901 (2017);
         "P. Giannozzi et al., J. Chem. Phys. 152 154105 (2020);
          URL http://www.quantum-espresso.org", 
     in publications or presentations arising from this work. More details at
     http://www.quantum-espresso.org/quote

     Parallel version (MPI & OpenMP), running on       6 processor cores
     Number of MPI processes:                 1
     Threads/MPI process:                     6

     MPI processes distributed on     1 nodes
     0 MiB available memory on the printing compute node when the environment starts

     Reading input from Ba3BiSb.scf.nosoc.in

     Current dimensions of program PWSCF are:
     Max number of different atomic species (ntypx) = 10
     Max number of k-points (npk) =  40000
     Max angular momentum in pseudopotentials (lmaxx) =  4
     file Ba.pbe-spn-kjpaw_psl.1.0.0.UPF: wavefunction(s)  5S 6S renormalized
     file Bi.pbe-dn-kjpaw_psl.1.0.0.UPF: wavefunction(s)  6P 5D renormalized
     file Sb.pbe-n-kjpaw_psl.1.0.0.UPF: wavefunction(s)  5S renormalized

     Subspace diagonalization in iterative solution of the eigenvalue problem:
     a serial algorithm will be used


     G-vector sticks info
     --------------------
     sticks:   dense  smooth     PW     G-vecs:    dense   smooth      PW
     Sum        5417    2145    609               301027    74653   11363

     Using Slab Decomposition



     bravais-lattice index     =            0
     lattice parameter (alat)  =      12.2377  a.u.
     unit-cell volume          =    1832.7237 (a.u.)^3
     number of atoms/cell      =            5
     number of atomic types    =            3
     number of electrons       =        50.00
     number of Kohn-Sham states=           40
     kinetic-energy cutoff     =      45.0000  Ry
     charge density cutoff     =     456.0000  Ry
     scf convergence threshold =      1.0E-08
     mixing beta               =       0.3000
     number of iterations used =            8  plain     mixing
     Exchange-correlation= SLA  PW   PBX  PBC
                           (   1   4   3   4   0   0   0)

     celldm(1)=  12.237677  celldm(2)=   0.000000  celldm(3)=   0.000000
     celldm(4)=   0.000000  celldm(5)=   0.000000  celldm(6)=   0.000000

     crystal axes: (cart. coord. in units of alat)
               a(1) = (   1.000000   0.000000   0.000000 )  
               a(2) = (   0.000000   1.000000   0.000000 )  
               a(3) = (   0.000000   0.000000   1.000000 )  

     reciprocal axes: (cart. coord. in units 2 pi/alat)
               b(1) = (  1.000000  0.000000  0.000000 )  
               b(2) = (  0.000000  1.000000  0.000000 )  
               b(3) = (  0.000000  0.000000  1.000000 )  


     PseudoPot. # 1 for Ba read from file:
     ./pseudo/Ba.pbe-spn-kjpaw_psl.1.0.0.UPF
     MD5 check sum: 7cfe25f1fe7574a4710541d5a11d6531
     Pseudo is Projector augmented-wave + core cor, Zval = 10.0
     Generated using &quot;atomic&quot; code by A. Dal Corso  v.6.2.2
     Shape of augmentation charge: PSQ
     Using radial grid of 1251 points,  7 beta functions with: 
                l(1) =   0
                l(2) =   0
                l(3) =   0
                l(4) =   1
                l(5) =   1
                l(6) =   2
                l(7) =   2
     Q(r) pseudized with 0 coefficients 


     PseudoPot. # 2 for Bi read from file:
     ./pseudo/Bi.pbe-dn-kjpaw_psl.1.0.0.UPF
     MD5 check sum: 266ded784ae3bc462508ed03f0f37963
     Pseudo is Projector augmented-wave + core cor, Zval = 15.0
     Generated using &quot;atomic&quot; code by A. Dal Corso  v.6.2.2
     Shape of augmentation charge: PSQ
     Using radial grid of 1283 points,  6 beta functions with: 
                l(1) =   0
                l(2) =   0
                l(3) =   1
                l(4) =   1
                l(5) =   2
                l(6) =   2
     Q(r) pseudized with 0 coefficients 


     PseudoPot. # 3 for Sb read from file:
     ./pseudo/Sb.pbe-n-kjpaw_psl.1.0.0.UPF
     MD5 check sum: 6b903ae7923846f66e229fa892705b98
     Pseudo is Projector augmented-wave + core cor, Zval =  5.0
     Generated using &quot;atomic&quot; code by A. Dal Corso  v.6.2.2
     Shape of augmentation charge: PSQ
     Using radial grid of 1243 points,  6 beta functions with: 
                l(1) =   0
                l(2) =   0
                l(3) =   1
                l(4) =   1
                l(5) =   2
                l(6) =   2
     Q(r) pseudized with 0 coefficients 


     atomic species   valence    mass     pseudopotential
     Ba               10.00   137.32700     Ba( 1.00)
     Bi               15.00   208.98000     Bi( 1.00)
     Sb                5.00   121.76000     Sb( 1.00)

     No symmetry found


                                    s                        frac. trans.

      isym =  1     identity                                     

 cryst.   s( 1) = (     1          0          0      )
                  (     0          1          0      )
                  (     0          0          1      )

 cart.    s( 1) = (  1.0000000  0.0000000  0.0000000 )
                  (  0.0000000  1.0000000  0.0000000 )
                  (  0.0000000  0.0000000  1.0000000 )


   Cartesian axes

     site n.     atom                  positions (alat units)
         1        Ba     tau(   1) = (   0.0000000   0.5000000   0.5000000  )
         2        Ba     tau(   2) = (   0.5000000   0.0000000   0.5000000  )
         3        Ba     tau(   3) = (   0.5000000   0.5000000   0.0000000  )
         4        Bi     tau(   4) = (   0.0000000   0.0000000   0.0000000  )
         5        Sb     tau(   5) = (   0.5000000   0.5000000   0.5000000  )

   Crystallographic axes

     site n.     atom                  positions (cryst. coord.)
         1        Ba     tau(   1) = (  0.0000000  0.5000000  0.5000000  )
         2        Ba     tau(   2) = (  0.5000000  0.0000000  0.5000000  )
         3        Ba     tau(   3) = (  0.5000000  0.5000000  0.0000000  )
         4        Bi     tau(   4) = (  0.0000000  0.0000000  0.0000000  )
         5        Sb     tau(   5) = (  0.5000000  0.5000000  0.5000000  )

     number of k points=     8  Methfessel-Paxton smearing, width (Ry)=  0.0100
                       cart. coord. in units 2pi/alat
        k(    1) = (   0.0000000   0.0000000   0.0000000), wk =   0.2500000
        k(    2) = (   0.0000000   0.0000000  -0.5000000), wk =   0.2500000
        k(    3) = (   0.0000000  -0.5000000   0.0000000), wk =   0.2500000
        k(    4) = (   0.0000000  -0.5000000  -0.5000000), wk =   0.2500000
        k(    5) = (  -0.5000000   0.0000000   0.0000000), wk =   0.2500000
        k(    6) = (  -0.5000000   0.0000000  -0.5000000), wk =   0.2500000
        k(    7) = (  -0.5000000  -0.5000000   0.0000000), wk =   0.2500000
        k(    8) = (  -0.5000000  -0.5000000  -0.5000000), wk =   0.2500000

                       cryst. coord.
        k(    1) = (   0.0000000   0.0000000   0.0000000), wk =   0.2500000
        k(    2) = (   0.0000000   0.0000000  -0.5000000), wk =   0.2500000
        k(    3) = (   0.0000000  -0.5000000   0.0000000), wk =   0.2500000
        k(    4) = (   0.0000000  -0.5000000  -0.5000000), wk =   0.2500000
        k(    5) = (  -0.5000000   0.0000000   0.0000000), wk =   0.2500000
        k(    6) = (  -0.5000000   0.0000000  -0.5000000), wk =   0.2500000
        k(    7) = (  -0.5000000  -0.5000000   0.0000000), wk =   0.2500000
        k(    8) = (  -0.5000000  -0.5000000  -0.5000000), wk =   0.2500000

     Dense  grid:   301027 G-vectors     FFT dimensions: (  90,  90,  90)

     Smooth grid:    74653 G-vectors     FFT dimensions: (  54,  54,  54)

     Dynamical RAM for                 wfc:       5.70 MB

     Dynamical RAM for     wfc (w. buffer):       5.70 MB

     Dynamical RAM for           str. fact:      13.78 MB

     Dynamical RAM for           local pot:       0.00 MB

     Dynamical RAM for          nlocal pot:      13.26 MB

     Dynamical RAM for                qrad:       6.85 MB

     Dynamical RAM for          rho,v,vnew:      30.47 MB

     Dynamical RAM for               rhoin:      10.16 MB

     Dynamical RAM for           G-vectors:      17.79 MB

     Dynamical RAM for          h,s,v(r/c):       0.29 MB

     Dynamical RAM for          <psi|beta>:       0.06 MB

     Dynamical RAM for                 psi:      11.41 MB

     Dynamical RAM for                hpsi:      11.41 MB

     Dynamical RAM for                spsi:      11.41 MB

     Dynamical RAM for      wfcinit/wfcrot:      11.44 MB

     Dynamical RAM for           addusdens:     955.41 MB

     Estimated static dynamical RAM per process >     144.19 MB

     Estimated max dynamical RAM per process >       1.07 GB

     Initial potential from superposition of free atoms

     starting charge      49.9475, renormalised to      50.0000
     Starting wfcs are   28 randomized atomic wfcs +   12 random wfcs
     Checking if some PAW data can be deallocated... 

     total cpu time spent up to now is        6.1 secs

     Self-consistent Calculation

     iteration #  1     ecut=    45.00 Ry     beta= 0.30
     Davidson diagonalization with overlap

---- Real-time Memory Report at c_bands before calling an iterative solver
             0 MiB given to the printing process from OS
             0 MiB allocation reported by mallinfo(arena+hblkhd)
             0 MiB available memory on the node where the printing process lives
------------------
     ethr =  1.00E-02,  avg # of iterations =  9.1

     Threshold (ethr) on eigenvalues was too large:
     Diagonalizing with lowered threshold

     Davidson diagonalization with overlap

---- Real-time Memory Report at c_bands before calling an iterative solver
             0 MiB given to the printing process from OS
             0 MiB allocation reported by mallinfo(arena+hblkhd)
             0 MiB available memory on the node where the printing process lives
------------------
     ethr =  9.00E-04,  avg # of iterations =  2.0

     negative rho (up, down):  2.114E-02 0.000E+00

     total cpu time spent up to now is       20.0 secs

     total energy              =   -2562.74656383 Ry
     estimated scf accuracy    <       0.93003279 Ry

     iteration #  2     ecut=    45.00 Ry     beta= 0.30
     Davidson diagonalization with overlap

---- Real-time Memory Report at c_bands before calling an iterative solver
             0 MiB given to the printing process from OS
             0 MiB allocation reported by mallinfo(arena+hblkhd)
             0 MiB available memory on the node where the printing process lives
------------------
     ethr =  1.86E-03,  avg # of iterations =  1.0

     negative rho (up, down):  2.448E-01 0.000E+00

     total cpu time spent up to now is       27.0 secs

     total energy              =   -2562.74628368 Ry
     estimated scf accuracy    <       0.25389334 Ry

     iteration #  3     ecut=    45.00 Ry     beta= 0.30
     Davidson diagonalization with overlap

---- Real-time Memory Report at c_bands before calling an iterative solver
             0 MiB given to the printing process from OS
             0 MiB allocation reported by mallinfo(arena+hblkhd)
             0 MiB available memory on the node where the printing process lives
------------------
     ethr =  5.08E-04,  avg # of iterations =  2.0

     negative rho (up, down):  1.906E-01 0.000E+00

     total cpu time spent up to now is       34.1 secs

     total energy              =   -2562.75884405 Ry
     estimated scf accuracy    <       0.01439810 Ry

     iteration #  4     ecut=    45.00 Ry     beta= 0.30
     Davidson diagonalization with overlap

---- Real-time Memory Report at c_bands before calling an iterative solver
             0 MiB given to the printing process from OS
             0 MiB allocation reported by mallinfo(arena+hblkhd)
             0 MiB available memory on the node where the printing process lives
------------------
     c_bands:  2 eigenvalues not converged
     c_bands:  1 eigenvalues not converged
     ethr =  2.88E-05,  avg # of iterations = 11.6

     negative rho (up, down):  1.907E-01 0.000E+00

     total cpu time spent up to now is       42.6 secs

     total energy              =   -2562.76333458 Ry
     estimated scf accuracy    <       0.05392768 Ry

     iteration #  5     ecut=    45.00 Ry     beta= 0.30
     Davidson diagonalization with overlap

---- Real-time Memory Report at c_bands before calling an iterative solver
             0 MiB given to the printing process from OS
             0 MiB allocation reported by mallinfo(arena+hblkhd)
             0 MiB available memory on the node where the printing process lives
------------------
     ethr =  2.88E-05,  avg # of iterations =  1.5

     negative rho (up, down):  1.906E-01 0.000E+00

     total cpu time spent up to now is       49.5 secs

     total energy              =   -2562.76332231 Ry
     estimated scf accuracy    <       0.05437627 Ry

     iteration #  6     ecut=    45.00 Ry     beta= 0.30
     Davidson diagonalization with overlap

---- Real-time Memory Report at c_bands before calling an iterative solver
             0 MiB given to the printing process from OS
             0 MiB allocation reported by mallinfo(arena+hblkhd)
             0 MiB available memory on the node where the printing process lives
------------------
     ethr =  2.88E-05,  avg # of iterations =  1.0

     negative rho (up, down):  2.772E-01 0.000E+00

     total cpu time spent up to now is       56.7 secs

     total energy              =   -2562.76418300 Ry
     estimated scf accuracy    <       0.05461849 Ry

     iteration #  7     ecut=    45.00 Ry     beta= 0.30
     Davidson diagonalization with overlap

---- Real-time Memory Report at c_bands before calling an iterative solver
             0 MiB given to the printing process from OS
             0 MiB allocation reported by mallinfo(arena+hblkhd)
             0 MiB available memory on the node where the printing process lives
------------------
     ethr =  2.88E-05,  avg # of iterations =  1.9

     negative rho (up, down):  6.199E-01 0.000E+00

     total cpu time spent up to now is       63.7 secs

     total energy              =   -2562.77612808 Ry
     estimated scf accuracy    <       0.11111987 Ry

     iteration #  8     ecut=    45.00 Ry     beta= 0.30
     Davidson diagonalization with overlap

---- Real-time Memory Report at c_bands before calling an iterative solver
             0 MiB given to the printing process from OS
             0 MiB allocation reported by mallinfo(arena+hblkhd)
             0 MiB available memory on the node where the printing process lives
------------------
     ethr =  2.88E-05,  avg # of iterations =  3.8

     negative rho (up, down):  6.217E-01 0.000E+00

     total cpu time spent up to now is       71.4 secs

     total energy              =   -2562.78249338 Ry
     estimated scf accuracy    <       0.45628207 Ry

     iteration #  9     ecut=    45.00 Ry     beta= 0.30
     Davidson diagonalization with overlap

---- Real-time Memory Report at c_bands before calling an iterative solver
             0 MiB given to the printing process from OS
             0 MiB allocation reported by mallinfo(arena+hblkhd)
             0 MiB available memory on the node where the printing process lives
------------------
     ethr =  2.88E-05,  avg # of iterations =  1.0

     negative rho (up, down):  6.145E-01 0.000E+00

     total cpu time spent up to now is       78.4 secs

     total energy              =   -2562.78256334 Ry
     estimated scf accuracy    <       0.48899969 Ry

     iteration # 10     ecut=    45.00 Ry     beta= 0.30
     Davidson diagonalization with overlap

---- Real-time Memory Report at c_bands before calling an iterative solver
             0 MiB given to the printing process from OS
             0 MiB allocation reported by mallinfo(arena+hblkhd)
             0 MiB available memory on the node where the printing process lives
------------------
     ethr =  2.88E-05,  avg # of iterations =  1.0

     negative rho (up, down):  6.096E-01 0.000E+00

     total cpu time spent up to now is       85.8 secs

     total energy              =   -2562.78535457 Ry
     estimated scf accuracy    <       0.53186582 Ry

     iteration # 11     ecut=    45.00 Ry     beta= 0.30
     Davidson diagonalization with overlap

---- Real-time Memory Report at c_bands before calling an iterative solver
             0 MiB given to the printing process from OS
             0 MiB allocation reported by mallinfo(arena+hblkhd)
             0 MiB available memory on the node where the printing process lives
------------------
     ethr =  2.88E-05,  avg # of iterations =  1.0

     negative rho (up, down):  8.203E-01 0.000E+00

     total cpu time spent up to now is       92.4 secs

     total energy              =   -2562.80744326 Ry
     estimated scf accuracy    <       0.52427057 Ry

     iteration # 12     ecut=    45.00 Ry     beta= 0.30
     Davidson diagonalization with overlap

---- Real-time Memory Report at c_bands before calling an iterative solver
             0 MiB given to the printing process from OS
             0 MiB allocation reported by mallinfo(arena+hblkhd)
             0 MiB available memory on the node where the printing process lives
------------------
     ethr =  2.88E-05,  avg # of iterations =  2.0

     negative rho (up, down):  9.700E-01 0.000E+00

     total cpu time spent up to now is       99.7 secs

     total energy              =   -2562.84785084 Ry
     estimated scf accuracy    <       0.86423956 Ry

     iteration # 13     ecut=    45.00 Ry     beta= 0.30
     Davidson diagonalization with overlap

---- Real-time Memory Report at c_bands before calling an iterative solver
             0 MiB given to the printing process from OS
             0 MiB allocation reported by mallinfo(arena+hblkhd)
             0 MiB available memory on the node where the printing process lives
------------------
     ethr =  2.88E-05,  avg # of iterations =  4.5

     negative rho (up, down):  2.094E-01 0.000E+00

     total cpu time spent up to now is      107.4 secs

     total energy              =   -2562.71935180 Ry
     estimated scf accuracy    <       1.10271976 Ry

     iteration # 14     ecut=    45.00 Ry     beta= 0.30
     Davidson diagonalization with overlap

---- Real-time Memory Report at c_bands before calling an iterative solver
             0 MiB given to the printing process from OS
             0 MiB allocation reported by mallinfo(arena+hblkhd)
             0 MiB available memory on the node where the printing process lives
------------------
     ethr =  2.88E-05,  avg # of iterations =  5.0

     negative rho (up, down):  2.695E-01 0.000E+00

     total cpu time spent up to now is      115.9 secs

     total energy              =   -2562.76917080 Ry
     estimated scf accuracy    <       0.18691557 Ry

     iteration # 15     ecut=    45.00 Ry     beta= 0.30
     Davidson diagonalization with overlap

---- Real-time Memory Report at c_bands before calling an iterative solver
             0 MiB given to the printing process from OS
             0 MiB allocation reported by mallinfo(arena+hblkhd)
             0 MiB available memory on the node where the printing process lives
------------------
     ethr =  2.88E-05,  avg # of iterations =  1.9

     negative rho (up, down):  2.831E-01 0.000E+00

     total cpu time spent up to now is      122.9 secs

     total energy              =   -2562.76944878 Ry
     estimated scf accuracy    <       0.31276581 Ry

     iteration # 16     ecut=    45.00 Ry     beta= 0.30
     Davidson diagonalization with overlap

---- Real-time Memory Report at c_bands before calling an iterative solver
             0 MiB given to the printing process from OS
             0 MiB allocation reported by mallinfo(arena+hblkhd)
             0 MiB available memory on the node where the printing process lives
------------------
     ethr =  2.88E-05,  avg # of iterations =  1.0

     negative rho (up, down):  2.903E-01 0.000E+00

     total cpu time spent up to now is      129.9 secs

     total energy              =   -2562.76954260 Ry
     estimated scf accuracy    <       0.32871677 Ry

     iteration # 17     ecut=    45.00 Ry     beta= 0.30
     Davidson diagonalization with overlap

---- Real-time Memory Report at c_bands before calling an iterative solver
             0 MiB given to the printing process from OS
             0 MiB allocation reported by mallinfo(arena+hblkhd)
             0 MiB available memory on the node where the printing process lives
------------------
     ethr =  2.88E-05,  avg # of iterations =  1.0

     negative rho (up, down):  9.531E-02 0.000E+00

     total cpu time spent up to now is      136.9 secs

     total energy              =   -2562.76524702 Ry
     estimated scf accuracy    <       0.35294915 Ry

     iteration # 18     ecut=    45.00 Ry     beta= 0.30
     Davidson diagonalization with overlap

---- Real-time Memory Report at c_bands before calling an iterative solver
             0 MiB given to the printing process from OS
             0 MiB allocation reported by mallinfo(arena+hblkhd)
             0 MiB available memory on the node where the printing process lives
------------------
     ethr =  2.88E-05,  avg # of iterations =  2.0

     negative rho (up, down):  4.523E-02 0.000E+00

     total cpu time spent up to now is      144.5 secs

     total energy              =   -2562.76641513 Ry
     estimated scf accuracy    <       0.09490971 Ry

     iteration # 19     ecut=    45.00 Ry     beta= 0.30
     Davidson diagonalization with overlap

---- Real-time Memory Report at c_bands before calling an iterative solver
             0 MiB given to the printing process from OS
             0 MiB allocation reported by mallinfo(arena+hblkhd)
             0 MiB available memory on the node where the printing process lives
------------------
     ethr =  2.88E-05,  avg # of iterations =  1.0

     negative rho (up, down):  3.067E-02 0.000E+00

     total cpu time spent up to now is      151.9 secs

     total energy              =   -2562.76641989 Ry
     estimated scf accuracy    <       0.03877936 Ry

     iteration # 20     ecut=    45.00 Ry     beta= 0.30
     Davidson diagonalization with overlap

---- Real-time Memory Report at c_bands before calling an iterative solver
             0 MiB given to the printing process from OS
             0 MiB allocation reported by mallinfo(arena+hblkhd)
             0 MiB available memory on the node where the printing process lives
------------------
     ethr =  2.88E-05,  avg # of iterations =  1.0

     negative rho (up, down):  3.732E-02 0.000E+00

     total cpu time spent up to now is      160.4 secs

     total energy              =   -2562.76639746 Ry
     estimated scf accuracy    <       0.01873055 Ry

     iteration # 21     ecut=    45.00 Ry     beta= 0.30
     Davidson diagonalization with overlap

---- Real-time Memory Report at c_bands before calling an iterative solver
             0 MiB given to the printing process from OS
             0 MiB allocation reported by mallinfo(arena+hblkhd)
             0 MiB available memory on the node where the printing process lives
------------------
     ethr =  2.88E-05,  avg # of iterations =  1.0

     negative rho (up, down):  1.810E-04 0.000E+00

     total cpu time spent up to now is      167.8 secs

     total energy              =   -2562.76735807 Ry
     estimated scf accuracy    <       0.02560764 Ry

     iteration # 22     ecut=    45.00 Ry     beta= 0.30
     Davidson diagonalization with overlap

---- Real-time Memory Report at c_bands before calling an iterative solver
             0 MiB given to the printing process from OS
             0 MiB allocation reported by mallinfo(arena+hblkhd)
             0 MiB available memory on the node where the printing process lives
------------------
     ethr =  2.88E-05,  avg # of iterations =  1.0

     total cpu time spent up to now is      175.1 secs

     total energy              =   -2562.76765100 Ry
     estimated scf accuracy    <       0.00474471 Ry

     iteration # 23     ecut=    45.00 Ry     beta= 0.30
     Davidson diagonalization with overlap

---- Real-time Memory Report at c_bands before calling an iterative solver
             0 MiB given to the printing process from OS
             0 MiB allocation reported by mallinfo(arena+hblkhd)
             0 MiB available memory on the node where the printing process lives
------------------
     ethr =  9.49E-06,  avg # of iterations =  2.0

     total cpu time spent up to now is      182.4 secs

     total energy              =   -2562.76782534 Ry
     estimated scf accuracy    <       0.00021627 Ry

     iteration # 24     ecut=    45.00 Ry     beta= 0.30
     Davidson diagonalization with overlap

---- Real-time Memory Report at c_bands before calling an iterative solver
             0 MiB given to the printing process from OS
             0 MiB allocation reported by mallinfo(arena+hblkhd)
             0 MiB available memory on the node where the printing process lives
------------------
     ethr =  4.33E-07,  avg # of iterations =  5.0

     total cpu time spent up to now is      190.2 secs

     total energy              =   -2562.76789077 Ry
     estimated scf accuracy    <       0.00030117 Ry

     iteration # 25     ecut=    45.00 Ry     beta= 0.30
     Davidson diagonalization with overlap

---- Real-time Memory Report at c_bands before calling an iterative solver
             0 MiB given to the printing process from OS
             0 MiB allocation reported by mallinfo(arena+hblkhd)
             0 MiB available memory on the node where the printing process lives
------------------
     ethr =  4.33E-07,  avg # of iterations =  2.0

     total cpu time spent up to now is      197.3 secs

     total energy              =   -2562.76789512 Ry
     estimated scf accuracy    <       0.00033176 Ry

     iteration # 26     ecut=    45.00 Ry     beta= 0.30
     Davidson diagonalization with overlap

---- Real-time Memory Report at c_bands before calling an iterative solver
             0 MiB given to the printing process from OS
             0 MiB allocation reported by mallinfo(arena+hblkhd)
             0 MiB available memory on the node where the printing process lives
------------------
     ethr =  4.33E-07,  avg # of iterations =  1.2

     total cpu time spent up to now is      204.2 secs

     total energy              =   -2562.76789871 Ry
     estimated scf accuracy    <       0.00011924 Ry

     iteration # 27     ecut=    45.00 Ry     beta= 0.30
     Davidson diagonalization with overlap

---- Real-time Memory Report at c_bands before calling an iterative solver
             0 MiB given to the printing process from OS
             0 MiB allocation reported by mallinfo(arena+hblkhd)
             0 MiB available memory on the node where the printing process lives
------------------
     ethr =  2.38E-07,  avg # of iterations =  1.2

     total cpu time spent up to now is      211.2 secs

     total energy              =   -2562.76789971 Ry
     estimated scf accuracy    <       0.00006264 Ry

     iteration # 28     ecut=    45.00 Ry     beta= 0.30
     Davidson diagonalization with overlap

---- Real-time Memory Report at c_bands before calling an iterative solver
             0 MiB given to the printing process from OS
             0 MiB allocation reported by mallinfo(arena+hblkhd)
             0 MiB available memory on the node where the printing process lives
------------------
     ethr =  1.25E-07,  avg # of iterations =  1.1

     total cpu time spent up to now is      218.3 secs

     total energy              =   -2562.76790058 Ry
     estimated scf accuracy    <       0.00000402 Ry

     iteration # 29     ecut=    45.00 Ry     beta= 0.30
     Davidson diagonalization with overlap

---- Real-time Memory Report at c_bands before calling an iterative solver
             0 MiB given to the printing process from OS
             0 MiB allocation reported by mallinfo(arena+hblkhd)
             0 MiB available memory on the node where the printing process lives
------------------
     ethr =  8.05E-09,  avg # of iterations =  4.1

     total cpu time spent up to now is      225.7 secs

     total energy              =   -2562.76790103 Ry
     estimated scf accuracy    <       0.00000100 Ry

     iteration # 30     ecut=    45.00 Ry     beta= 0.30
     Davidson diagonalization with overlap

---- Real-time Memory Report at c_bands before calling an iterative solver
             0 MiB given to the printing process from OS
             0 MiB allocation reported by mallinfo(arena+hblkhd)
             0 MiB available memory on the node where the printing process lives
------------------
     ethr =  1.99E-09,  avg # of iterations =  2.8

     total cpu time spent up to now is      232.8 secs

     total energy              =   -2562.76790117 Ry
     estimated scf accuracy    <       0.00000159 Ry

     iteration # 31     ecut=    45.00 Ry     beta= 0.30
     Davidson diagonalization with overlap

---- Real-time Memory Report at c_bands before calling an iterative solver
             0 MiB given to the printing process from OS
             0 MiB allocation reported by mallinfo(arena+hblkhd)
             0 MiB available memory on the node where the printing process lives
------------------
     ethr =  1.99E-09,  avg # of iterations =  1.0

     total cpu time spent up to now is      240.0 secs

     total energy              =   -2562.76790121 Ry
     estimated scf accuracy    <       0.00000159 Ry

     iteration # 32     ecut=    45.00 Ry     beta= 0.30
     Davidson diagonalization with overlap

---- Real-time Memory Report at c_bands before calling an iterative solver
             0 MiB given to the printing process from OS
             0 MiB allocation reported by mallinfo(arena+hblkhd)
             0 MiB available memory on the node where the printing process lives
------------------
     ethr =  1.99E-09,  avg # of iterations =  2.0

     total cpu time spent up to now is      247.2 secs

     total energy              =   -2562.76790124 Ry
     estimated scf accuracy    <       0.00000014 Ry

     iteration # 33     ecut=    45.00 Ry     beta= 0.30
     Davidson diagonalization with overlap

---- Real-time Memory Report at c_bands before calling an iterative solver
             0 MiB given to the printing process from OS
             0 MiB allocation reported by mallinfo(arena+hblkhd)
             0 MiB available memory on the node where the printing process lives
------------------
     ethr =  2.75E-10,  avg # of iterations =  1.9

     total cpu time spent up to now is      254.2 secs

     total energy              =   -2562.76790125 Ry
     estimated scf accuracy    <       0.00000027 Ry

     iteration # 34     ecut=    45.00 Ry     beta= 0.30
     Davidson diagonalization with overlap

---- Real-time Memory Report at c_bands before calling an iterative solver
             0 MiB given to the printing process from OS
             0 MiB allocation reported by mallinfo(arena+hblkhd)
             0 MiB available memory on the node where the printing process lives
------------------
     ethr =  2.75E-10,  avg # of iterations =  1.0

     total cpu time spent up to now is      261.5 secs

     total energy              =   -2562.76790125 Ry
     estimated scf accuracy    <       0.00000002 Ry

     iteration # 35     ecut=    45.00 Ry     beta= 0.30
     Davidson diagonalization with overlap

---- Real-time Memory Report at c_bands before calling an iterative solver
             0 MiB given to the printing process from OS
             0 MiB allocation reported by mallinfo(arena+hblkhd)
             0 MiB available memory on the node where the printing process lives
------------------
     ethr =  4.24E-11,  avg # of iterations =  2.0

     total cpu time spent up to now is      268.6 secs

     total energy              =   -2562.76790126 Ry
     estimated scf accuracy    <       0.00000002 Ry

     iteration # 36     ecut=    45.00 Ry     beta= 0.30
     Davidson diagonalization with overlap

---- Real-time Memory Report at c_bands before calling an iterative solver
             0 MiB given to the printing process from OS
             0 MiB allocation reported by mallinfo(arena+hblkhd)
             0 MiB available memory on the node where the printing process lives
------------------
     ethr =  4.24E-11,  avg # of iterations =  1.0

     total cpu time spent up to now is      275.6 secs

     total energy              =   -2562.76790126 Ry
     estimated scf accuracy    <       0.00000002 Ry

     iteration # 37     ecut=    45.00 Ry     beta= 0.30
     Davidson diagonalization with overlap

---- Real-time Memory Report at c_bands before calling an iterative solver
             0 MiB given to the printing process from OS
             0 MiB allocation reported by mallinfo(arena+hblkhd)
             0 MiB available memory on the node where the printing process lives
------------------
     ethr =  4.07E-11,  avg # of iterations =  1.2

     total cpu time spent up to now is      282.9 secs

     End of self-consistent calculation

          k = 0.0000 0.0000 0.0000 (  9315 PWs)   bands (ev):

   -23.2265 -23.1926 -23.1925 -16.0694 -16.0694 -16.0692 -16.0692 -16.0692
    -8.5775  -8.5775  -8.5775  -8.3926  -8.3926  -8.3926  -8.3035  -8.3035
    -8.3035  -3.8019  -3.3777   4.7221   4.7221   4.7221   5.2006   5.5146
     5.5146   5.5146   5.9110   5.9110   5.9110   5.9663   5.9663   8.2750
     8.2750   8.2750   8.5583   8.5583  10.0302  10.3060  10.3060  10.9016

     occupation numbers 
     1.0000   1.0000   1.0000   1.0000   1.0000   1.0000   1.0000   1.0000
     1.0000   1.0000   1.0000   1.0000   1.0000   1.0000   1.0000   1.0000
     1.0000   1.0000   1.0000   1.0000   1.0000   1.0000   1.0011   0.6668
     0.6668   0.6668  -0.0004  -0.0004  -0.0004  -0.0000  -0.0000  -0.0000
    -0.0000  -0.0000  -0.0000  -0.0000  -0.0000  -0.0000  -0.0000  -0.0000

          k = 0.0000 0.0000-0.5000 (  9322 PWs)   bands (ev):

   -23.2152 -23.2042 -23.1925 -16.0695 -16.0694 -16.0692 -16.0692 -16.0692
    -8.5290  -8.5290  -8.5182  -8.4447  -8.4138  -8.4138  -8.3962  -8.3318
    -8.3318  -3.7646  -2.9396   3.2252   4.0069   4.5469   4.5469   4.8936
     4.8936   6.1158   6.3259   6.8006   7.3446   7.3847   7.3847   7.6659
     8.1935   8.6205   8.7610   8.9032   8.9032   9.0949   9.0949  10.1092

     occupation numbers 
     1.0000   1.0000   1.0000   1.0000   1.0000   1.0000   1.0000   1.0000
     1.0000   1.0000   1.0000   1.0000   1.0000   1.0000   1.0000   1.0000
     1.0000   1.0000   1.0000   1.0000   1.0000   1.0000   1.0000   1.0000
     1.0000  -0.0000  -0.0000  -0.0000  -0.0000  -0.0000  -0.0000  -0.0000
    -0.0000  -0.0000  -0.0000  -0.0000  -0.0000  -0.0000  -0.0000  -0.0000

          k = 0.0000-0.5000 0.0000 (  9322 PWs)   bands (ev):

   -23.2152 -23.2042 -23.1925 -16.0695 -16.0694 -16.0692 -16.0692 -16.0692
    -8.5290  -8.5290  -8.5182  -8.4447  -8.4138  -8.4138  -8.3962  -8.3318
    -8.3318  -3.7646  -2.9396   3.2252   4.0069   4.5469   4.5469   4.8936
     4.8936   6.1158   6.3259   6.8006   7.3446   7.3847   7.3847   7.6659
     8.1935   8.6205   8.7610   8.9032   8.9032   9.0949   9.0949  10.1092

     occupation numbers 
     1.0000   1.0000   1.0000   1.0000   1.0000   1.0000   1.0000   1.0000
     1.0000   1.0000   1.0000   1.0000   1.0000   1.0000   1.0000   1.0000
     1.0000   1.0000   1.0000   1.0000   1.0000   1.0000   1.0000   1.0000
     1.0000  -0.0000  -0.0000  -0.0000  -0.0000  -0.0000  -0.0000  -0.0000
    -0.0000  -0.0000  -0.0000  -0.0000  -0.0000  -0.0000  -0.0000  -0.0000

          k = 0.0000-0.5000-0.5000 (  9348 PWs)   bands (ev):

   -23.2042 -23.2042 -23.2038 -16.0694 -16.0694 -16.0693 -16.0693 -16.0693
    -8.7381  -8.5202  -8.4494  -8.4192  -8.4192  -8.4131  -8.4131  -8.3135
    -8.2684  -3.7562  -2.5052   2.9500   2.9500   4.2610   4.5701   4.5701
     4.7931   6.9144   6.9144   7.0920   7.1118   7.3652   7.3652   8.1692
     8.2285   8.5720   8.6523   8.6523   8.9640   9.0087   9.2716   9.3806

     occupation numbers 
     1.0000   1.0000   1.0000   1.0000   1.0000   1.0000   1.0000   1.0000
     1.0000   1.0000   1.0000   1.0000   1.0000   1.0000   1.0000   1.0000
     1.0000   1.0000   1.0000   1.0000   1.0000   1.0000   1.0000   1.0000
     1.0000  -0.0000  -0.0000  -0.0000  -0.0000  -0.0000  -0.0000  -0.0000
    -0.0000  -0.0000  -0.0000  -0.0000  -0.0000  -0.0000  -0.0000  -0.0000

          k =-0.5000 0.0000 0.0000 (  9322 PWs)   bands (ev):

   -23.2152 -23.2042 -23.1925 -16.0695 -16.0694 -16.0692 -16.0692 -16.0692
    -8.5290  -8.5290  -8.5182  -8.4447  -8.4138  -8.4138  -8.3962  -8.3318
    -8.3318  -3.7646  -2.9396   3.2252   4.0069   4.5469   4.5469   4.8936
     4.8936   6.1158   6.3259   6.8006   7.3446   7.3847   7.3847   7.6659
     8.1935   8.6205   8.7610   8.9032   8.9032   9.0949   9.0949  10.1092

     occupation numbers 
     1.0000   1.0000   1.0000   1.0000   1.0000   1.0000   1.0000   1.0000
     1.0000   1.0000   1.0000   1.0000   1.0000   1.0000   1.0000   1.0000
     1.0000   1.0000   1.0000   1.0000   1.0000   1.0000   1.0000   1.0000
     1.0000  -0.0000  -0.0000  -0.0000  -0.0000  -0.0000  -0.0000  -0.0000
    -0.0000  -0.0000  -0.0000  -0.0000  -0.0000  -0.0000  -0.0000  -0.0000

          k =-0.5000 0.0000-0.5000 (  9348 PWs)   bands (ev):

   -23.2042 -23.2042 -23.2038 -16.0694 -16.0694 -16.0693 -16.0693 -16.0693
    -8.7381  -8.5202  -8.4494  -8.4192  -8.4192  -8.4131  -8.4131  -8.3135
    -8.2684  -3.7562  -2.5052   2.9500   2.9500   4.2610   4.5701   4.5701
     4.7931   6.9144   6.9144   7.0920   7.1118   7.3652   7.3652   8.1692
     8.2285   8.5720   8.6523   8.6523   8.9640   9.0087   9.2716   9.3806

     occupation numbers 
     1.0000   1.0000   1.0000   1.0000   1.0000   1.0000   1.0000   1.0000
     1.0000   1.0000   1.0000   1.0000   1.0000   1.0000   1.0000   1.0000
     1.0000   1.0000   1.0000   1.0000   1.0000   1.0000   1.0000   1.0000
     1.0000  -0.0000  -0.0000  -0.0000  -0.0000  -0.0000  -0.0000  -0.0000
    -0.0000  -0.0000  -0.0000  -0.0000  -0.0000  -0.0000  -0.0000  -0.0000

          k =-0.5000-0.5000 0.0000 (  9348 PWs)   bands (ev):

   -23.2042 -23.2042 -23.2038 -16.0694 -16.0694 -16.0693 -16.0693 -16.0693
    -8.7381  -8.5202  -8.4494  -8.4192  -8.4192  -8.4131  -8.4131  -8.3135
    -8.2684  -3.7562  -2.5052   2.9500   2.9500   4.2610   4.5701   4.5701
     4.7931   6.9144   6.9144   7.0920   7.1118   7.3652   7.3652   8.1692
     8.2285   8.5720   8.6523   8.6523   8.9640   9.0087   9.2716   9.3806

     occupation numbers 
     1.0000   1.0000   1.0000   1.0000   1.0000   1.0000   1.0000   1.0000
     1.0000   1.0000   1.0000   1.0000   1.0000   1.0000   1.0000   1.0000
     1.0000   1.0000   1.0000   1.0000   1.0000   1.0000   1.0000   1.0000
     1.0000  -0.0000  -0.0000  -0.0000  -0.0000  -0.0000  -0.0000  -0.0000
    -0.0000  -0.0000  -0.0000  -0.0000  -0.0000  -0.0000  -0.0000  -0.0000

          k =-0.5000-0.5000-0.5000 (  9328 PWs)   bands (ev):

   -23.2041 -23.2041 -23.2041 -16.0694 -16.0694 -16.0692 -16.0692 -16.0692
    -8.9367  -8.5176  -8.5176  -8.5176  -8.3134  -8.3134  -8.3134  -8.2682
    -8.2682  -3.7670  -2.0744   2.8232   2.8232   2.8232   4.7922   4.7922
     4.7922   6.6769   6.9048   6.9048   6.9048   7.4394   7.4394   7.4394
     8.7512   8.7512   9.6371   9.6371   9.6371   9.9455   9.9455  10.1600

     occupation numbers 
     1.0000   1.0000   1.0000   1.0000   1.0000   1.0000   1.0000   1.0000
     1.0000   1.0000   1.0000   1.0000   1.0000   1.0000   1.0000   1.0000
     1.0000   1.0000   1.0000   1.0000   1.0000   1.0000   1.0000   1.0000
     1.0000  -0.0000  -0.0000  -0.0000  -0.0000  -0.0000  -0.0000  -0.0000
    -0.0000  -0.0000  -0.0000  -0.0000  -0.0000  -0.0000  -0.0000  -0.0000

     the Fermi energy is     5.5420 ev

!    total energy              =   -2562.76790126 Ry
     total all-electron energy =   -104839.052692 Ry
     estimated scf accuracy    <          3.0E-09 Ry
     smearing contrib. (-TS)   =      -0.00091567 Ry
     internal energy E=F+TS    =   -2562.76698559 Ry

     The total energy is F=E-TS. E is the sum of the following terms:
     one-electron contribution =    -114.13542377 Ry
     hartree contribution      =      77.62968924 Ry
     xc contribution           =    -105.39731952 Ry
     ewald contribution        =    -211.09937052 Ry
     one-center paw contrib.   =   -2209.76456102 Ry
      -> PAW hartree energy AE =     207.35385213 Ry
      -> PAW hartree energy PS =    -206.74424711 Ry
      -> PAW xc energy AE      =   -2311.77832617 Ry
      -> PAW xc energy PS      =     101.40416014 Ry
      -> total E_H with PAW    =      78.23929426 Ry
      -> total E_XC with PAW   =   -2315.77148556 Ry

     convergence has been achieved in  37 iterations

     Writing all to output data dir ./out_nosoc/Ba3BiSb_nosoc.save/ :
     XML data file, charge density, pseudopotentials, collected wavefunctions

     init_run     :     22.07s CPU      5.71s WALL (       1 calls)
     electrons    :   1147.91s CPU    276.84s WALL (       1 calls)

     Called by init_run:
     wfcinit      :      7.97s CPU      1.36s WALL (       1 calls)
     wfcinit:atom :      0.09s CPU      0.01s WALL (       8 calls)
     wfcinit:wfcr :      7.46s CPU      1.27s WALL (       8 calls)
     potinit      :      4.75s CPU      0.87s WALL (       1 calls)
     hinit0       :      4.16s CPU      1.45s WALL (       1 calls)

     Called by electrons:
     c_bands      :    547.14s CPU     95.70s WALL (      38 calls)
     sum_band     :    310.03s CPU     94.60s WALL (      38 calls)
     v_of_rho     :     14.46s CPU      2.68s WALL (      38 calls)
     v_h          :      0.84s CPU      0.16s WALL (      38 calls)
     v_xc         :     13.61s CPU      2.52s WALL (      38 calls)
     newd         :    187.35s CPU     68.91s WALL (      38 calls)
     PAW_pot      :     92.80s CPU     16.62s WALL (      38 calls)
     mix_rho      :      2.48s CPU      0.49s WALL (      38 calls)

     Called by c_bands:
     init_us_2    :     11.46s CPU      2.08s WALL (     616 calls)
     cegterg      :    514.31s CPU     89.69s WALL (     304 calls)

     Called by sum_band:
     sum_band:wei :      0.06s CPU      0.01s WALL (      38 calls)
     sum_band:loo :    114.86s CPU     20.23s WALL (      38 calls)
     sum_band:buf :      0.93s CPU      0.20s WALL (     304 calls)
     sum_band:ini :      5.54s CPU      1.00s WALL (     304 calls)
     sum_band:cal :      5.45s CPU      0.93s WALL (     304 calls)
     sum_band:bec :      0.07s CPU      0.01s WALL (     304 calls)
     addusdens    :    194.63s CPU     74.18s WALL (      38 calls)
                                        0.00s GPU  (      38 calls)
     addusd:skk   :      0.40s CPU      0.14s WALL (     114 calls)
                                        0.00s GPU  (     114 calls)

     Called by *egterg:
     cdiaghg      :      8.39s CPU      1.54s WALL (     999 calls)
     cegterg:over :     11.36s CPU      1.82s WALL (     703 calls)
     cegterg:upda :      5.28s CPU      1.05s WALL (     703 calls)
     cegterg:last :     11.89s CPU      2.09s WALL (     494 calls)
     h_psi        :    463.81s CPU     81.03s WALL (    1015 calls)
     s_psi        :     10.13s CPU      1.94s WALL (    1015 calls)
     g_psi        :      2.24s CPU      0.29s WALL (     703 calls)

     Called by h_psi:
     h_psi:calbec :     12.19s CPU      2.17s WALL (    1015 calls)
     vloc_psi     :    439.52s CPU     76.82s WALL (    1015 calls)
                                        0.00s GPU  (    1015 calls)
     add_vuspsi   :     10.37s CPU      1.95s WALL (    1015 calls)

     General routines
     calbec       :     17.14s CPU      3.10s WALL (    1319 calls)
     fft          :      6.10s CPU      1.12s WALL (     493 calls)
     ffts         :      1.57s CPU      0.30s WALL (      76 calls)
     fftw         :    435.94s CPU     88.05s WALL (   66294 calls)
     interpolate  :      1.95s CPU      0.36s WALL (      38 calls)
     davcio       :      3.24s CPU      0.70s WALL (    1574 calls)

     Parallel routines

     PAW routines
     PAW_pot      :     92.80s CPU     16.62s WALL (      38 calls)

     PWSCF        :  19m30.78s CPU   4m43.06s WALL


   This run was terminated on:  16:51: 6   7Jul2026            

=------------------------------------------------------------------------------=
   JOB DONE.
=------------------------------------------------------------------------------=
Note: The following floating-point exceptions are signalling: IEEE_UNDERFLOW_FLAG IEEE_DENORMAL
