
     Program PWSCF v.7.5 starts on 29Jul2026 at 19:10:33 

     This program is part of the open-source Quantum ESPRESSO suite
     for quantum simulation of materials; please cite
         "P. Giannozzi et al., J. Phys.:Condens. Matter 21 395502 (2009);
         "P. Giannozzi et al., J. Phys.:Condens. Matter 29 465901 (2017);
         "P. Giannozzi et al., J. Chem. Phys. 152 154105 (2020);
          URL http://www.quantum-espresso.org", 
     in publications or presentations arising from this work. More details at
     http://www.quantum-espresso.org/quote

     Parallel version (MPI & OpenMP), running on      48 processor cores
     Number of MPI processes:                48
     Threads/MPI process:                     1

     MPI processes distributed on     1 nodes
     527314 MiB available memory on the printing compute node when the environment starts

     Reading input from Bi2Se3.scf.nosoc.nc.in

     Current dimensions of program PWSCF are:
     Max number of different atomic species (ntypx) = 10
     Max number of k-points (npk) =  40000
     Max angular momentum in pseudopotentials (lmaxx) =  4

     K-points division:     npool     =      24
     R & G space division:  proc/nbgrp/npool/nimage =       2
     Subspace diagonalization in iterative solution of the eigenvalue problem:
     a serial algorithm will be used


     Parallelization info
     --------------------
     sticks:   dense  smooth     PW     G-vecs:    dense   smooth      PW
     Min        1637    1637    487                39531    39531    6434
     Max        1638    1638    488                39532    39532    6435
     Sum        3275    3275    975                79063    79063   12869

     Using Slab Decomposition



     bravais-lattice index     =            0
     lattice parameter (alat)  =      18.9447  a.u.
     unit-cell volume          =    1000.1458 (a.u.)^3
     number of atoms/cell      =            5
     number of atomic types    =            2
     number of electrons       =        78.00
     number of Kohn-Sham states=           62
     kinetic-energy cutoff     =      70.0000  Ry
     charge density cutoff     =     280.0000  Ry
     scf convergence threshold =      1.0E-08
     mixing beta               =       0.3000
     number of iterations used =            8  plain     mixing
     Exchange-correlation= PBE
                           (   1   4   3   4   0   0   0)

     celldm(1)=  18.944708  celldm(2)=   0.000000  celldm(3)=   0.000000
     celldm(4)=   0.000000  celldm(5)=   0.000000  celldm(6)=   0.000000

     crystal axes: (cart. coord. in units of alat)
               a(1) = (   0.410349   0.000805   0.911928 )  
               a(2) = (   0.196369   0.360314   0.911928 )  
               a(3) = (   0.001353   0.000805   0.999999 )  

     reciprocal axes: (cart. coord. in units 2 pi/alat)
               b(1) = (  2.444529 -1.326585 -0.002239 )  
               b(2) = ( -0.000482  2.781285 -0.002239 )  
               b(3) = ( -2.228798 -1.326584  1.004084 )  


     PseudoPot. # 1 for Bi read from file:
     ./pseudo_nc/Bi_SR.upf
     MD5 check sum: 200c63f77f1a5690b65e64056759e8a3
     Pseudo is Norm-conserving + core correction, Zval = 15.0
     Generated using ONCVPSP code by D. R. Hamann
     Using radial grid of 1490 points,  6 beta functions with: 
                l(1) =   0
                l(2) =   0
                l(3) =   1
                l(4) =   1
                l(5) =   2
                l(6) =   2

     PseudoPot. # 2 for Se read from file:
     ./pseudo_nc/Se_SR.upf
     MD5 check sum: 3cc46b3642295b3f4fdae63b742ce36d
     Pseudo is Norm-conserving + core correction, Zval = 16.0
     Generated using ONCVPSP code by D. R. Hamann
     Using radial grid of 1214 points,  6 beta functions with: 
                l(1) =   0
                l(2) =   0
                l(3) =   1
                l(4) =   1
                l(5) =   2
                l(6) =   2

     atomic species   valence    mass     pseudopotential
     Bi               15.00   208.98040     Bi( 1.00)
     Se               16.00    78.97100     Se( 1.00)

     No symmetry found


                                    s                        frac. trans.

      isym =  1     identity                                     

 cryst.   s( 1) = (     1          0          0      )
                  (     0          1          0      )
                  (     0          0          1      )

 cart.    s( 1) = (  1.0000000 -0.0000000  0.0000000 )
                  ( -0.0000000  1.0000000  0.0000000 )
                  ( -0.0000000  0.0000000  1.0000000 )


   Cartesian axes

     site n.     atom                  positions (alat units)
         1        Bi     tau(   1) = (   0.2432254   0.1447681   1.1295295  )
         2        Bi     tau(   2) = (   0.3648449   0.2171563   1.6943258  )
         3        Se     tau(   3) = (   0.0000000   0.0000000   0.0000000  )
         4        Se     tau(   4) = (   0.1293806   0.0770076   0.6008387  )
         5        Se     tau(   5) = (   0.4786897   0.2849168   2.2230166  )

   Crystallographic axes

     site n.     atom                  positions (cryst. coord.)
         1        Bi     tau(   1) = (  0.3999955  0.3999955  0.3999955  )
         2        Bi     tau(   2) = (  0.6000045  0.6000045  0.6000045  )
         3        Se     tau(   3) = (  0.0000000  0.0000000  0.0000000  )
         4        Se     tau(   4) = (  0.2127725  0.2127725  0.2127725  )
         5        Se     tau(   5) = (  0.7872275  0.7872275  0.7872275  )

     number of k points=   216  Methfessel-Paxton smearing, width (Ry)=  0.0100
                       cart. coord. in units 2pi/alat
        k(    1) = (   0.0000000   0.0000000   0.0000000), wk =   0.0092593
        k(    2) = (  -0.3714664  -0.2210974   0.1673474), wk =   0.0092593
        k(    3) = (  -0.7429327  -0.4421947   0.3346948), wk =   0.0092593
        k(    4) = (   1.1143991   0.6632921  -0.5020422), wk =   0.0092593
        k(    5) = (   0.7429327   0.4421947  -0.3346948), wk =   0.0092593
        k(    6) = (   0.3714664   0.2210974  -0.1673474), wk =   0.0092593
        k(    7) = (  -0.0000803   0.4635476  -0.0003731), wk =   0.0092593
        k(    8) = (  -0.3715467   0.2424502   0.1669743), wk =   0.0092593
        k(    9) = (  -0.7430130   0.0213529   0.3343217), wk =   0.0092593
        k(   10) = (   1.1143187   1.1268396  -0.5024153), wk =   0.0092593
        k(   11) = (   0.7428524   0.9057423  -0.3350679), wk =   0.0092593
        k(   12) = (   0.3713860   0.6846449  -0.1677205), wk =   0.0092593
        k(   13) = (  -0.0001607   0.9270951  -0.0007463), wk =   0.0092593
        k(   14) = (  -0.3716270   0.7059978   0.1666012), wk =   0.0092593
        k(   15) = (  -0.7430934   0.4849004   0.3339486), wk =   0.0092593
        k(   16) = (   1.1142384   1.5903872  -0.5027885), wk =   0.0092593
        k(   17) = (   0.7427720   1.3692898  -0.3354411), wk =   0.0092593
        k(   18) = (   0.3713057   1.1481925  -0.1680937), wk =   0.0092593
        k(   19) = (   0.0002410  -1.3906427   0.0011194), wk =   0.0092593
        k(   20) = (  -0.3712253  -1.6117401   0.1684668), wk =   0.0092593
        k(   21) = (  -0.7426917  -1.8328374   0.3358142), wk =   0.0092593
        k(   22) = (   1.1146401  -0.7273507  -0.5009228), wk =   0.0092593
        k(   23) = (   0.7431737  -0.9484480  -0.3335754), wk =   0.0092593
        k(   24) = (   0.3717074  -1.1695454  -0.1662280), wk =   0.0092593
        k(   25) = (   0.0001607  -0.9270951   0.0007463), wk =   0.0092593
        k(   26) = (  -0.3713057  -1.1481925   0.1680937), wk =   0.0092593
        k(   27) = (  -0.7427720  -1.3692898   0.3354411), wk =   0.0092593
        k(   28) = (   1.1145597  -0.2638031  -0.5012960), wk =   0.0092593
        k(   29) = (   0.7430934  -0.4849004  -0.3339486), wk =   0.0092593
        k(   30) = (   0.3716270  -0.7059978  -0.1666012), wk =   0.0092593
        k(   31) = (   0.0000803  -0.4635476   0.0003731), wk =   0.0092593
        k(   32) = (  -0.3713860  -0.6846449   0.1677205), wk =   0.0092593
        k(   33) = (  -0.7428524  -0.9057423   0.3350679), wk =   0.0092593
        k(   34) = (   1.1144794   0.1997445  -0.5016691), wk =   0.0092593
        k(   35) = (   0.7430130  -0.0213529  -0.3343217), wk =   0.0092593
        k(   36) = (   0.3715467  -0.2424502  -0.1669743), wk =   0.0092593
        k(   37) = (   0.4074215  -0.2210975  -0.0003731), wk =   0.0092593
        k(   38) = (   0.0359551  -0.4421948   0.1669743), wk =   0.0092593
        k(   39) = (  -0.3355112  -0.6632922   0.3343217), wk =   0.0092593
        k(   40) = (   1.5218205   0.4421946  -0.5024153), wk =   0.0092593
        k(   41) = (   1.1503542   0.2210972  -0.3350679), wk =   0.0092593
        k(   42) = (   0.7788878  -0.0000001  -0.1677205), wk =   0.0092593
        k(   43) = (   0.4073411   0.2424501  -0.0007463), wk =   0.0092593
        k(   44) = (   0.0358748   0.0213527   0.1666012), wk =   0.0092593
        k(   45) = (  -0.3355916  -0.1997446   0.3339486), wk =   0.0092593
        k(   46) = (   1.5217402   0.9057421  -0.5027885), wk =   0.0092593
        k(   47) = (   1.1502738   0.6846448  -0.3354411), wk =   0.0092593
        k(   48) = (   0.7788075   0.4635474  -0.1680937), wk =   0.0092593
        k(   49) = (   0.4072608   0.7059976  -0.0011194), wk =   0.0092593
        k(   50) = (   0.0357944   0.4849003   0.1662280), wk =   0.0092593
        k(   51) = (  -0.3356719   0.2638029   0.3335754), wk =   0.0092593
        k(   52) = (   1.5216598   1.3692897  -0.5031616), wk =   0.0092593
        k(   53) = (   1.1501935   1.1481923  -0.3358142), wk =   0.0092593
        k(   54) = (   0.7787271   0.9270950  -0.1684668), wk =   0.0092593
        k(   55) = (   0.4076625  -1.6117402   0.0007463), wk =   0.0092593
        k(   56) = (   0.0361962  -1.8328375   0.1680937), wk =   0.0092593
        k(   57) = (  -0.3352702  -2.0539349   0.3354411), wk =   0.0092593
        k(   58) = (   1.5220616  -0.9484481  -0.5012960), wk =   0.0092593
        k(   59) = (   1.1505952  -1.1695455  -0.3339486), wk =   0.0092593
        k(   60) = (   0.7791289  -1.3906428  -0.1666012), wk =   0.0092593
        k(   61) = (   0.4075822  -1.1481926   0.0003731), wk =   0.0092593
        k(   62) = (   0.0361158  -1.3692900   0.1677205), wk =   0.0092593
        k(   63) = (  -0.3353505  -1.5903873   0.3350679), wk =   0.0092593
        k(   64) = (   1.5219812  -0.4849006  -0.5016691), wk =   0.0092593
        k(   65) = (   1.1505149  -0.7059979  -0.3343217), wk =   0.0092593
        k(   66) = (   0.7790485  -0.9270953  -0.1669743), wk =   0.0092593
        k(   67) = (   0.4075018  -0.6846451  -0.0000000), wk =   0.0092593
        k(   68) = (   0.0360355  -0.9057424   0.1673474), wk =   0.0092593
        k(   69) = (  -0.3354309  -1.1268398   0.3346948), wk =   0.0092593
        k(   70) = (   1.5219009  -0.0213530  -0.5020422), wk =   0.0092593
        k(   71) = (   1.1504345  -0.2424504  -0.3346948), wk =   0.0092593
        k(   72) = (   0.7789682  -0.4635477  -0.1673474), wk =   0.0092593
        k(   73) = (   0.8148430  -0.4421950  -0.0007463), wk =   0.0092593
        k(   74) = (   0.4433766  -0.6632923   0.1666011), wk =   0.0092593
        k(   75) = (   0.0719103  -0.8843897   0.3339486), wk =   0.0092593
        k(   76) = (   1.9292420   0.2210971  -0.5027885), wk =   0.0092593
        k(   77) = (   1.5577757  -0.0000003  -0.3354411), wk =   0.0092593
        k(   78) = (   1.1863093  -0.2210976  -0.1680937), wk =   0.0092593
        k(   79) = (   0.8147626   0.0213526  -0.0011194), wk =   0.0092593
        k(   80) = (   0.4432963  -0.1997448   0.1662280), wk =   0.0092593
        k(   81) = (   0.0718299  -0.4208421   0.3335754), wk =   0.0092593
        k(   82) = (   1.9291617   0.6846446  -0.5031616), wk =   0.0092593
        k(   83) = (   1.5576953   0.4635473  -0.3358142), wk =   0.0092593
        k(   84) = (   1.1862290   0.2424499  -0.1684668), wk =   0.0092593
        k(   85) = (   0.8146823   0.4849002  -0.0014925), wk =   0.0092593
        k(   86) = (   0.4432159   0.2638028   0.1658549), wk =   0.0092593
        k(   87) = (   0.0717496   0.0427055   0.3332023), wk =   0.0092593
        k(   88) = (   1.9290813   1.1481922  -0.5035347), wk =   0.0092593
        k(   89) = (   1.5576150   0.9270949  -0.3361873), wk =   0.0092593
        k(   90) = (   1.1861486   0.7059975  -0.1688399), wk =   0.0092593
        k(   91) = (   0.8150840  -1.8328377   0.0003731), wk =   0.0092593
        k(   92) = (   0.4436177  -2.0539350   0.1677205), wk =   0.0092593
        k(   93) = (   0.0721513  -2.2750324   0.3350679), wk =   0.0092593
        k(   94) = (   1.9294831  -1.1695456  -0.5016691), wk =   0.0092593
        k(   95) = (   1.5580167  -1.3906430  -0.3343217), wk =   0.0092593
        k(   96) = (   1.1865504  -1.6117403  -0.1669743), wk =   0.0092593
        k(   97) = (   0.8150037  -1.3692901  -0.0000000), wk =   0.0092593
        k(   98) = (   0.4435373  -1.5903875   0.1673474), wk =   0.0092593
        k(   99) = (   0.0720710  -1.8114848   0.3346948), wk =   0.0092593
        k(  100) = (   1.9294027  -0.7059981  -0.5020422), wk =   0.0092593
        k(  101) = (   1.5579364  -0.9270954  -0.3346948), wk =   0.0092593
        k(  102) = (   1.1864700  -1.1481928  -0.1673474), wk =   0.0092593
        k(  103) = (   0.8149233  -0.9057425  -0.0003731), wk =   0.0092593
        k(  104) = (   0.4434570  -1.1268399   0.1669743), wk =   0.0092593
        k(  105) = (   0.0719906  -1.3479372   0.3343217), wk =   0.0092593
        k(  106) = (   1.9293224  -0.2424505  -0.5024153), wk =   0.0092593
        k(  107) = (   1.5578560  -0.4635478  -0.3350679), wk =   0.0092593
        k(  108) = (   1.1863897  -0.6846452  -0.1677205), wk =   0.0092593
        k(  109) = (  -1.2222644   0.6632925   0.0011194), wk =   0.0092593
        k(  110) = (  -1.5937308   0.4421951   0.1684668), wk =   0.0092593
        k(  111) = (  -1.9651971   0.2210978   0.3358142), wk =   0.0092593
        k(  112) = (  -0.1078654   1.3265845  -0.5009228), wk =   0.0092593
        k(  113) = (  -0.4793317   1.1054872  -0.3335754), wk =   0.0092593
        k(  114) = (  -0.8507981   0.8843898  -0.1662280), wk =   0.0092593
        k(  115) = (  -1.2223448   1.1268400   0.0007463), wk =   0.0092593
        k(  116) = (  -1.5938111   0.9057427   0.1680937), wk =   0.0092593
        k(  117) = (  -1.9652775   0.6846453   0.3354411), wk =   0.0092593
        k(  118) = (  -0.1079457   1.7901321  -0.5012960), wk =   0.0092593
        k(  119) = (  -0.4794121   1.5690347  -0.3339486), wk =   0.0092593
        k(  120) = (  -0.8508784   1.3479374  -0.1666011), wk =   0.0092593
        k(  121) = (  -1.2224251   1.5903876   0.0003731), wk =   0.0092593
        k(  122) = (  -1.5938915   1.3692903   0.1677205), wk =   0.0092593
        k(  123) = (  -1.9653578   1.1481929   0.3350679), wk =   0.0092593
        k(  124) = (  -0.1080261   2.2536797  -0.5016691), wk =   0.0092593
        k(  125) = (  -0.4794924   2.0325823  -0.3343217), wk =   0.0092593
        k(  126) = (  -0.8509588   1.8114850  -0.1669743), wk =   0.0092593
        k(  127) = (  -1.2220234  -0.7273502   0.0022388), wk =   0.0092593
        k(  128) = (  -1.5934898  -0.9484476   0.1695862), wk =   0.0092593
        k(  129) = (  -1.9649561  -1.1695449   0.3369336), wk =   0.0092593
        k(  130) = (  -0.1076244  -0.0640582  -0.4998035), wk =   0.0092593
        k(  131) = (  -0.4790907  -0.2851555  -0.3324560), wk =   0.0092593
        k(  132) = (  -0.8505571  -0.5062529  -0.1651086), wk =   0.0092593
        k(  133) = (  -1.2221038  -0.2638027   0.0018656), wk =   0.0092593
        k(  134) = (  -1.5935701  -0.4849000   0.1692130), wk =   0.0092593
        k(  135) = (  -1.9650365  -0.7059974   0.3365604), wk =   0.0092593
        k(  136) = (  -0.1077047   0.3994894  -0.5001766), wk =   0.0092593
        k(  137) = (  -0.4791711   0.1783920  -0.3328292), wk =   0.0092593
        k(  138) = (  -0.8506374  -0.0427053  -0.1654818), wk =   0.0092593
        k(  139) = (  -1.2221841   0.1997449   0.0014925), wk =   0.0092593
        k(  140) = (  -1.5936504  -0.0213524   0.1688399), wk =   0.0092593
        k(  141) = (  -1.9651168  -0.2424498   0.3361873), wk =   0.0092593
        k(  142) = (  -0.1077850   0.8630370  -0.5005497), wk =   0.0092593
        k(  143) = (  -0.4792514   0.6419396  -0.3332023), wk =   0.0092593
        k(  144) = (  -0.8507177   0.4208423  -0.1658549), wk =   0.0092593
        k(  145) = (  -0.8148430   0.4421950   0.0007463), wk =   0.0092593
        k(  146) = (  -1.1863093   0.2210976   0.1680937), wk =   0.0092593
        k(  147) = (  -1.5577757   0.0000003   0.3354411), wk =   0.0092593
        k(  148) = (   0.2995561   1.1054870  -0.5012960), wk =   0.0092593
        k(  149) = (  -0.0719103   0.8843897  -0.3339486), wk =   0.0092593
        k(  150) = (  -0.4433766   0.6632923  -0.1666011), wk =   0.0092593
        k(  151) = (  -0.8149233   0.9057425   0.0003731), wk =   0.0092593
        k(  152) = (  -1.1863897   0.6846452   0.1677205), wk =   0.0092593
        k(  153) = (  -1.5578560   0.4635478   0.3350679), wk =   0.0092593
        k(  154) = (   0.2994757   1.5690346  -0.5016691), wk =   0.0092593
        k(  155) = (  -0.0719906   1.3479372  -0.3343217), wk =   0.0092593
        k(  156) = (  -0.4434570   1.1268399  -0.1669743), wk =   0.0092593
        k(  157) = (  -0.8150037   1.3692901   0.0000000), wk =   0.0092593
        k(  158) = (  -1.1864700   1.1481928   0.1673474), wk =   0.0092593
        k(  159) = (  -1.5579364   0.9270954   0.3346948), wk =   0.0092593
        k(  160) = (   0.2993954   2.0325822  -0.5020422), wk =   0.0092593
        k(  161) = (  -0.0720710   1.8114848  -0.3346948), wk =   0.0092593
        k(  162) = (  -0.4435373   1.5903875  -0.1673474), wk =   0.0092593
        k(  163) = (  -0.8146019  -0.9484477   0.0018656), wk =   0.0092593
        k(  164) = (  -1.1860683  -1.1695451   0.1692130), wk =   0.0092593
        k(  165) = (  -1.5575346  -1.3906424   0.3365604), wk =   0.0092593
        k(  166) = (   0.2997971  -0.2851557  -0.5001766), wk =   0.0092593
        k(  167) = (  -0.0716692  -0.5062530  -0.3328292), wk =   0.0092593
        k(  168) = (  -0.4431356  -0.7273504  -0.1654818), wk =   0.0092593
        k(  169) = (  -0.8146823  -0.4849002   0.0014925), wk =   0.0092593
        k(  170) = (  -1.1861486  -0.7059975   0.1688399), wk =   0.0092593
        k(  171) = (  -1.5576150  -0.9270949   0.3361873), wk =   0.0092593
        k(  172) = (   0.2997168   0.1783919  -0.5005497), wk =   0.0092593
        k(  173) = (  -0.0717496  -0.0427055  -0.3332023), wk =   0.0092593
        k(  174) = (  -0.4432159  -0.2638028  -0.1658549), wk =   0.0092593
        k(  175) = (  -0.8147626  -0.0213526   0.0011194), wk =   0.0092593
        k(  176) = (  -1.1862290  -0.2424499   0.1684668), wk =   0.0092593
        k(  177) = (  -1.5576953  -0.4635473   0.3358142), wk =   0.0092593
        k(  178) = (   0.2996364   0.6419395  -0.5009228), wk =   0.0092593
        k(  179) = (  -0.0718299   0.4208421  -0.3335754), wk =   0.0092593
        k(  180) = (  -0.4432963   0.1997448  -0.1662280), wk =   0.0092593
        k(  181) = (  -0.4074215   0.2210975   0.0003731), wk =   0.0092593
        k(  182) = (  -0.7788878   0.0000001   0.1677205), wk =   0.0092593
        k(  183) = (  -1.1503542  -0.2210972   0.3350679), wk =   0.0092593
        k(  184) = (   0.7069776   0.8843895  -0.5016691), wk =   0.0092593
        k(  185) = (   0.3355112   0.6632922  -0.3343217), wk =   0.0092593
        k(  186) = (  -0.0359551   0.4421948  -0.1669743), wk =   0.0092593
        k(  187) = (  -0.4075018   0.6846451   0.0000000), wk =   0.0092593
        k(  188) = (  -0.7789682   0.4635477   0.1673474), wk =   0.0092593
        k(  189) = (  -1.1504345   0.2424504   0.3346948), wk =   0.0092593
        k(  190) = (   0.7068972   1.3479371  -0.5020422), wk =   0.0092593
        k(  191) = (   0.3354309   1.1268398  -0.3346948), wk =   0.0092593
        k(  192) = (  -0.0360355   0.9057424  -0.1673474), wk =   0.0092593
        k(  193) = (  -0.4075822   1.1481926  -0.0003731), wk =   0.0092593
        k(  194) = (  -0.7790485   0.9270953   0.1669743), wk =   0.0092593
        k(  195) = (  -1.1505149   0.7059979   0.3343217), wk =   0.0092593
        k(  196) = (   0.7068169   1.8114847  -0.5024153), wk =   0.0092593
        k(  197) = (   0.3353505   1.5903873  -0.3350679), wk =   0.0092593
        k(  198) = (  -0.0361158   1.3692900  -0.1677205), wk =   0.0092593
        k(  199) = (  -0.4071804  -1.1695452   0.0014925), wk =   0.0092593
        k(  200) = (  -0.7786468  -1.3906426   0.1688399), wk =   0.0092593
        k(  201) = (  -1.1501131  -1.6117399   0.3361873), wk =   0.0092593
        k(  202) = (   0.7072186  -0.5062532  -0.5005497), wk =   0.0092593
        k(  203) = (   0.3357523  -0.7273505  -0.3332023), wk =   0.0092593
        k(  204) = (  -0.0357141  -0.9484479  -0.1658549), wk =   0.0092593
        k(  205) = (  -0.4072608  -0.7059976   0.0011194), wk =   0.0092593
        k(  206) = (  -0.7787271  -0.9270950   0.1684668), wk =   0.0092593
        k(  207) = (  -1.1501935  -1.1481923   0.3358142), wk =   0.0092593
        k(  208) = (   0.7071383  -0.0427056  -0.5009228), wk =   0.0092593
        k(  209) = (   0.3356719  -0.2638029  -0.3335754), wk =   0.0092593
        k(  210) = (  -0.0357944  -0.4849003  -0.1662280), wk =   0.0092593
        k(  211) = (  -0.4073411  -0.2424501   0.0007463), wk =   0.0092593
        k(  212) = (  -0.7788075  -0.4635474   0.1680937), wk =   0.0092593
        k(  213) = (  -1.1502738  -0.6846448   0.3354411), wk =   0.0092593
        k(  214) = (   0.7070579   0.4208420  -0.5012960), wk =   0.0092593
        k(  215) = (   0.3355916   0.1997446  -0.3339486), wk =   0.0092593
        k(  216) = (  -0.0358748  -0.0213527  -0.1666012), wk =   0.0092593

                       cryst. coord.
        k(    1) = (   0.0000000   0.0000000   0.0000000), wk =   0.0092593
        k(    2) = (  -0.0000000  -0.0000000   0.1666667), wk =   0.0092593
        k(    3) = (  -0.0000000  -0.0000000   0.3333333), wk =   0.0092593
        k(    4) = (  -0.0000000  -0.0000000  -0.5000000), wk =   0.0092593
        k(    5) = (   0.0000000   0.0000000  -0.3333333), wk =   0.0092593
        k(    6) = (  -0.0000000  -0.0000000  -0.1666667), wk =   0.0092593
        k(    7) = (   0.0000000   0.1666667   0.0000000), wk =   0.0092593
        k(    8) = (   0.0000000   0.1666667   0.1666667), wk =   0.0092593
        k(    9) = (   0.0000000   0.1666667   0.3333333), wk =   0.0092593
        k(   10) = (  -0.0000000   0.1666667  -0.5000000), wk =   0.0092593
        k(   11) = (  -0.0000000   0.1666667  -0.3333333), wk =   0.0092593
        k(   12) = (   0.0000000   0.1666667  -0.1666667), wk =   0.0092593
        k(   13) = (   0.0000000   0.3333333   0.0000000), wk =   0.0092593
        k(   14) = (   0.0000000   0.3333333   0.1666667), wk =   0.0092593
        k(   15) = (   0.0000000   0.3333333   0.3333333), wk =   0.0092593
        k(   16) = (  -0.0000000   0.3333333  -0.5000000), wk =   0.0092593
        k(   17) = (  -0.0000000   0.3333333  -0.3333333), wk =   0.0092593
        k(   18) = (  -0.0000000   0.3333333  -0.1666667), wk =   0.0092593
        k(   19) = (  -0.0000000  -0.5000000   0.0000000), wk =   0.0092593
        k(   20) = (   0.0000000  -0.5000000   0.1666667), wk =   0.0092593
        k(   21) = (   0.0000000  -0.5000000   0.3333333), wk =   0.0092593
        k(   22) = (  -0.0000000  -0.5000000  -0.5000000), wk =   0.0092593
        k(   23) = (  -0.0000000  -0.5000000  -0.3333333), wk =   0.0092593
        k(   24) = (  -0.0000000  -0.5000000  -0.1666667), wk =   0.0092593
        k(   25) = (  -0.0000000  -0.3333333  -0.0000000), wk =   0.0092593
        k(   26) = (  -0.0000000  -0.3333333   0.1666667), wk =   0.0092593
        k(   27) = (   0.0000000  -0.3333333   0.3333333), wk =   0.0092593
        k(   28) = (  -0.0000000  -0.3333333  -0.5000000), wk =   0.0092593
        k(   29) = (  -0.0000000  -0.3333333  -0.3333333), wk =   0.0092593
        k(   30) = (  -0.0000000  -0.3333333  -0.1666667), wk =   0.0092593
        k(   31) = (  -0.0000000  -0.1666667  -0.0000000), wk =   0.0092593
        k(   32) = (   0.0000000  -0.1666667   0.1666667), wk =   0.0092593
        k(   33) = (  -0.0000000  -0.1666667   0.3333333), wk =   0.0092593
        k(   34) = (  -0.0000000  -0.1666667  -0.5000000), wk =   0.0092593
        k(   35) = (  -0.0000000  -0.1666667  -0.3333333), wk =   0.0092593
        k(   36) = (  -0.0000000  -0.1666667  -0.1666667), wk =   0.0092593
        k(   37) = (   0.1666667  -0.0000000  -0.0000000), wk =   0.0092593
        k(   38) = (   0.1666667   0.0000000   0.1666667), wk =   0.0092593
        k(   39) = (   0.1666667   0.0000000   0.3333333), wk =   0.0092593
        k(   40) = (   0.1666667  -0.0000000  -0.5000000), wk =   0.0092593
        k(   41) = (   0.1666667  -0.0000000  -0.3333333), wk =   0.0092593
        k(   42) = (   0.1666667  -0.0000000  -0.1666667), wk =   0.0092593
        k(   43) = (   0.1666667   0.1666667  -0.0000000), wk =   0.0092593
        k(   44) = (   0.1666667   0.1666667   0.1666667), wk =   0.0092593
        k(   45) = (   0.1666667   0.1666667   0.3333333), wk =   0.0092593
        k(   46) = (   0.1666667   0.1666667  -0.5000000), wk =   0.0092593
        k(   47) = (   0.1666667   0.1666667  -0.3333333), wk =   0.0092593
        k(   48) = (   0.1666667   0.1666667  -0.1666667), wk =   0.0092593
        k(   49) = (   0.1666667   0.3333333  -0.0000000), wk =   0.0092593
        k(   50) = (   0.1666667   0.3333333   0.1666667), wk =   0.0092593
        k(   51) = (   0.1666667   0.3333333   0.3333333), wk =   0.0092593
        k(   52) = (   0.1666667   0.3333333  -0.5000000), wk =   0.0092593
        k(   53) = (   0.1666667   0.3333333  -0.3333333), wk =   0.0092593
        k(   54) = (   0.1666667   0.3333333  -0.1666667), wk =   0.0092593
        k(   55) = (   0.1666667  -0.5000000  -0.0000000), wk =   0.0092593
        k(   56) = (   0.1666667  -0.5000000   0.1666667), wk =   0.0092593
        k(   57) = (   0.1666667  -0.5000000   0.3333333), wk =   0.0092593
        k(   58) = (   0.1666667  -0.5000000  -0.5000000), wk =   0.0092593
        k(   59) = (   0.1666667  -0.5000000  -0.3333333), wk =   0.0092593
        k(   60) = (   0.1666667  -0.5000000  -0.1666667), wk =   0.0092593
        k(   61) = (   0.1666667  -0.3333333  -0.0000000), wk =   0.0092593
        k(   62) = (   0.1666667  -0.3333333   0.1666667), wk =   0.0092593
        k(   63) = (   0.1666667  -0.3333333   0.3333333), wk =   0.0092593
        k(   64) = (   0.1666667  -0.3333333  -0.5000000), wk =   0.0092593
        k(   65) = (   0.1666667  -0.3333333  -0.3333333), wk =   0.0092593
        k(   66) = (   0.1666667  -0.3333333  -0.1666667), wk =   0.0092593
        k(   67) = (   0.1666667  -0.1666667  -0.0000000), wk =   0.0092593
        k(   68) = (   0.1666667  -0.1666667   0.1666667), wk =   0.0092593
        k(   69) = (   0.1666667  -0.1666667   0.3333333), wk =   0.0092593
        k(   70) = (   0.1666667  -0.1666667  -0.5000000), wk =   0.0092593
        k(   71) = (   0.1666667  -0.1666667  -0.3333333), wk =   0.0092593
        k(   72) = (   0.1666667  -0.1666667  -0.1666667), wk =   0.0092593
        k(   73) = (   0.3333333  -0.0000000  -0.0000000), wk =   0.0092593
        k(   74) = (   0.3333333   0.0000000   0.1666667), wk =   0.0092593
        k(   75) = (   0.3333333   0.0000000   0.3333333), wk =   0.0092593
        k(   76) = (   0.3333333  -0.0000000  -0.5000000), wk =   0.0092593
        k(   77) = (   0.3333333  -0.0000000  -0.3333333), wk =   0.0092593
        k(   78) = (   0.3333333  -0.0000000  -0.1666667), wk =   0.0092593
        k(   79) = (   0.3333333   0.1666667  -0.0000000), wk =   0.0092593
        k(   80) = (   0.3333333   0.1666667   0.1666667), wk =   0.0092593
        k(   81) = (   0.3333333   0.1666667   0.3333333), wk =   0.0092593
        k(   82) = (   0.3333333   0.1666667  -0.5000000), wk =   0.0092593
        k(   83) = (   0.3333333   0.1666667  -0.3333333), wk =   0.0092593
        k(   84) = (   0.3333333   0.1666667  -0.1666667), wk =   0.0092593
        k(   85) = (   0.3333333   0.3333333  -0.0000000), wk =   0.0092593
        k(   86) = (   0.3333333   0.3333333   0.1666667), wk =   0.0092593
        k(   87) = (   0.3333333   0.3333333   0.3333333), wk =   0.0092593
        k(   88) = (   0.3333333   0.3333333  -0.5000000), wk =   0.0092593
        k(   89) = (   0.3333333   0.3333333  -0.3333333), wk =   0.0092593
        k(   90) = (   0.3333333   0.3333333  -0.1666667), wk =   0.0092593
        k(   91) = (   0.3333333  -0.5000000  -0.0000000), wk =   0.0092593
        k(   92) = (   0.3333333  -0.5000000   0.1666667), wk =   0.0092593
        k(   93) = (   0.3333333  -0.5000000   0.3333333), wk =   0.0092593
        k(   94) = (   0.3333333  -0.5000000  -0.5000000), wk =   0.0092593
        k(   95) = (   0.3333333  -0.5000000  -0.3333333), wk =   0.0092593
        k(   96) = (   0.3333333  -0.5000000  -0.1666667), wk =   0.0092593
        k(   97) = (   0.3333333  -0.3333333  -0.0000000), wk =   0.0092593
        k(   98) = (   0.3333333  -0.3333333   0.1666667), wk =   0.0092593
        k(   99) = (   0.3333333  -0.3333333   0.3333333), wk =   0.0092593
        k(  100) = (   0.3333333  -0.3333333  -0.5000000), wk =   0.0092593
        k(  101) = (   0.3333333  -0.3333333  -0.3333333), wk =   0.0092593
        k(  102) = (   0.3333333  -0.3333333  -0.1666667), wk =   0.0092593
        k(  103) = (   0.3333333  -0.1666667  -0.0000000), wk =   0.0092593
        k(  104) = (   0.3333333  -0.1666667   0.1666667), wk =   0.0092593
        k(  105) = (   0.3333333  -0.1666667   0.3333333), wk =   0.0092593
        k(  106) = (   0.3333333  -0.1666667  -0.5000000), wk =   0.0092593
        k(  107) = (   0.3333333  -0.1666667  -0.3333333), wk =   0.0092593
        k(  108) = (   0.3333333  -0.1666667  -0.1666667), wk =   0.0092593
        k(  109) = (  -0.5000000   0.0000000   0.0000000), wk =   0.0092593
        k(  110) = (  -0.5000000   0.0000000   0.1666667), wk =   0.0092593
        k(  111) = (  -0.5000000   0.0000000   0.3333333), wk =   0.0092593
        k(  112) = (  -0.5000000  -0.0000000  -0.5000000), wk =   0.0092593
        k(  113) = (  -0.5000000   0.0000000  -0.3333333), wk =   0.0092593
        k(  114) = (  -0.5000000  -0.0000000  -0.1666667), wk =   0.0092593
        k(  115) = (  -0.5000000   0.1666667   0.0000000), wk =   0.0092593
        k(  116) = (  -0.5000000   0.1666667   0.1666667), wk =   0.0092593
        k(  117) = (  -0.5000000   0.1666667   0.3333333), wk =   0.0092593
        k(  118) = (  -0.5000000   0.1666667  -0.5000000), wk =   0.0092593
        k(  119) = (  -0.5000000   0.1666667  -0.3333333), wk =   0.0092593
        k(  120) = (  -0.5000000   0.1666667  -0.1666667), wk =   0.0092593
        k(  121) = (  -0.5000000   0.3333333   0.0000000), wk =   0.0092593
        k(  122) = (  -0.5000000   0.3333333   0.1666667), wk =   0.0092593
        k(  123) = (  -0.5000000   0.3333333   0.3333333), wk =   0.0092593
        k(  124) = (  -0.5000000   0.3333333  -0.5000000), wk =   0.0092593
        k(  125) = (  -0.5000000   0.3333333  -0.3333333), wk =   0.0092593
        k(  126) = (  -0.5000000   0.3333333  -0.1666667), wk =   0.0092593
        k(  127) = (  -0.5000000  -0.5000000   0.0000000), wk =   0.0092593
        k(  128) = (  -0.5000000  -0.5000000   0.1666667), wk =   0.0092593
        k(  129) = (  -0.5000000  -0.5000000   0.3333333), wk =   0.0092593
        k(  130) = (  -0.5000000  -0.5000000  -0.5000000), wk =   0.0092593
        k(  131) = (  -0.5000000  -0.5000000  -0.3333333), wk =   0.0092593
        k(  132) = (  -0.5000000  -0.5000000  -0.1666667), wk =   0.0092593
        k(  133) = (  -0.5000000  -0.3333333   0.0000000), wk =   0.0092593
        k(  134) = (  -0.5000000  -0.3333333   0.1666667), wk =   0.0092593
        k(  135) = (  -0.5000000  -0.3333333   0.3333333), wk =   0.0092593
        k(  136) = (  -0.5000000  -0.3333333  -0.5000000), wk =   0.0092593
        k(  137) = (  -0.5000000  -0.3333333  -0.3333333), wk =   0.0092593
        k(  138) = (  -0.5000000  -0.3333333  -0.1666667), wk =   0.0092593
        k(  139) = (  -0.5000000  -0.1666667  -0.0000000), wk =   0.0092593
        k(  140) = (  -0.5000000  -0.1666667   0.1666667), wk =   0.0092593
        k(  141) = (  -0.5000000  -0.1666667   0.3333333), wk =   0.0092593
        k(  142) = (  -0.5000000  -0.1666667  -0.5000000), wk =   0.0092593
        k(  143) = (  -0.5000000  -0.1666667  -0.3333333), wk =   0.0092593
        k(  144) = (  -0.5000000  -0.1666667  -0.1666667), wk =   0.0092593
        k(  145) = (  -0.3333333   0.0000000   0.0000000), wk =   0.0092593
        k(  146) = (  -0.3333333   0.0000000   0.1666667), wk =   0.0092593
        k(  147) = (  -0.3333333   0.0000000   0.3333333), wk =   0.0092593
        k(  148) = (  -0.3333333   0.0000000  -0.5000000), wk =   0.0092593
        k(  149) = (  -0.3333333   0.0000000  -0.3333333), wk =   0.0092593
        k(  150) = (  -0.3333333   0.0000000  -0.1666667), wk =   0.0092593
        k(  151) = (  -0.3333333   0.1666667   0.0000000), wk =   0.0092593
        k(  152) = (  -0.3333333   0.1666667   0.1666667), wk =   0.0092593
        k(  153) = (  -0.3333333   0.1666667   0.3333333), wk =   0.0092593
        k(  154) = (  -0.3333333   0.1666667  -0.5000000), wk =   0.0092593
        k(  155) = (  -0.3333333   0.1666667  -0.3333333), wk =   0.0092593
        k(  156) = (  -0.3333333   0.1666667  -0.1666667), wk =   0.0092593
        k(  157) = (  -0.3333333   0.3333333   0.0000000), wk =   0.0092593
        k(  158) = (  -0.3333333   0.3333333   0.1666667), wk =   0.0092593
        k(  159) = (  -0.3333333   0.3333333   0.3333333), wk =   0.0092593
        k(  160) = (  -0.3333333   0.3333333  -0.5000000), wk =   0.0092593
        k(  161) = (  -0.3333333   0.3333333  -0.3333333), wk =   0.0092593
        k(  162) = (  -0.3333333   0.3333333  -0.1666667), wk =   0.0092593
        k(  163) = (  -0.3333333  -0.5000000   0.0000000), wk =   0.0092593
        k(  164) = (  -0.3333333  -0.5000000   0.1666667), wk =   0.0092593
        k(  165) = (  -0.3333333  -0.5000000   0.3333333), wk =   0.0092593
        k(  166) = (  -0.3333333  -0.5000000  -0.5000000), wk =   0.0092593
        k(  167) = (  -0.3333333  -0.5000000  -0.3333333), wk =   0.0092593
        k(  168) = (  -0.3333333  -0.5000000  -0.1666667), wk =   0.0092593
        k(  169) = (  -0.3333333  -0.3333333   0.0000000), wk =   0.0092593
        k(  170) = (  -0.3333333  -0.3333333   0.1666667), wk =   0.0092593
        k(  171) = (  -0.3333333  -0.3333333   0.3333333), wk =   0.0092593
        k(  172) = (  -0.3333333  -0.3333333  -0.5000000), wk =   0.0092593
        k(  173) = (  -0.3333333  -0.3333333  -0.3333333), wk =   0.0092593
        k(  174) = (  -0.3333333  -0.3333333  -0.1666667), wk =   0.0092593
        k(  175) = (  -0.3333333  -0.1666667   0.0000000), wk =   0.0092593
        k(  176) = (  -0.3333333  -0.1666667   0.1666667), wk =   0.0092593
        k(  177) = (  -0.3333333  -0.1666667   0.3333333), wk =   0.0092593
        k(  178) = (  -0.3333333  -0.1666667  -0.5000000), wk =   0.0092593
        k(  179) = (  -0.3333333  -0.1666667  -0.3333333), wk =   0.0092593
        k(  180) = (  -0.3333333  -0.1666667  -0.1666667), wk =   0.0092593
        k(  181) = (  -0.1666667   0.0000000   0.0000000), wk =   0.0092593
        k(  182) = (  -0.1666667   0.0000000   0.1666667), wk =   0.0092593
        k(  183) = (  -0.1666667   0.0000000   0.3333333), wk =   0.0092593
        k(  184) = (  -0.1666667  -0.0000000  -0.5000000), wk =   0.0092593
        k(  185) = (  -0.1666667  -0.0000000  -0.3333333), wk =   0.0092593
        k(  186) = (  -0.1666667  -0.0000000  -0.1666667), wk =   0.0092593
        k(  187) = (  -0.1666667   0.1666667   0.0000000), wk =   0.0092593
        k(  188) = (  -0.1666667   0.1666667   0.1666667), wk =   0.0092593
        k(  189) = (  -0.1666667   0.1666667   0.3333333), wk =   0.0092593
        k(  190) = (  -0.1666667   0.1666667  -0.5000000), wk =   0.0092593
        k(  191) = (  -0.1666667   0.1666667  -0.3333333), wk =   0.0092593
        k(  192) = (  -0.1666667   0.1666667  -0.1666667), wk =   0.0092593
        k(  193) = (  -0.1666667   0.3333333   0.0000000), wk =   0.0092593
        k(  194) = (  -0.1666667   0.3333333   0.1666667), wk =   0.0092593
        k(  195) = (  -0.1666667   0.3333333   0.3333333), wk =   0.0092593
        k(  196) = (  -0.1666667   0.3333333  -0.5000000), wk =   0.0092593
        k(  197) = (  -0.1666667   0.3333333  -0.3333333), wk =   0.0092593
        k(  198) = (  -0.1666667   0.3333333  -0.1666667), wk =   0.0092593
        k(  199) = (  -0.1666667  -0.5000000   0.0000000), wk =   0.0092593
        k(  200) = (  -0.1666667  -0.5000000   0.1666667), wk =   0.0092593
        k(  201) = (  -0.1666667  -0.5000000   0.3333333), wk =   0.0092593
        k(  202) = (  -0.1666667  -0.5000000  -0.5000000), wk =   0.0092593
        k(  203) = (  -0.1666667  -0.5000000  -0.3333333), wk =   0.0092593
        k(  204) = (  -0.1666667  -0.5000000  -0.1666667), wk =   0.0092593
        k(  205) = (  -0.1666667  -0.3333333   0.0000000), wk =   0.0092593
        k(  206) = (  -0.1666667  -0.3333333   0.1666667), wk =   0.0092593
        k(  207) = (  -0.1666667  -0.3333333   0.3333333), wk =   0.0092593
        k(  208) = (  -0.1666667  -0.3333333  -0.5000000), wk =   0.0092593
        k(  209) = (  -0.1666667  -0.3333333  -0.3333333), wk =   0.0092593
        k(  210) = (  -0.1666667  -0.3333333  -0.1666667), wk =   0.0092593
        k(  211) = (  -0.1666667  -0.1666667  -0.0000000), wk =   0.0092593
        k(  212) = (  -0.1666667  -0.1666667   0.1666667), wk =   0.0092593
        k(  213) = (  -0.1666667  -0.1666667   0.3333333), wk =   0.0092593
        k(  214) = (  -0.1666667  -0.1666667  -0.5000000), wk =   0.0092593
        k(  215) = (  -0.1666667  -0.1666667  -0.3333333), wk =   0.0092593
        k(  216) = (  -0.1666667  -0.1666667  -0.1666667), wk =   0.0092593

     Dense  grid:    79063 G-vectors     FFT dimensions: ( 108, 108, 108)

     Dynamical RAM for                 wfc:       4.68 MB

     Dynamical RAM for     wfc (w. buffer):       4.68 MB

     Dynamical RAM for           str. fact:       1.21 MB

     Dynamical RAM for           local pot:       0.00 MB

     Dynamical RAM for          nlocal pot:       6.79 MB

     Dynamical RAM for                qrad:       2.69 MB

     Dynamical RAM for          rho,v,vnew:      16.23 MB

     Dynamical RAM for               rhoin:       5.41 MB

     Dynamical RAM for           G-vectors:       2.56 MB

     Dynamical RAM for          h,s,v(r/c):       0.70 MB

     Dynamical RAM for          <psi|beta>:       0.09 MB

     Dynamical RAM for                 psi:       9.36 MB

     Dynamical RAM for                hpsi:       9.36 MB

     Dynamical RAM for      wfcinit/wfcrot:       9.44 MB

     Estimated static dynamical RAM per process >      65.40 MB

     Estimated max dynamical RAM per process >      84.90 MB

     Estimated total dynamical RAM >       3.98 GB

     Initial potential from superposition of free atoms

     starting charge      77.9981, renormalised to      78.0000
     Starting wfcs are   45 randomized atomic wfcs +   17 random wfcs

     total cpu time spent up to now is        6.7 secs

     per-process dynamical memory:   141.4 Mb

     Self-consistent Calculation

     iteration #  1     ecut=    70.00 Ry     beta= 0.30
     Davidson diagonalization with overlap

---- Real-time Memory Report at c_bands before calling an iterative solver
           257 MiB given to the printing process from OS
           138 MiB allocation reported by mallinfo(arena+hblkhd)
        517431 MiB available memory on the node where the printing process lives
------------------
     ethr =  1.00E-02,  avg # of iterations =  7.0

     Threshold (ethr) on eigenvalues was too large:
     Diagonalizing with lowered threshold

     Davidson diagonalization with overlap

---- Real-time Memory Report at c_bands before calling an iterative solver
           257 MiB given to the printing process from OS
           138 MiB allocation reported by mallinfo(arena+hblkhd)
        525757 MiB available memory on the node where the printing process lives
------------------
     ethr =  3.64E-04,  avg # of iterations =  5.6

     total cpu time spent up to now is       45.9 secs

     total energy              =   -1055.69343284 Ry
     estimated scf accuracy    <       0.28137345 Ry

     iteration #  2     ecut=    70.00 Ry     beta= 0.30
     Davidson diagonalization with overlap

---- Real-time Memory Report at c_bands before calling an iterative solver
           296 MiB given to the printing process from OS
           118 MiB allocation reported by mallinfo(arena+hblkhd)
        523307 MiB available memory on the node where the printing process lives
------------------
     ethr =  3.61E-04,  avg # of iterations =  2.8

     total cpu time spent up to now is       62.2 secs

     total energy              =   -1055.71156607 Ry
     estimated scf accuracy    <       0.17567489 Ry

     iteration #  3     ecut=    70.00 Ry     beta= 0.30
     Davidson diagonalization with overlap

---- Real-time Memory Report at c_bands before calling an iterative solver
           296 MiB given to the printing process from OS
           118 MiB allocation reported by mallinfo(arena+hblkhd)
        522956 MiB available memory on the node where the printing process lives
------------------
     ethr =  2.25E-04,  avg # of iterations =  2.2

     total cpu time spent up to now is       77.8 secs

     total energy              =   -1055.73897153 Ry
     estimated scf accuracy    <       0.05408416 Ry

     iteration #  4     ecut=    70.00 Ry     beta= 0.30
     Davidson diagonalization with overlap

---- Real-time Memory Report at c_bands before calling an iterative solver
           297 MiB given to the printing process from OS
           118 MiB allocation reported by mallinfo(arena+hblkhd)
        522476 MiB available memory on the node where the printing process lives
------------------
     ethr =  6.93E-05,  avg # of iterations =  1.9

     total cpu time spent up to now is       93.1 secs

     total energy              =   -1055.74364403 Ry
     estimated scf accuracy    <       0.00337000 Ry

     iteration #  5     ecut=    70.00 Ry     beta= 0.30
     Davidson diagonalization with overlap

---- Real-time Memory Report at c_bands before calling an iterative solver
           297 MiB given to the printing process from OS
           118 MiB allocation reported by mallinfo(arena+hblkhd)
        523070 MiB available memory on the node where the printing process lives
------------------
     ethr =  4.32E-06,  avg # of iterations =  7.1

     total cpu time spent up to now is      110.2 secs

     total energy              =   -1055.74389544 Ry
     estimated scf accuracy    <       0.00028291 Ry

     iteration #  6     ecut=    70.00 Ry     beta= 0.30
     Davidson diagonalization with overlap

---- Real-time Memory Report at c_bands before calling an iterative solver
           297 MiB given to the printing process from OS
           118 MiB allocation reported by mallinfo(arena+hblkhd)
        525281 MiB available memory on the node where the printing process lives
------------------
     ethr =  3.63E-07,  avg # of iterations =  1.6

     total cpu time spent up to now is      125.1 secs

     total energy              =   -1055.74393358 Ry
     estimated scf accuracy    <       0.00005110 Ry

     iteration #  7     ecut=    70.00 Ry     beta= 0.30
     Davidson diagonalization with overlap

---- Real-time Memory Report at c_bands before calling an iterative solver
           297 MiB given to the printing process from OS
           118 MiB allocation reported by mallinfo(arena+hblkhd)
        525873 MiB available memory on the node where the printing process lives
------------------
     ethr =  6.55E-08,  avg # of iterations =  2.0

     total cpu time spent up to now is      140.6 secs

     total energy              =   -1055.74393868 Ry
     estimated scf accuracy    <       0.00001730 Ry

     iteration #  8     ecut=    70.00 Ry     beta= 0.30
     Davidson diagonalization with overlap

---- Real-time Memory Report at c_bands before calling an iterative solver
           297 MiB given to the printing process from OS
           118 MiB allocation reported by mallinfo(arena+hblkhd)
        525532 MiB available memory on the node where the printing process lives
------------------
     ethr =  2.22E-08,  avg # of iterations =  1.1

     total cpu time spent up to now is      156.2 secs

     total energy              =   -1055.74394103 Ry
     estimated scf accuracy    <       0.00000040 Ry

     iteration #  9     ecut=    70.00 Ry     beta= 0.30
     Davidson diagonalization with overlap

---- Real-time Memory Report at c_bands before calling an iterative solver
           297 MiB given to the printing process from OS
           118 MiB allocation reported by mallinfo(arena+hblkhd)
        524569 MiB available memory on the node where the printing process lives
------------------
     ethr =  5.13E-10,  avg # of iterations =  2.0

     total cpu time spent up to now is      173.4 secs

     total energy              =   -1055.74394110 Ry
     estimated scf accuracy    <       0.00000003 Ry

     iteration # 10     ecut=    70.00 Ry     beta= 0.30
     Davidson diagonalization with overlap

---- Real-time Memory Report at c_bands before calling an iterative solver
           297 MiB given to the printing process from OS
           118 MiB allocation reported by mallinfo(arena+hblkhd)
        524145 MiB available memory on the node where the printing process lives
------------------
     ethr =  3.74E-11,  avg # of iterations =  2.0

     total cpu time spent up to now is      190.1 secs

     End of self-consistent calculation

          k = 0.0000 0.0000 0.0000 (  9943 PWs)   bands (ev):

   -38.6100 -38.6100 -38.6099 -38.6099 -38.5992 -38.5992 -38.5983 -38.5983
   -38.5958 -38.5947 -38.5040 -38.4914 -38.4914 -38.4514 -38.4514 -14.3104
   -14.3104 -14.3092 -14.3092 -14.3020 -14.2999 -14.2910 -14.2910 -14.2890
   -14.2890  -5.3995  -4.7265  -3.8876  -0.7800  -0.0289   6.6946   6.7142
     6.9792   6.9792   7.0298   7.0298   7.6133   7.6133   8.6896   8.9687
    10.1642  10.1642  10.8601  11.4048  11.4048  14.6986  15.6275  15.7918
    15.7918  15.8938  16.6443  16.6443  17.3910  17.4622  17.4622  18.3365
    18.6905  19.8985  19.8985  20.0302  20.7396  20.7396

     occupation numbers 
     1.0000   1.0000   1.0000   1.0000   1.0000   1.0000   1.0000   1.0000
     1.0000   1.0000   1.0000   1.0000   1.0000   1.0000   1.0000   1.0000
     1.0000   1.0000   1.0000   1.0000   1.0000   1.0000   1.0000   1.0000
     1.0000   1.0000   1.0000   1.0000   1.0000   1.0000   1.0000   1.0000
     1.0000   1.0000   1.0000   1.0000   1.0000   1.0000   1.0262  -0.0288
    -0.0000  -0.0000  -0.0000  -0.0000  -0.0000  -0.0000  -0.0000  -0.0000
    -0.0000  -0.0000  -0.0000  -0.0000  -0.0000  -0.0000  -0.0000  -0.0000
    -0.0000  -0.0000  -0.0000  -0.0000  -0.0000  -0.0000

          k =-0.3715-0.2211 0.1673 (  9920 PWs)   bands (ev):

   -38.6102 -38.6100 -38.6097 -38.6092 -38.5989 -38.5986 -38.5983 -38.5979
   -38.5951 -38.5947 -38.5038 -38.4911 -38.4911 -38.4514 -38.4512 -14.3130
   -14.3113 -14.3047 -14.3035 -14.2989 -14.2967 -14.2945 -14.2922 -14.2920
   -14.2892  -5.1616  -4.5265  -3.7607  -0.9371  -0.3125   5.5615   5.7315
     6.2282   6.3590   6.9173   7.5215   7.5362   7.7024   8.0838  10.0648
    10.5014  10.7685  10.9116  11.4802  12.0332  14.0095  14.8859  16.0995
    16.2415  16.6079  16.8005  17.0812  17.5414  18.4936  18.5988  18.9788
    19.4576  19.6338  19.6601  20.2340  20.5742  21.0637

     occupation numbers 
     1.0000   1.0000   1.0000   1.0000   1.0000   1.0000   1.0000   1.0000
     1.0000   1.0000   1.0000   1.0000   1.0000   1.0000   1.0000   1.0000
     1.0000   1.0000   1.0000   1.0000   1.0000   1.0000   1.0000   1.0000
     1.0000   1.0000   1.0000   1.0000   1.0000   1.0000   1.0000   1.0000
     1.0000   1.0000   1.0000   1.0000   1.0000   1.0000   1.0000  -0.0000
    -0.0000  -0.0000  -0.0000  -0.0000  -0.0000  -0.0000  -0.0000  -0.0000
    -0.0000  -0.0000  -0.0000  -0.0000  -0.0000  -0.0000  -0.0000  -0.0000
    -0.0000  -0.0000  -0.0000  -0.0000  -0.0000  -0.0000

          k =-0.7429-0.4422 0.3347 (  9889 PWs)   bands (ev):

   -38.6102 -38.6095 -38.6091 -38.6086 -38.5988 -38.5987 -38.5983 -38.5980
   -38.5946 -38.5940 -38.5031 -38.4912 -38.4911 -38.4512 -38.4505 -14.3203
   -14.3172 -14.3026 -14.2986 -14.2960 -14.2938 -14.2910 -14.2900 -14.2888
   -14.2876  -4.4986  -4.0382  -3.5039  -1.5008  -1.0030   4.1702   5.2198
     5.5755   5.8008   6.2201   6.4743   7.3849   7.5952   8.1665   9.7854
    10.8117  11.0461  11.7520  12.3176  13.0377  13.1754  15.2732  15.9710
    17.4316  17.4635  17.7177  17.9966  18.5441  19.4749  19.5935  19.5963
    19.9977  20.2456  21.2101  22.1959  22.4332  22.7522

     occupation numbers 
     1.0000   1.0000   1.0000   1.0000   1.0000   1.0000   1.0000   1.0000
     1.0000   1.0000   1.0000   1.0000   1.0000   1.0000   1.0000   1.0000
     1.0000   1.0000   1.0000   1.0000   1.0000   1.0000   1.0000   1.0000
     1.0000   1.0000   1.0000   1.0000   1.0000   1.0000   1.0000   1.0000
     1.0000   1.0000   1.0000   1.0000   1.0000   1.0000   1.0000  -0.0000
    -0.0000  -0.0000  -0.0000  -0.0000  -0.0000  -0.0000  -0.0000  -0.0000
    -0.0000  -0.0000  -0.0000  -0.0000  -0.0000  -0.0000  -0.0000  -0.0000
    -0.0000  -0.0000  -0.0000  -0.0000  -0.0000  -0.0000

          k = 1.1144 0.6633-0.5020 (  9850 PWs)   bands (ev):

   -38.6098 -38.6092 -38.6082 -38.6074 -38.5985 -38.5980 -38.5978 -38.5976
   -38.5941 -38.5940 -38.5030 -38.4907 -38.4906 -38.4510 -38.4493 -14.3246
   -14.3208 -14.3053 -14.3010 -14.2963 -14.2921 -14.2861 -14.2859 -14.2852
   -14.2836  -3.7599  -3.6679  -3.6679  -1.8840  -1.5296   3.5959   5.3868
     5.4495   5.5911   5.9441   5.9524   6.7774   7.5818   8.1656   9.6201
    10.6899  11.7367  11.7556  12.7502  12.9171  12.9504  14.9002  17.4004
    18.0483  18.5728  18.9206  19.0870  19.4682  19.4914  20.2775  20.3184
    20.4571  20.8554  21.3820  21.5230  21.8972  22.0524

     occupation numbers 
     1.0000   1.0000   1.0000   1.0000   1.0000   1.0000   1.0000   1.0000
     1.0000   1.0000   1.0000   1.0000   1.0000   1.0000   1.0000   1.0000
     1.0000   1.0000   1.0000   1.0000   1.0000   1.0000   1.0000   1.0000
     1.0000   1.0000   1.0000   1.0000   1.0000   1.0000   1.0000   1.0000
     1.0000   1.0000   1.0000   1.0000   1.0000   1.0000   1.0000  -0.0000
    -0.0000  -0.0000  -0.0000  -0.0000  -0.0000  -0.0000  -0.0000  -0.0000
    -0.0000  -0.0000  -0.0000  -0.0000  -0.0000  -0.0000  -0.0000  -0.0000
    -0.0000  -0.0000  -0.0000  -0.0000  -0.0000  -0.0000

          k = 0.7429 0.4422-0.3347 (  9889 PWs)   bands (ev):

   -38.6102 -38.6095 -38.6091 -38.6086 -38.5988 -38.5987 -38.5983 -38.5980
   -38.5946 -38.5940 -38.5031 -38.4912 -38.4911 -38.4512 -38.4505 -14.3203
   -14.3172 -14.3026 -14.2986 -14.2960 -14.2938 -14.2910 -14.2900 -14.2888
   -14.2876  -4.4986  -4.0382  -3.5039  -1.5008  -1.0030   4.1702   5.2198
     5.5755   5.8008   6.2201   6.4743   7.3849   7.5952   8.1665   9.7854
    10.8117  11.0461  11.7520  12.3176  13.0377  13.1754  15.2732  15.9710
    17.4316  17.4635  17.7177  17.9966  18.5441  19.4749  19.5935  19.5963
    19.9977  20.2456  21.2101  22.1959  22.4332  22.7522

     occupation numbers 
     1.0000   1.0000   1.0000   1.0000   1.0000   1.0000   1.0000   1.0000
     1.0000   1.0000   1.0000   1.0000   1.0000   1.0000   1.0000   1.0000
     1.0000   1.0000   1.0000   1.0000   1.0000   1.0000   1.0000   1.0000
     1.0000   1.0000   1.0000   1.0000   1.0000   1.0000   1.0000   1.0000
     1.0000   1.0000   1.0000   1.0000   1.0000   1.0000   1.0000  -0.0000
    -0.0000  -0.0000  -0.0000  -0.0000  -0.0000  -0.0000  -0.0000  -0.0000
    -0.0000  -0.0000  -0.0000  -0.0000  -0.0000  -0.0000  -0.0000  -0.0000
    -0.0000  -0.0000  -0.0000  -0.0000  -0.0000  -0.0000

          k = 0.3715 0.2211-0.1673 (  9920 PWs)   bands (ev):

   -38.6102 -38.6100 -38.6097 -38.6092 -38.5989 -38.5986 -38.5983 -38.5979
   -38.5951 -38.5947 -38.5038 -38.4911 -38.4911 -38.4514 -38.4512 -14.3130
   -14.3113 -14.3047 -14.3035 -14.2989 -14.2967 -14.2945 -14.2922 -14.2920
   -14.2892  -5.1616  -4.5265  -3.7607  -0.9371  -0.3125   5.5615   5.7315
     6.2282   6.3590   6.9173   7.5215   7.5362   7.7024   8.0838  10.0648
    10.5014  10.7685  10.9116  11.4802  12.0332  14.0095  14.8859  16.0995
    16.2415  16.6079  16.8005  17.0812  17.5414  18.4936  18.5988  18.9788
    19.4576  19.6338  19.6601  20.2340  20.5742  21.0637

     occupation numbers 
     1.0000   1.0000   1.0000   1.0000   1.0000   1.0000   1.0000   1.0000
     1.0000   1.0000   1.0000   1.0000   1.0000   1.0000   1.0000   1.0000
     1.0000   1.0000   1.0000   1.0000   1.0000   1.0000   1.0000   1.0000
     1.0000   1.0000   1.0000   1.0000   1.0000   1.0000   1.0000   1.0000
     1.0000   1.0000   1.0000   1.0000   1.0000   1.0000   1.0000  -0.0000
    -0.0000  -0.0000  -0.0000  -0.0000  -0.0000  -0.0000  -0.0000  -0.0000
    -0.0000  -0.0000  -0.0000  -0.0000  -0.0000  -0.0000  -0.0000  -0.0000
    -0.0000  -0.0000  -0.0000  -0.0000  -0.0000  -0.0000

          k =-0.0001 0.4635-0.0004 (  9920 PWs)   bands (ev):

   -38.6102 -38.6100 -38.6097 -38.6092 -38.5989 -38.5986 -38.5983 -38.5979
   -38.5951 -38.5947 -38.5038 -38.4911 -38.4911 -38.4514 -38.4512 -14.3130
   -14.3113 -14.3047 -14.3035 -14.2989 -14.2967 -14.2945 -14.2922 -14.2920
   -14.2892  -5.1616  -4.5265  -3.7607  -0.9371  -0.3125   5.5615   5.7315
     6.2282   6.3590   6.9173   7.5215   7.5361   7.7024   8.0838  10.0648
    10.5014  10.7685  10.9116  11.4802  12.0332  14.0095  14.8859  16.0995
    16.2415  16.6079  16.8005  17.0812  17.5414  18.4936  18.5988  18.9788
    19.4576  19.6338  19.6601  20.2340  20.5742  21.0640

     occupation numbers 
     1.0000   1.0000   1.0000   1.0000   1.0000   1.0000   1.0000   1.0000
     1.0000   1.0000   1.0000   1.0000   1.0000   1.0000   1.0000   1.0000
     1.0000   1.0000   1.0000   1.0000   1.0000   1.0000   1.0000   1.0000
     1.0000   1.0000   1.0000   1.0000   1.0000   1.0000   1.0000   1.0000
     1.0000   1.0000   1.0000   1.0000   1.0000   1.0000   1.0000  -0.0000
    -0.0000  -0.0000  -0.0000  -0.0000  -0.0000  -0.0000  -0.0000  -0.0000
    -0.0000  -0.0000  -0.0000  -0.0000  -0.0000  -0.0000  -0.0000  -0.0000
    -0.0000  -0.0000  -0.0000  -0.0000  -0.0000  -0.0000

          k =-0.3715 0.2425 0.1670 (  9921 PWs)   bands (ev):

   -38.6104 -38.6100 -38.6098 -38.6093 -38.5989 -38.5987 -38.5985 -38.5979
   -38.5954 -38.5942 -38.5036 -38.4913 -38.4911 -38.4514 -38.4513 -14.3130
   -14.3113 -14.3047 -14.3035 -14.2989 -14.2966 -14.2945 -14.2922 -14.2920
   -14.2892  -5.1549  -4.5461  -3.7436  -0.9429  -0.3141   5.4795   5.9366
     6.1955   6.3328   6.9869   7.1803   7.4949   7.9319   8.1440   9.9757
    10.3809  10.6612  11.0540  11.6196  12.1041  14.1271  14.7834  15.9724
    16.1480  16.5487  17.1443  17.2441  17.4392  18.2240  18.3439  18.6895
    19.0005  19.7143  19.9948  20.4200  20.9596  21.5334

     occupation numbers 
     1.0000   1.0000   1.0000   1.0000   1.0000   1.0000   1.0000   1.0000
     1.0000   1.0000   1.0000   1.0000   1.0000   1.0000   1.0000   1.0000
     1.0000   1.0000   1.0000   1.0000   1.0000   1.0000   1.0000   1.0000
     1.0000   1.0000   1.0000   1.0000   1.0000   1.0000   1.0000   1.0000
     1.0000   1.0000   1.0000   1.0000   1.0000   1.0000   1.0000  -0.0000
    -0.0000  -0.0000  -0.0000  -0.0000  -0.0000  -0.0000  -0.0000  -0.0000
    -0.0000  -0.0000  -0.0000  -0.0000  -0.0000  -0.0000  -0.0000  -0.0000
    -0.0000  -0.0000  -0.0000  -0.0000  -0.0000  -0.0000

          k =-0.7430 0.0214 0.3343 (  9901 PWs)   bands (ev):

   -38.6102 -38.6099 -38.6093 -38.6089 -38.5990 -38.5986 -38.5983 -38.5979
   -38.5948 -38.5944 -38.5035 -38.4912 -38.4911 -38.4515 -38.4506 -14.3150
   -14.3128 -14.3008 -14.3005 -14.2985 -14.2983 -14.2930 -14.2918 -14.2898
   -14.2880  -4.6979  -4.2012  -3.5419  -1.2650  -0.8619   4.7482   5.0054
     5.5518   6.0767   6.1451   6.5176   7.5528   8.0569   8.0887  10.1827
    10.4327  10.9842  11.7255  12.4608  12.6230  14.0739  14.1140  15.9867
    16.5632  17.1569  17.4795  17.8729  18.3549  18.7167  18.8142  19.6583
    20.3039  20.5845  21.0501  21.8217  22.2051  22.3900

     occupation numbers 
     1.0000   1.0000   1.0000   1.0000   1.0000   1.0000   1.0000   1.0000
     1.0000   1.0000   1.0000   1.0000   1.0000   1.0000   1.0000   1.0000
     1.0000   1.0000   1.0000   1.0000   1.0000   1.0000   1.0000   1.0000
     1.0000   1.0000   1.0000   1.0000   1.0000   1.0000   1.0000   1.0000
     1.0000   1.0000   1.0000   1.0000   1.0000   1.0000   1.0000  -0.0000
    -0.0000  -0.0000  -0.0000  -0.0000  -0.0000  -0.0000  -0.0000  -0.0000
    -0.0000  -0.0000  -0.0000  -0.0000  -0.0000  -0.0000  -0.0000  -0.0000
    -0.0000  -0.0000  -0.0000  -0.0000  -0.0000  -0.0000

          k = 1.1143 1.1268-0.5024 (  9884 PWs)   bands (ev):

   -38.6096 -38.6091 -38.6088 -38.6084 -38.5991 -38.5989 -38.5983 -38.5981
   -38.5943 -38.5942 -38.5031 -38.4916 -38.4910 -38.4508 -38.4500 -14.3184
   -14.3154 -14.3022 -14.2999 -14.2985 -14.2952 -14.2915 -14.2899 -14.2859
   -14.2840  -3.9316  -3.7311  -3.4159  -1.8212  -1.5764   3.9548   4.6331
     5.0837   5.3138   6.1924   6.6015   7.1349   7.1980   7.6920  10.7457
    11.1144  11.3449  11.9074  12.3060  13.1783  13.8555  14.7633  15.6267
    17.6099  17.8205  18.3964  19.1440  19.4249  19.6439  19.7281  20.4917
    20.7440  21.0886  21.2001  21.4799  21.7979  22.6351

     occupation numbers 
     1.0000   1.0000   1.0000   1.0000   1.0000   1.0000   1.0000   1.0000
     1.0000   1.0000   1.0000   1.0000   1.0000   1.0000   1.0000   1.0000
     1.0000   1.0000   1.0000   1.0000   1.0000   1.0000   1.0000   1.0000
     1.0000   1.0000   1.0000   1.0000   1.0000   1.0000   1.0000   1.0000
     1.0000   1.0000   1.0000   1.0000   1.0000   1.0000   1.0000  -0.0000
    -0.0000  -0.0000  -0.0000  -0.0000  -0.0000  -0.0000  -0.0000  -0.0000
    -0.0000  -0.0000  -0.0000  -0.0000  -0.0000  -0.0000  -0.0000  -0.0000
    -0.0000  -0.0000  -0.0000  -0.0000  -0.0000  -0.0000

          k = 0.7429 0.9057-0.3351 (  9870 PWs)   bands (ev):

   -38.6093 -38.6092 -38.6086 -38.6081 -38.5991 -38.5987 -38.5982 -38.5980
   -38.5941 -38.5938 -38.5028 -38.4914 -38.4909 -38.4508 -38.4499 -14.3184
   -14.3154 -14.3022 -14.2999 -14.2986 -14.2952 -14.2915 -14.2899 -14.2859
   -14.2839  -3.9625  -3.6653  -3.4499  -1.8349  -1.5636   3.8715   4.6697
     5.1527   5.6304   6.0335   6.3039   6.8772   7.5081   7.7495  10.7344
    10.8489  11.6369  12.1090  12.3961  12.8866  13.6450  15.2337  15.6487
    17.1597  17.8102  18.4559  18.8209  19.1920  19.4694  20.1729  20.4380
    20.6993  21.1576  21.5289  21.8568  22.1469  22.5378

     occupation numbers 
     1.0000   1.0000   1.0000   1.0000   1.0000   1.0000   1.0000   1.0000
     1.0000   1.0000   1.0000   1.0000   1.0000   1.0000   1.0000   1.0000
     1.0000   1.0000   1.0000   1.0000   1.0000   1.0000   1.0000   1.0000
     1.0000   1.0000   1.0000   1.0000   1.0000   1.0000   1.0000   1.0000
     1.0000   1.0000   1.0000   1.0000   1.0000   1.0000   1.0000  -0.0000
    -0.0000  -0.0000  -0.0000  -0.0000  -0.0000  -0.0000  -0.0000  -0.0000
    -0.0000  -0.0000  -0.0000  -0.0000  -0.0000  -0.0000  -0.0000  -0.0000
    -0.0000  -0.0000  -0.0000  -0.0000  -0.0000  -0.0000

          k = 0.3714 0.6846-0.1677 (  9885 PWs)   bands (ev):

   -38.6100 -38.6092 -38.6090 -38.6088 -38.5985 -38.5985 -38.5983 -38.5982
   -38.5945 -38.5942 -38.5032 -38.4910 -38.4910 -38.4510 -38.4504 -14.3150
   -14.3128 -14.3008 -14.3005 -14.2985 -14.2983 -14.2930 -14.2918 -14.2898
   -14.2880  -4.7181  -4.1418  -3.5911  -1.2320  -0.8853   4.8150   4.9760
     5.6730   5.8329   6.2257   6.3681   7.7120   8.1080   8.1552  10.0553
    10.3872  10.8462  11.8002  12.6216  12.6305  14.0206  14.0380  16.5355
    16.9127  17.0806  17.2259  17.4131  18.3140  18.4315  18.6873  19.3999
    20.4590  21.0606  21.3640  21.6296  22.1841  22.2846

     occupation numbers 
     1.0000   1.0000   1.0000   1.0000   1.0000   1.0000   1.0000   1.0000
     1.0000   1.0000   1.0000   1.0000   1.0000   1.0000   1.0000   1.0000
     1.0000   1.0000   1.0000   1.0000   1.0000   1.0000   1.0000   1.0000
     1.0000   1.0000   1.0000   1.0000   1.0000   1.0000   1.0000   1.0000
     1.0000   1.0000   1.0000   1.0000   1.0000   1.0000   1.0000  -0.0000
    -0.0000  -0.0000  -0.0000  -0.0000  -0.0000  -0.0000  -0.0000  -0.0000
    -0.0000  -0.0000  -0.0000  -0.0000  -0.0000  -0.0000  -0.0000  -0.0000
    -0.0000  -0.0000  -0.0000  -0.0000  -0.0000  -0.0000

          k =-0.0002 0.9271-0.0007 (  9889 PWs)   bands (ev):

   -38.6102 -38.6095 -38.6091 -38.6086 -38.5988 -38.5987 -38.5983 -38.5980
   -38.5946 -38.5940 -38.5031 -38.4912 -38.4911 -38.4512 -38.4505 -14.3203
   -14.3172 -14.3026 -14.2986 -14.2960 -14.2938 -14.2910 -14.2900 -14.2888
   -14.2876  -4.4986  -4.0382  -3.5039  -1.5008  -1.0030   4.1702   5.2198
     5.5755   5.8008   6.2201   6.4743   7.3849   7.5952   8.1665   9.7854
    10.8117  11.0461  11.7520  12.3176  13.0377  13.1754  15.2732  15.9710
    17.4316  17.4635  17.7177  17.9966  18.5441  19.4749  19.5935  19.5963
    19.9977  20.2456  21.2101  22.1959  22.4332  22.7522

     occupation numbers 
     1.0000   1.0000   1.0000   1.0000   1.0000   1.0000   1.0000   1.0000
     1.0000   1.0000   1.0000   1.0000   1.0000   1.0000   1.0000   1.0000
     1.0000   1.0000   1.0000   1.0000   1.0000   1.0000   1.0000   1.0000
     1.0000   1.0000   1.0000   1.0000   1.0000   1.0000   1.0000   1.0000
     1.0000   1.0000   1.0000   1.0000   1.0000   1.0000   1.0000  -0.0000
    -0.0000  -0.0000  -0.0000  -0.0000  -0.0000  -0.0000  -0.0000  -0.0000
    -0.0000  -0.0000  -0.0000  -0.0000  -0.0000  -0.0000  -0.0000  -0.0000
    -0.0000  -0.0000  -0.0000  -0.0000  -0.0000  -0.0000

          k =-0.3716 0.7060 0.1666 (  9901 PWs)   bands (ev):

   -38.6102 -38.6099 -38.6093 -38.6089 -38.5990 -38.5986 -38.5983 -38.5979
   -38.5948 -38.5944 -38.5035 -38.4912 -38.4911 -38.4515 -38.4506 -14.3150
   -14.3128 -14.3008 -14.3005 -14.2985 -14.2983 -14.2930 -14.2918 -14.2898
   -14.2880  -4.6979  -4.2012  -3.5419  -1.2650  -0.8619   4.7482   5.0054
     5.5518   6.0767   6.1451   6.5176   7.5528   8.0569   8.0887  10.1827
    10.4327  10.9842  11.7255  12.4608  12.6230  14.0739  14.1140  15.9867
    16.5632  17.1568  17.4795  17.8729  18.3549  18.7167  18.8142  19.6583
    20.3039  20.5845  21.0501  21.8216  22.2050  22.3897

     occupation numbers 
     1.0000   1.0000   1.0000   1.0000   1.0000   1.0000   1.0000   1.0000
     1.0000   1.0000   1.0000   1.0000   1.0000   1.0000   1.0000   1.0000
     1.0000   1.0000   1.0000   1.0000   1.0000   1.0000   1.0000   1.0000
     1.0000   1.0000   1.0000   1.0000   1.0000   1.0000   1.0000   1.0000
     1.0000   1.0000   1.0000   1.0000   1.0000   1.0000   1.0000  -0.0000
    -0.0000  -0.0000  -0.0000  -0.0000  -0.0000  -0.0000  -0.0000  -0.0000
    -0.0000  -0.0000  -0.0000  -0.0000  -0.0000  -0.0000  -0.0000  -0.0000
    -0.0000  -0.0000  -0.0000  -0.0000  -0.0000  -0.0000

          k =-0.7431 0.4849 0.3339 (  9894 PWs)   bands (ev):

   -38.6102 -38.6095 -38.6093 -38.6087 -38.5990 -38.5988 -38.5983 -38.5980
   -38.5949 -38.5941 -38.5033 -38.4913 -38.4911 -38.4513 -38.4505 -14.3203
   -14.3172 -14.3026 -14.2986 -14.2960 -14.2937 -14.2910 -14.2899 -14.2888
   -14.2877  -4.4883  -4.0513  -3.5117  -1.4182  -1.0760   4.0415   5.2552
     5.6832   5.9082   6.5107   6.6708   7.1823   7.3369   7.5143  10.3221
    11.1557  11.4923  11.5745  12.0353  12.6329  13.0982  15.4148  16.4855
    16.8599  17.0687  17.4882  17.8195  18.5782  19.0416  19.5194  20.2117
    20.3986  20.8646  21.7672  22.0576  22.8846  23.1418

     occupation numbers 
     1.0000   1.0000   1.0000   1.0000   1.0000   1.0000   1.0000   1.0000
     1.0000   1.0000   1.0000   1.0000   1.0000   1.0000   1.0000   1.0000
     1.0000   1.0000   1.0000   1.0000   1.0000   1.0000   1.0000   1.0000
     1.0000   1.0000   1.0000   1.0000   1.0000   1.0000   1.0000   1.0000
     1.0000   1.0000   1.0000   1.0000   1.0000   1.0000   1.0000  -0.0000
    -0.0000  -0.0000  -0.0000  -0.0000  -0.0000  -0.0000  -0.0000  -0.0000
    -0.0000  -0.0000  -0.0000  -0.0000  -0.0000  -0.0000  -0.0000  -0.0000
    -0.0000  -0.0000  -0.0000  -0.0000  -0.0000  -0.0000

          k = 1.1142 1.5904-0.5028 (  9871 PWs)   bands (ev):

   -38.6093 -38.6091 -38.6085 -38.6079 -38.5988 -38.5986 -38.5984 -38.5979
   -38.5945 -38.5941 -38.5031 -38.4913 -38.4909 -38.4507 -38.4497 -14.3184
   -14.3154 -14.3022 -14.3000 -14.2986 -14.2952 -14.2915 -14.2899 -14.2858
   -14.2840  -3.9460  -3.6876  -3.4497  -1.8113  -1.5821   4.0008   4.8432
     5.0985   5.3577   5.5898   6.0562   7.3355   7.9758   8.1490  10.2675
    10.3516  11.1306  12.3957  12.7464  13.2449  13.4490  15.6353  16.1491
    16.7252  17.1244  17.7493  19.1942  19.2534  19.6917  20.4383  20.5448
    20.9359  21.1483  21.5575  22.2124  22.4375  22.9986

     occupation numbers 
     1.0000   1.0000   1.0000   1.0000   1.0000   1.0000   1.0000   1.0000
     1.0000   1.0000   1.0000   1.0000   1.0000   1.0000   1.0000   1.0000
     1.0000   1.0000   1.0000   1.0000   1.0000   1.0000   1.0000   1.0000
     1.0000   1.0000   1.0000   1.0000   1.0000   1.0000   1.0000   1.0000
     1.0000   1.0000   1.0000   1.0000   1.0000   1.0000   1.0000  -0.0000
    -0.0000  -0.0000  -0.0000  -0.0000  -0.0000  -0.0000  -0.0000  -0.0000
    -0.0000  -0.0000  -0.0000  -0.0000  -0.0000  -0.0000  -0.0000  -0.0000
    -0.0000  -0.0000  -0.0000  -0.0000  -0.0000  -0.0000

          k = 0.7428 1.3693-0.3354 (  9886 PWs)   bands (ev):

   -38.6096 -38.6092 -38.6091 -38.6088 -38.5989 -38.5986 -38.5983 -38.5979
   -38.5944 -38.5940 -38.5030 -38.4912 -38.4910 -38.4508 -38.4506 -14.3109
   -14.3108 -14.3067 -14.2986 -14.2952 -14.2950 -14.2949 -14.2937 -14.2865
   -14.2863  -3.4706  -3.4680  -3.4615  -2.0233  -2.0053   4.0446   4.4959
     4.6732   4.9735   5.9345   5.9768   7.0410   7.5769   8.0687  10.4321
    11.2684  11.2974  12.6151  12.7931  13.1145  15.0592  15.7550  15.7610
    16.2195  16.2794  18.0495  18.0996  19.5409  19.6248  20.0652  20.4247
    20.8289  21.4159  22.1933  22.6409  22.9210  23.4907

     occupation numbers 
     1.0000   1.0000   1.0000   1.0000   1.0000   1.0000   1.0000   1.0000
     1.0000   1.0000   1.0000   1.0000   1.0000   1.0000   1.0000   1.0000
     1.0000   1.0000   1.0000   1.0000   1.0000   1.0000   1.0000   1.0000
     1.0000   1.0000   1.0000   1.0000   1.0000   1.0000   1.0000   1.0000
     1.0000   1.0000   1.0000   1.0000   1.0000   1.0000   1.0000  -0.0000
    -0.0000  -0.0000  -0.0000  -0.0000  -0.0000  -0.0000  -0.0000  -0.0000
    -0.0000  -0.0000  -0.0000  -0.0000  -0.0000  -0.0000  -0.0000  -0.0000
    -0.0000  -0.0000  -0.0000  -0.0000  -0.0000  -0.0000

          k = 0.3713 1.1482-0.1681 (  9870 PWs)   bands (ev):

   -38.6093 -38.6092 -38.6086 -38.6081 -38.5991 -38.5987 -38.5982 -38.5980
   -38.5941 -38.5938 -38.5028 -38.4914 -38.4909 -38.4508 -38.4499 -14.3184
   -14.3154 -14.3022 -14.2999 -14.2986 -14.2952 -14.2915 -14.2899 -14.2859
   -14.2839  -3.9625  -3.6653  -3.4499  -1.8349  -1.5636   3.8715   4.6697
     5.1527   5.6304   6.0335   6.3039   6.8772   7.5081   7.7495  10.7344
    10.8489  11.6369  12.1090  12.3961  12.8866  13.6450  15.2337  15.6487
    17.1597  17.8102  18.4559  18.8209  19.1920  19.4694  20.1729  20.4380
    20.6993  21.1576  21.5289  21.8568  22.1469  22.5378

     occupation numbers 
     1.0000   1.0000   1.0000   1.0000   1.0000   1.0000   1.0000   1.0000
     1.0000   1.0000   1.0000   1.0000   1.0000   1.0000   1.0000   1.0000
     1.0000   1.0000   1.0000   1.0000   1.0000   1.0000   1.0000   1.0000
     1.0000   1.0000   1.0000   1.0000   1.0000   1.0000   1.0000   1.0000
     1.0000   1.0000   1.0000   1.0000   1.0000   1.0000   1.0000  -0.0000
    -0.0000  -0.0000  -0.0000  -0.0000  -0.0000  -0.0000  -0.0000  -0.0000
    -0.0000  -0.0000  -0.0000  -0.0000  -0.0000  -0.0000  -0.0000  -0.0000
    -0.0000  -0.0000  -0.0000  -0.0000  -0.0000  -0.0000

          k = 0.0002-1.3906 0.0011 (  9850 PWs)   bands (ev):

   -38.6098 -38.6092 -38.6082 -38.6074 -38.5985 -38.5980 -38.5978 -38.5976
   -38.5941 -38.5940 -38.5030 -38.4907 -38.4906 -38.4510 -38.4493 -14.3246
   -14.3208 -14.3053 -14.3010 -14.2963 -14.2921 -14.2861 -14.2859 -14.2852
   -14.2836  -3.7599  -3.6679  -3.6679  -1.8840  -1.5296   3.5959   5.3868
     5.4495   5.5911   5.9441   5.9524   6.7774   7.5818   8.1656   9.6201
    10.6899  11.7367  11.7556  12.7502  12.9171  12.9504  14.9002  17.4004
    18.0483  18.5728  18.9206  19.0870  19.4682  19.4914  20.2775  20.3184
    20.4571  20.8554  21.3820  21.5230  21.8972  22.0524

     occupation numbers 
     1.0000   1.0000   1.0000   1.0000   1.0000   1.0000   1.0000   1.0000
     1.0000   1.0000   1.0000   1.0000   1.0000   1.0000   1.0000   1.0000
     1.0000   1.0000   1.0000   1.0000   1.0000   1.0000   1.0000   1.0000
     1.0000   1.0000   1.0000   1.0000   1.0000   1.0000   1.0000   1.0000
     1.0000   1.0000   1.0000   1.0000   1.0000   1.0000   1.0000  -0.0000
    -0.0000  -0.0000  -0.0000  -0.0000  -0.0000  -0.0000  -0.0000  -0.0000
    -0.0000  -0.0000  -0.0000  -0.0000  -0.0000  -0.0000  -0.0000  -0.0000
    -0.0000  -0.0000  -0.0000  -0.0000  -0.0000  -0.0000

          k =-0.3712-1.6117 0.1685 (  9884 PWs)   bands (ev):

   -38.6096 -38.6091 -38.6088 -38.6084 -38.5991 -38.5989 -38.5983 -38.5981
   -38.5943 -38.5942 -38.5031 -38.4916 -38.4910 -38.4508 -38.4500 -14.3184
   -14.3154 -14.3022 -14.2999 -14.2985 -14.2952 -14.2915 -14.2899 -14.2859
   -14.2840  -3.9316  -3.7311  -3.4159  -1.8212  -1.5764   3.9548   4.6331
     5.0837   5.3138   6.1924   6.6015   7.1349   7.1980   7.6920  10.7457
    11.1144  11.3449  11.9074  12.3060  13.1783  13.8555  14.7633  15.6267
    17.6099  17.8205  18.3964  19.1440  19.4249  19.6439  19.7281  20.4917
    20.7440  21.0886  21.2001  21.4799  21.7979  22.6352

     occupation numbers 
     1.0000   1.0000   1.0000   1.0000   1.0000   1.0000   1.0000   1.0000
     1.0000   1.0000   1.0000   1.0000   1.0000   1.0000   1.0000   1.0000
     1.0000   1.0000   1.0000   1.0000   1.0000   1.0000   1.0000   1.0000
     1.0000   1.0000   1.0000   1.0000   1.0000   1.0000   1.0000   1.0000
     1.0000   1.0000   1.0000   1.0000   1.0000   1.0000   1.0000  -0.0000
    -0.0000  -0.0000  -0.0000  -0.0000  -0.0000  -0.0000  -0.0000  -0.0000
    -0.0000  -0.0000  -0.0000  -0.0000  -0.0000  -0.0000  -0.0000  -0.0000
    -0.0000  -0.0000  -0.0000  -0.0000  -0.0000  -0.0000

          k =-0.7427-1.8328 0.3358 (  9871 PWs)   bands (ev):

   -38.6093 -38.6091 -38.6085 -38.6079 -38.5988 -38.5986 -38.5984 -38.5979
   -38.5945 -38.5941 -38.5031 -38.4913 -38.4909 -38.4507 -38.4497 -14.3184
   -14.3154 -14.3022 -14.3000 -14.2986 -14.2952 -14.2915 -14.2899 -14.2858
   -14.2840  -3.9460  -3.6876  -3.4497  -1.8113  -1.5821   4.0008   4.8432
     5.0985   5.3577   5.5898   6.0562   7.3355   7.9758   8.1490  10.2675
    10.3516  11.1306  12.3957  12.7464  13.2449  13.4490  15.6353  16.1491
    16.7252  17.1244  17.7493  19.1942  19.2534  19.6917  20.4383  20.5448
    20.9359  21.1483  21.5575  22.2125  22.4376  22.9990

     occupation numbers 
     1.0000   1.0000   1.0000   1.0000   1.0000   1.0000   1.0000   1.0000
     1.0000   1.0000   1.0000   1.0000   1.0000   1.0000   1.0000   1.0000
     1.0000   1.0000   1.0000   1.0000   1.0000   1.0000   1.0000   1.0000
     1.0000   1.0000   1.0000   1.0000   1.0000   1.0000   1.0000   1.0000
     1.0000   1.0000   1.0000   1.0000   1.0000   1.0000   1.0000  -0.0000
    -0.0000  -0.0000  -0.0000  -0.0000  -0.0000  -0.0000  -0.0000  -0.0000
    -0.0000  -0.0000  -0.0000  -0.0000  -0.0000  -0.0000  -0.0000  -0.0000
    -0.0000  -0.0000  -0.0000  -0.0000  -0.0000  -0.0000

          k = 1.1146-0.7274-0.5009 (  9892 PWs)   bands (ev):

   -38.6102 -38.6090 -38.6087 -38.6079 -38.5991 -38.5988 -38.5987 -38.5985
   -38.5946 -38.5944 -38.5034 -38.4915 -38.4914 -38.4510 -38.4498 -14.3246
   -14.3208 -14.3053 -14.3010 -14.2964 -14.2921 -14.2860 -14.2859 -14.2852
   -14.2837  -3.7758  -3.6720  -3.6399  -1.9598  -1.4570   3.8716   4.6992
     5.1061   5.4331   6.3101   6.9126   7.0076   7.2406   7.7563  10.1097
    10.7095  11.2479  11.6846  12.2166  12.7635  13.7986  15.5668  16.2648
    17.7599  18.2942  19.0597  19.2672  19.4757  19.6249  20.6583  20.7958
    20.8029  20.9229  21.3042  21.5599  21.5773  22.7465

     occupation numbers 
     1.0000   1.0000   1.0000   1.0000   1.0000   1.0000   1.0000   1.0000
     1.0000   1.0000   1.0000   1.0000   1.0000   1.0000   1.0000   1.0000
     1.0000   1.0000   1.0000   1.0000   1.0000   1.0000   1.0000   1.0000
     1.0000   1.0000   1.0000   1.0000   1.0000   1.0000   1.0000   1.0000
     1.0000   1.0000   1.0000   1.0000   1.0000   1.0000   1.0000  -0.0000
    -0.0000  -0.0000  -0.0000  -0.0000  -0.0000  -0.0000  -0.0000  -0.0000
    -0.0000  -0.0000  -0.0000  -0.0000  -0.0000  -0.0000  -0.0000  -0.0000
    -0.0000  -0.0000  -0.0000  -0.0000  -0.0000  -0.0000

          k = 0.7432-0.9484-0.3336 (  9871 PWs)   bands (ev):

   -38.6093 -38.6091 -38.6085 -38.6079 -38.5988 -38.5986 -38.5984 -38.5979
   -38.5945 -38.5941 -38.5031 -38.4913 -38.4909 -38.4507 -38.4497 -14.3184
   -14.3154 -14.3022 -14.3000 -14.2986 -14.2952 -14.2915 -14.2899 -14.2858
   -14.2840  -3.9460  -3.6876  -3.4497  -1.8113  -1.5821   4.0008   4.8432
     5.0985   5.3577   5.5898   6.0562   7.3355   7.9758   8.1490  10.2675
    10.3516  11.1306  12.3957  12.7464  13.2449  13.4490  15.6353  16.1491
    16.7252  17.1244  17.7493  19.1942  19.2534  19.6917  20.4383  20.5448
    20.9359  21.1483  21.5575  22.2124  22.4375  22.9986

     occupation numbers 
     1.0000   1.0000   1.0000   1.0000   1.0000   1.0000   1.0000   1.0000
     1.0000   1.0000   1.0000   1.0000   1.0000   1.0000   1.0000   1.0000
     1.0000   1.0000   1.0000   1.0000   1.0000   1.0000   1.0000   1.0000
     1.0000   1.0000   1.0000   1.0000   1.0000   1.0000   1.0000   1.0000
     1.0000   1.0000   1.0000   1.0000   1.0000   1.0000   1.0000  -0.0000
    -0.0000  -0.0000  -0.0000  -0.0000  -0.0000  -0.0000  -0.0000  -0.0000
    -0.0000  -0.0000  -0.0000  -0.0000  -0.0000  -0.0000  -0.0000  -0.0000
    -0.0000  -0.0000  -0.0000  -0.0000  -0.0000  -0.0000

          k = 0.3717-1.1695-0.1662 (  9884 PWs)   bands (ev):

   -38.6096 -38.6091 -38.6088 -38.6084 -38.5991 -38.5989 -38.5983 -38.5981
   -38.5943 -38.5942 -38.5031 -38.4916 -38.4910 -38.4508 -38.4500 -14.3184
   -14.3154 -14.3022 -14.2999 -14.2985 -14.2952 -14.2915 -14.2899 -14.2859
   -14.2840  -3.9316  -3.7311  -3.4159  -1.8212  -1.5764   3.9548   4.6331
     5.0837   5.3138   6.1924   6.6015   7.1349   7.1980   7.6920  10.7457
    11.1144  11.3449  11.9074  12.3060  13.1783  13.8555  14.7633  15.6267
    17.6099  17.8205  18.3964  19.1440  19.4249  19.6439  19.7281  20.4917
    20.7440  21.0886  21.2001  21.4799  21.7979  22.6352

     occupation numbers 
     1.0000   1.0000   1.0000   1.0000   1.0000   1.0000   1.0000   1.0000
     1.0000   1.0000   1.0000   1.0000   1.0000   1.0000   1.0000   1.0000
     1.0000   1.0000   1.0000   1.0000   1.0000   1.0000   1.0000   1.0000
     1.0000   1.0000   1.0000   1.0000   1.0000   1.0000   1.0000   1.0000
     1.0000   1.0000   1.0000   1.0000   1.0000   1.0000   1.0000  -0.0000
    -0.0000  -0.0000  -0.0000  -0.0000  -0.0000  -0.0000  -0.0000  -0.0000
    -0.0000  -0.0000  -0.0000  -0.0000  -0.0000  -0.0000  -0.0000  -0.0000
    -0.0000  -0.0000  -0.0000  -0.0000  -0.0000  -0.0000

          k = 0.0002-0.9271 0.0007 (  9889 PWs)   bands (ev):

   -38.6102 -38.6095 -38.6091 -38.6086 -38.5988 -38.5987 -38.5983 -38.5980
   -38.5946 -38.5940 -38.5031 -38.4912 -38.4911 -38.4512 -38.4505 -14.3203
   -14.3172 -14.3026 -14.2986 -14.2960 -14.2938 -14.2910 -14.2900 -14.2888
   -14.2876  -4.4986  -4.0382  -3.5039  -1.5008  -1.0030   4.1702   5.2198
     5.5755   5.8008   6.2201   6.4743   7.3849   7.5952   8.1665   9.7854
    10.8117  11.0461  11.7520  12.3176  13.0377  13.1754  15.2732  15.9710
    17.4316  17.4635  17.7177  17.9966  18.5441  19.4749  19.5935  19.5963
    19.9977  20.2456  21.2101  22.1959  22.4333  22.7522

     occupation numbers 
     1.0000   1.0000   1.0000   1.0000   1.0000   1.0000   1.0000   1.0000
     1.0000   1.0000   1.0000   1.0000   1.0000   1.0000   1.0000   1.0000
     1.0000   1.0000   1.0000   1.0000   1.0000   1.0000   1.0000   1.0000
     1.0000   1.0000   1.0000   1.0000   1.0000   1.0000   1.0000   1.0000
     1.0000   1.0000   1.0000   1.0000   1.0000   1.0000   1.0000  -0.0000
    -0.0000  -0.0000  -0.0000  -0.0000  -0.0000  -0.0000  -0.0000  -0.0000
    -0.0000  -0.0000  -0.0000  -0.0000  -0.0000  -0.0000  -0.0000  -0.0000
    -0.0000  -0.0000  -0.0000  -0.0000  -0.0000  -0.0000

          k =-0.3713-1.1482 0.1681 (  9870 PWs)   bands (ev):

   -38.6093 -38.6092 -38.6086 -38.6081 -38.5991 -38.5987 -38.5982 -38.5980
   -38.5941 -38.5938 -38.5028 -38.4914 -38.4909 -38.4508 -38.4499 -14.3184
   -14.3154 -14.3022 -14.2999 -14.2986 -14.2952 -14.2915 -14.2899 -14.2859
   -14.2839  -3.9625  -3.6653  -3.4499  -1.8349  -1.5636   3.8715   4.6697
     5.1527   5.6304   6.0335   6.3039   6.8772   7.5081   7.7495  10.7344
    10.8489  11.6369  12.1090  12.3961  12.8866  13.6450  15.2337  15.6487
    17.1597  17.8102  18.4559  18.8209  19.1920  19.4694  20.1729  20.4380
    20.6993  21.1576  21.5289  21.8568  22.1469  22.5379

     occupation numbers 
     1.0000   1.0000   1.0000   1.0000   1.0000   1.0000   1.0000   1.0000
     1.0000   1.0000   1.0000   1.0000   1.0000   1.0000   1.0000   1.0000
     1.0000   1.0000   1.0000   1.0000   1.0000   1.0000   1.0000   1.0000
     1.0000   1.0000   1.0000   1.0000   1.0000   1.0000   1.0000   1.0000
     1.0000   1.0000   1.0000   1.0000   1.0000   1.0000   1.0000  -0.0000
    -0.0000  -0.0000  -0.0000  -0.0000  -0.0000  -0.0000  -0.0000  -0.0000
    -0.0000  -0.0000  -0.0000  -0.0000  -0.0000  -0.0000  -0.0000  -0.0000
    -0.0000  -0.0000  -0.0000  -0.0000  -0.0000  -0.0000

          k =-0.7428-1.3693 0.3354 (  9886 PWs)   bands (ev):

   -38.6096 -38.6092 -38.6091 -38.6088 -38.5989 -38.5986 -38.5983 -38.5979
   -38.5944 -38.5940 -38.5030 -38.4912 -38.4910 -38.4508 -38.4506 -14.3109
   -14.3108 -14.3067 -14.2986 -14.2952 -14.2950 -14.2949 -14.2937 -14.2865
   -14.2863  -3.4706  -3.4680  -3.4615  -2.0233  -2.0053   4.0446   4.4959
     4.6732   4.9735   5.9345   5.9768   7.0410   7.5769   8.0687  10.4321
    11.2684  11.2974  12.6151  12.7931  13.1145  15.0592  15.7550  15.7610
    16.2195  16.2794  18.0495  18.0996  19.5409  19.6248  20.0652  20.4247
    20.8289  21.4159  22.1933  22.6409  22.9209  23.4912

     occupation numbers 
     1.0000   1.0000   1.0000   1.0000   1.0000   1.0000   1.0000   1.0000
     1.0000   1.0000   1.0000   1.0000   1.0000   1.0000   1.0000   1.0000
     1.0000   1.0000   1.0000   1.0000   1.0000   1.0000   1.0000   1.0000
     1.0000   1.0000   1.0000   1.0000   1.0000   1.0000   1.0000   1.0000
     1.0000   1.0000   1.0000   1.0000   1.0000   1.0000   1.0000  -0.0000
    -0.0000  -0.0000  -0.0000  -0.0000  -0.0000  -0.0000  -0.0000  -0.0000
    -0.0000  -0.0000  -0.0000  -0.0000  -0.0000  -0.0000  -0.0000  -0.0000
    -0.0000  -0.0000  -0.0000  -0.0000  -0.0000  -0.0000

          k = 1.1146-0.2638-0.5013 (  9871 PWs)   bands (ev):

   -38.6093 -38.6091 -38.6085 -38.6079 -38.5988 -38.5986 -38.5984 -38.5979
   -38.5945 -38.5941 -38.5031 -38.4913 -38.4909 -38.4507 -38.4497 -14.3184
   -14.3154 -14.3022 -14.3000 -14.2986 -14.2952 -14.2915 -14.2899 -14.2858
   -14.2840  -3.9460  -3.6876  -3.4497  -1.8113  -1.5821   4.0008   4.8432
     5.0985   5.3577   5.5898   6.0562   7.3355   7.9758   8.1490  10.2675
    10.3516  11.1306  12.3957  12.7464  13.2449  13.4490  15.6353  16.1491
    16.7252  17.1244  17.7493  19.1942  19.2534  19.6917  20.4383  20.5448
    20.9359  21.1483  21.5575  22.2125  22.4375  22.9988

     occupation numbers 
     1.0000   1.0000   1.0000   1.0000   1.0000   1.0000   1.0000   1.0000
     1.0000   1.0000   1.0000   1.0000   1.0000   1.0000   1.0000   1.0000
     1.0000   1.0000   1.0000   1.0000   1.0000   1.0000   1.0000   1.0000
     1.0000   1.0000   1.0000   1.0000   1.0000   1.0000   1.0000   1.0000
     1.0000   1.0000   1.0000   1.0000   1.0000   1.0000   1.0000  -0.0000
    -0.0000  -0.0000  -0.0000  -0.0000  -0.0000  -0.0000  -0.0000  -0.0000
    -0.0000  -0.0000  -0.0000  -0.0000  -0.0000  -0.0000  -0.0000  -0.0000
    -0.0000  -0.0000  -0.0000  -0.0000  -0.0000  -0.0000

          k = 0.7431-0.4849-0.3339 (  9894 PWs)   bands (ev):

   -38.6102 -38.6095 -38.6093 -38.6087 -38.5990 -38.5988 -38.5983 -38.5980
   -38.5949 -38.5941 -38.5033 -38.4913 -38.4911 -38.4513 -38.4505 -14.3203
   -14.3172 -14.3026 -14.2986 -14.2960 -14.2937 -14.2910 -14.2899 -14.2888
   -14.2877  -4.4883  -4.0513  -3.5117  -1.4182  -1.0760   4.0415   5.2552
     5.6832   5.9082   6.5107   6.6708   7.1823   7.3369   7.5143  10.3221
    11.1557  11.4923  11.5745  12.0353  12.6329  13.0982  15.4148  16.4855
    16.8599  17.0687  17.4882  17.8195  18.5782  19.0416  19.5194  20.2117
    20.3986  20.8646  21.7672  22.0576  22.8846  23.1418

     occupation numbers 
     1.0000   1.0000   1.0000   1.0000   1.0000   1.0000   1.0000   1.0000
     1.0000   1.0000   1.0000   1.0000   1.0000   1.0000   1.0000   1.0000
     1.0000   1.0000   1.0000   1.0000   1.0000   1.0000   1.0000   1.0000
     1.0000   1.0000   1.0000   1.0000   1.0000   1.0000   1.0000   1.0000
     1.0000   1.0000   1.0000   1.0000   1.0000   1.0000   1.0000  -0.0000
    -0.0000  -0.0000  -0.0000  -0.0000  -0.0000  -0.0000  -0.0000  -0.0000
    -0.0000  -0.0000  -0.0000  -0.0000  -0.0000  -0.0000  -0.0000  -0.0000
    -0.0000  -0.0000  -0.0000  -0.0000  -0.0000  -0.0000

          k = 0.3716-0.7060-0.1666 (  9901 PWs)   bands (ev):

   -38.6102 -38.6099 -38.6093 -38.6089 -38.5990 -38.5986 -38.5983 -38.5979
   -38.5948 -38.5944 -38.5035 -38.4912 -38.4911 -38.4515 -38.4506 -14.3150
   -14.3128 -14.3008 -14.3005 -14.2985 -14.2983 -14.2930 -14.2918 -14.2898
   -14.2880  -4.6979  -4.2012  -3.5419  -1.2650  -0.8619   4.7482   5.0054
     5.5518   6.0767   6.1451   6.5176   7.5528   8.0569   8.0887  10.1827
    10.4327  10.9842  11.7255  12.4608  12.6230  14.0739  14.1140  15.9867
    16.5632  17.1568  17.4795  17.8729  18.3549  18.7167  18.8142  19.6583
    20.3039  20.5845  21.0501  21.8217  22.2050  22.3898

     occupation numbers 
     1.0000   1.0000   1.0000   1.0000   1.0000   1.0000   1.0000   1.0000
     1.0000   1.0000   1.0000   1.0000   1.0000   1.0000   1.0000   1.0000
     1.0000   1.0000   1.0000   1.0000   1.0000   1.0000   1.0000   1.0000
     1.0000   1.0000   1.0000   1.0000   1.0000   1.0000   1.0000   1.0000
     1.0000   1.0000   1.0000   1.0000   1.0000   1.0000   1.0000  -0.0000
    -0.0000  -0.0000  -0.0000  -0.0000  -0.0000  -0.0000  -0.0000  -0.0000
    -0.0000  -0.0000  -0.0000  -0.0000  -0.0000  -0.0000  -0.0000  -0.0000
    -0.0000  -0.0000  -0.0000  -0.0000  -0.0000  -0.0000

          k = 0.0001-0.4635 0.0004 (  9920 PWs)   bands (ev):

   -38.6102 -38.6100 -38.6097 -38.6092 -38.5989 -38.5986 -38.5983 -38.5979
   -38.5951 -38.5947 -38.5038 -38.4911 -38.4911 -38.4514 -38.4512 -14.3130
   -14.3113 -14.3047 -14.3035 -14.2989 -14.2967 -14.2945 -14.2922 -14.2920
   -14.2892  -5.1616  -4.5265  -3.7607  -0.9371  -0.3125   5.5615   5.7315
     6.2282   6.3590   6.9173   7.5215   7.5361   7.7024   8.0838  10.0648
    10.5014  10.7685  10.9116  11.4802  12.0332  14.0095  14.8859  16.0995
    16.2415  16.6079  16.8005  17.0812  17.5414  18.4936  18.5988  18.9788
    19.4576  19.6338  19.6601  20.2340  20.5742  21.0637

     occupation numbers 
     1.0000   1.0000   1.0000   1.0000   1.0000   1.0000   1.0000   1.0000
     1.0000   1.0000   1.0000   1.0000   1.0000   1.0000   1.0000   1.0000
     1.0000   1.0000   1.0000   1.0000   1.0000   1.0000   1.0000   1.0000
     1.0000   1.0000   1.0000   1.0000   1.0000   1.0000   1.0000   1.0000
     1.0000   1.0000   1.0000   1.0000   1.0000   1.0000   1.0000  -0.0000
    -0.0000  -0.0000  -0.0000  -0.0000  -0.0000  -0.0000  -0.0000  -0.0000
    -0.0000  -0.0000  -0.0000  -0.0000  -0.0000  -0.0000  -0.0000  -0.0000
    -0.0000  -0.0000  -0.0000  -0.0000  -0.0000  -0.0000

          k =-0.3714-0.6846 0.1677 (  9885 PWs)   bands (ev):

   -38.6100 -38.6092 -38.6090 -38.6088 -38.5985 -38.5985 -38.5983 -38.5982
   -38.5945 -38.5942 -38.5032 -38.4910 -38.4910 -38.4510 -38.4504 -14.3150
   -14.3128 -14.3008 -14.3005 -14.2985 -14.2983 -14.2930 -14.2918 -14.2898
   -14.2880  -4.7181  -4.1418  -3.5911  -1.2320  -0.8853   4.8150   4.9760
     5.6730   5.8329   6.2257   6.3681   7.7120   8.1080   8.1552  10.0553
    10.3872  10.8462  11.8002  12.6216  12.6305  14.0206  14.0380  16.5355
    16.9127  17.0806  17.2259  17.4131  18.3140  18.4315  18.6873  19.3999
    20.4590  21.0606  21.3640  21.6296  22.1841  22.2846

     occupation numbers 
     1.0000   1.0000   1.0000   1.0000   1.0000   1.0000   1.0000   1.0000
     1.0000   1.0000   1.0000   1.0000   1.0000   1.0000   1.0000   1.0000
     1.0000   1.0000   1.0000   1.0000   1.0000   1.0000   1.0000   1.0000
     1.0000   1.0000   1.0000   1.0000   1.0000   1.0000   1.0000   1.0000
     1.0000   1.0000   1.0000   1.0000   1.0000   1.0000   1.0000  -0.0000
    -0.0000  -0.0000  -0.0000  -0.0000  -0.0000  -0.0000  -0.0000  -0.0000
    -0.0000  -0.0000  -0.0000  -0.0000  -0.0000  -0.0000  -0.0000  -0.0000
    -0.0000  -0.0000  -0.0000  -0.0000  -0.0000  -0.0000

          k =-0.7429-0.9057 0.3351 (  9870 PWs)   bands (ev):

   -38.6093 -38.6092 -38.6086 -38.6081 -38.5991 -38.5987 -38.5982 -38.5980
   -38.5941 -38.5938 -38.5028 -38.4914 -38.4909 -38.4508 -38.4499 -14.3184
   -14.3154 -14.3022 -14.2999 -14.2986 -14.2952 -14.2915 -14.2899 -14.2859
   -14.2839  -3.9625  -3.6653  -3.4499  -1.8349  -1.5636   3.8715   4.6697
     5.1527   5.6304   6.0335   6.3039   6.8772   7.5081   7.7495  10.7344
    10.8489  11.6369  12.1090  12.3961  12.8866  13.6450  15.2337  15.6487
    17.1597  17.8102  18.4559  18.8209  19.1920  19.4694  20.1729  20.4380
    20.6993  21.1576  21.5289  21.8568  22.1469  22.5378

     occupation numbers 
     1.0000   1.0000   1.0000   1.0000   1.0000   1.0000   1.0000   1.0000
     1.0000   1.0000   1.0000   1.0000   1.0000   1.0000   1.0000   1.0000
     1.0000   1.0000   1.0000   1.0000   1.0000   1.0000   1.0000   1.0000
     1.0000   1.0000   1.0000   1.0000   1.0000   1.0000   1.0000   1.0000
     1.0000   1.0000   1.0000   1.0000   1.0000   1.0000   1.0000  -0.0000
    -0.0000  -0.0000  -0.0000  -0.0000  -0.0000  -0.0000  -0.0000  -0.0000
    -0.0000  -0.0000  -0.0000  -0.0000  -0.0000  -0.0000  -0.0000  -0.0000
    -0.0000  -0.0000  -0.0000  -0.0000  -0.0000  -0.0000

          k = 1.1145 0.1997-0.5017 (  9884 PWs)   bands (ev):

   -38.6096 -38.6091 -38.6088 -38.6084 -38.5991 -38.5989 -38.5983 -38.5981
   -38.5943 -38.5942 -38.5031 -38.4916 -38.4910 -38.4508 -38.4500 -14.3184
   -14.3154 -14.3022 -14.2999 -14.2985 -14.2952 -14.2915 -14.2899 -14.2859
   -14.2840  -3.9316  -3.7311  -3.4159  -1.8212  -1.5764   3.9548   4.6331
     5.0837   5.3138   6.1924   6.6015   7.1349   7.1980   7.6920  10.7457
    11.1144  11.3449  11.9074  12.3060  13.1783  13.8555  14.7633  15.6267
    17.6099  17.8205  18.3964  19.1440  19.4249  19.6439  19.7281  20.4917
    20.7440  21.0886  21.2001  21.4799  21.7979  22.6351

     occupation numbers 
     1.0000   1.0000   1.0000   1.0000   1.0000   1.0000   1.0000   1.0000
     1.0000   1.0000   1.0000   1.0000   1.0000   1.0000   1.0000   1.0000
     1.0000   1.0000   1.0000   1.0000   1.0000   1.0000   1.0000   1.0000
     1.0000   1.0000   1.0000   1.0000   1.0000   1.0000   1.0000   1.0000
     1.0000   1.0000   1.0000   1.0000   1.0000   1.0000   1.0000  -0.0000
    -0.0000  -0.0000  -0.0000  -0.0000  -0.0000  -0.0000  -0.0000  -0.0000
    -0.0000  -0.0000  -0.0000  -0.0000  -0.0000  -0.0000  -0.0000  -0.0000
    -0.0000  -0.0000  -0.0000  -0.0000  -0.0000  -0.0000

          k = 0.7430-0.0214-0.3343 (  9901 PWs)   bands (ev):

   -38.6102 -38.6099 -38.6093 -38.6089 -38.5990 -38.5986 -38.5983 -38.5979
   -38.5948 -38.5944 -38.5035 -38.4912 -38.4911 -38.4515 -38.4506 -14.3150
   -14.3128 -14.3008 -14.3005 -14.2985 -14.2983 -14.2930 -14.2918 -14.2898
   -14.2880  -4.6979  -4.2012  -3.5419  -1.2650  -0.8619   4.7482   5.0054
     5.5518   6.0767   6.1451   6.5176   7.5528   8.0569   8.0887  10.1827
    10.4327  10.9842  11.7255  12.4608  12.6230  14.0739  14.1140  15.9867
    16.5632  17.1569  17.4795  17.8729  18.3549  18.7167  18.8142  19.6583
    20.3039  20.5845  21.0501  21.8217  22.2052  22.3897

     occupation numbers 
     1.0000   1.0000   1.0000   1.0000   1.0000   1.0000   1.0000   1.0000
     1.0000   1.0000   1.0000   1.0000   1.0000   1.0000   1.0000   1.0000
     1.0000   1.0000   1.0000   1.0000   1.0000   1.0000   1.0000   1.0000
     1.0000   1.0000   1.0000   1.0000   1.0000   1.0000   1.0000   1.0000
     1.0000   1.0000   1.0000   1.0000   1.0000   1.0000   1.0000  -0.0000
    -0.0000  -0.0000  -0.0000  -0.0000  -0.0000  -0.0000  -0.0000  -0.0000
    -0.0000  -0.0000  -0.0000  -0.0000  -0.0000  -0.0000  -0.0000  -0.0000
    -0.0000  -0.0000  -0.0000  -0.0000  -0.0000  -0.0000

          k = 0.3715-0.2425-0.1670 (  9921 PWs)   bands (ev):

   -38.6104 -38.6100 -38.6098 -38.6093 -38.5989 -38.5987 -38.5985 -38.5979
   -38.5954 -38.5942 -38.5036 -38.4913 -38.4911 -38.4514 -38.4513 -14.3130
   -14.3113 -14.3047 -14.3035 -14.2989 -14.2966 -14.2945 -14.2922 -14.2920
   -14.2892  -5.1549  -4.5461  -3.7436  -0.9429  -0.3141   5.4795   5.9366
     6.1955   6.3328   6.9869   7.1803   7.4949   7.9319   8.1440   9.9757
    10.3809  10.6612  11.0540  11.6196  12.1041  14.1271  14.7834  15.9724
    16.1480  16.5487  17.1443  17.2441  17.4392  18.2240  18.3439  18.6895
    19.0005  19.7143  19.9948  20.4200  20.9595  21.5334

     occupation numbers 
     1.0000   1.0000   1.0000   1.0000   1.0000   1.0000   1.0000   1.0000
     1.0000   1.0000   1.0000   1.0000   1.0000   1.0000   1.0000   1.0000
     1.0000   1.0000   1.0000   1.0000   1.0000   1.0000   1.0000   1.0000
     1.0000   1.0000   1.0000   1.0000   1.0000   1.0000   1.0000   1.0000
     1.0000   1.0000   1.0000   1.0000   1.0000   1.0000   1.0000  -0.0000
    -0.0000  -0.0000  -0.0000  -0.0000  -0.0000  -0.0000  -0.0000  -0.0000
    -0.0000  -0.0000  -0.0000  -0.0000  -0.0000  -0.0000  -0.0000  -0.0000
    -0.0000  -0.0000  -0.0000  -0.0000  -0.0000  -0.0000

          k = 0.4074-0.2211-0.0004 (  9920 PWs)   bands (ev):

   -38.6102 -38.6100 -38.6097 -38.6092 -38.5989 -38.5986 -38.5983 -38.5979
   -38.5951 -38.5947 -38.5038 -38.4911 -38.4911 -38.4514 -38.4512 -14.3130
   -14.3113 -14.3047 -14.3035 -14.2989 -14.2967 -14.2945 -14.2922 -14.2920
   -14.2892  -5.1616  -4.5265  -3.7607  -0.9371  -0.3125   5.5615   5.7315
     6.2282   6.3590   6.9173   7.5215   7.5361   7.7024   8.0838  10.0648
    10.5014  10.7685  10.9116  11.4802  12.0332  14.0095  14.8859  16.0995
    16.2415  16.6079  16.8005  17.0812  17.5414  18.4936  18.5988  18.9788
    19.4576  19.6338  19.6601  20.2340  20.5742  21.0637

     occupation numbers 
     1.0000   1.0000   1.0000   1.0000   1.0000   1.0000   1.0000   1.0000
     1.0000   1.0000   1.0000   1.0000   1.0000   1.0000   1.0000   1.0000
     1.0000   1.0000   1.0000   1.0000   1.0000   1.0000   1.0000   1.0000
     1.0000   1.0000   1.0000   1.0000   1.0000   1.0000   1.0000   1.0000
     1.0000   1.0000   1.0000   1.0000   1.0000   1.0000   1.0000  -0.0000
    -0.0000  -0.0000  -0.0000  -0.0000  -0.0000  -0.0000  -0.0000  -0.0000
    -0.0000  -0.0000  -0.0000  -0.0000  -0.0000  -0.0000  -0.0000  -0.0000
    -0.0000  -0.0000  -0.0000  -0.0000  -0.0000  -0.0000

          k = 0.0360-0.4422 0.1670 (  9921 PWs)   bands (ev):

   -38.6104 -38.6100 -38.6098 -38.6093 -38.5989 -38.5987 -38.5985 -38.5979
   -38.5954 -38.5942 -38.5036 -38.4913 -38.4911 -38.4514 -38.4513 -14.3130
   -14.3113 -14.3047 -14.3035 -14.2989 -14.2966 -14.2945 -14.2922 -14.2920
   -14.2892  -5.1549  -4.5461  -3.7436  -0.9429  -0.3141   5.4795   5.9366
     6.1955   6.3328   6.9869   7.1803   7.4949   7.9319   8.1440   9.9757
    10.3809  10.6612  11.0540  11.6196  12.1041  14.1271  14.7834  15.9724
    16.1480  16.5487  17.1443  17.2441  17.4392  18.2240  18.3439  18.6895
    19.0006  19.7143  19.9948  20.4200  20.9595  21.5334

     occupation numbers 
     1.0000   1.0000   1.0000   1.0000   1.0000   1.0000   1.0000   1.0000
     1.0000   1.0000   1.0000   1.0000   1.0000   1.0000   1.0000   1.0000
     1.0000   1.0000   1.0000   1.0000   1.0000   1.0000   1.0000   1.0000
     1.0000   1.0000   1.0000   1.0000   1.0000   1.0000   1.0000   1.0000
     1.0000   1.0000   1.0000   1.0000   1.0000   1.0000   1.0000  -0.0000
    -0.0000  -0.0000  -0.0000  -0.0000  -0.0000  -0.0000  -0.0000  -0.0000
    -0.0000  -0.0000  -0.0000  -0.0000  -0.0000  -0.0000  -0.0000  -0.0000
    -0.0000  -0.0000  -0.0000  -0.0000  -0.0000  -0.0000

          k =-0.3355-0.6633 0.3343 (  9901 PWs)   bands (ev):

   -38.6102 -38.6099 -38.6093 -38.6089 -38.5990 -38.5986 -38.5983 -38.5979
   -38.5948 -38.5944 -38.5035 -38.4912 -38.4911 -38.4515 -38.4506 -14.3150
   -14.3128 -14.3008 -14.3005 -14.2985 -14.2983 -14.2930 -14.2918 -14.2898
   -14.2880  -4.6979  -4.2012  -3.5419  -1.2650  -0.8619   4.7482   5.0054
     5.5518   6.0767   6.1451   6.5176   7.5528   8.0569   8.0887  10.1827
    10.4327  10.9842  11.7255  12.4608  12.6230  14.0739  14.1140  15.9867
    16.5632  17.1569  17.4795  17.8729  18.3549  18.7167  18.8142  19.6583
    20.3039  20.5845  21.0501  21.8216  22.2051  22.3897

     occupation numbers 
     1.0000   1.0000   1.0000   1.0000   1.0000   1.0000   1.0000   1.0000
     1.0000   1.0000   1.0000   1.0000   1.0000   1.0000   1.0000   1.0000
     1.0000   1.0000   1.0000   1.0000   1.0000   1.0000   1.0000   1.0000
     1.0000   1.0000   1.0000   1.0000   1.0000   1.0000   1.0000   1.0000
     1.0000   1.0000   1.0000   1.0000   1.0000   1.0000   1.0000  -0.0000
    -0.0000  -0.0000  -0.0000  -0.0000  -0.0000  -0.0000  -0.0000  -0.0000
    -0.0000  -0.0000  -0.0000  -0.0000  -0.0000  -0.0000  -0.0000  -0.0000
    -0.0000  -0.0000  -0.0000  -0.0000  -0.0000  -0.0000

          k = 1.5218 0.4422-0.5024 (  9884 PWs)   bands (ev):

   -38.6096 -38.6091 -38.6088 -38.6084 -38.5991 -38.5989 -38.5983 -38.5981
   -38.5943 -38.5942 -38.5031 -38.4916 -38.4910 -38.4508 -38.4500 -14.3184
   -14.3154 -14.3022 -14.2999 -14.2985 -14.2952 -14.2915 -14.2899 -14.2859
   -14.2840  -3.9316  -3.7311  -3.4159  -1.8212  -1.5764   3.9548   4.6331
     5.0837   5.3138   6.1924   6.6015   7.1349   7.1980   7.6920  10.7457
    11.1144  11.3449  11.9074  12.3060  13.1783  13.8555  14.7633  15.6267
    17.6099  17.8205  18.3964  19.1440  19.4249  19.6439  19.7281  20.4917
    20.7440  21.0886  21.2001  21.4799  21.7979  22.6351

     occupation numbers 
     1.0000   1.0000   1.0000   1.0000   1.0000   1.0000   1.0000   1.0000
     1.0000   1.0000   1.0000   1.0000   1.0000   1.0000   1.0000   1.0000
     1.0000   1.0000   1.0000   1.0000   1.0000   1.0000   1.0000   1.0000
     1.0000   1.0000   1.0000   1.0000   1.0000   1.0000   1.0000   1.0000
     1.0000   1.0000   1.0000   1.0000   1.0000   1.0000   1.0000  -0.0000
    -0.0000  -0.0000  -0.0000  -0.0000  -0.0000  -0.0000  -0.0000  -0.0000
    -0.0000  -0.0000  -0.0000  -0.0000  -0.0000  -0.0000  -0.0000  -0.0000
    -0.0000  -0.0000  -0.0000  -0.0000  -0.0000  -0.0000

          k = 1.1504 0.2211-0.3351 (  9870 PWs)   bands (ev):

   -38.6093 -38.6092 -38.6086 -38.6081 -38.5991 -38.5987 -38.5982 -38.5980
   -38.5941 -38.5938 -38.5028 -38.4914 -38.4909 -38.4508 -38.4499 -14.3184
   -14.3154 -14.3022 -14.2999 -14.2986 -14.2952 -14.2915 -14.2899 -14.2859
   -14.2839  -3.9625  -3.6653  -3.4499  -1.8349  -1.5636   3.8715   4.6697
     5.1527   5.6304   6.0335   6.3039   6.8772   7.5081   7.7495  10.7344
    10.8489  11.6369  12.1090  12.3961  12.8866  13.6450  15.2337  15.6487
    17.1597  17.8102  18.4559  18.8209  19.1920  19.4694  20.1729  20.4380
    20.6993  21.1576  21.5289  21.8568  22.1469  22.5379

     occupation numbers 
     1.0000   1.0000   1.0000   1.0000   1.0000   1.0000   1.0000   1.0000
     1.0000   1.0000   1.0000   1.0000   1.0000   1.0000   1.0000   1.0000
     1.0000   1.0000   1.0000   1.0000   1.0000   1.0000   1.0000   1.0000
     1.0000   1.0000   1.0000   1.0000   1.0000   1.0000   1.0000   1.0000
     1.0000   1.0000   1.0000   1.0000   1.0000   1.0000   1.0000  -0.0000
    -0.0000  -0.0000  -0.0000  -0.0000  -0.0000  -0.0000  -0.0000  -0.0000
    -0.0000  -0.0000  -0.0000  -0.0000  -0.0000  -0.0000  -0.0000  -0.0000
    -0.0000  -0.0000  -0.0000  -0.0000  -0.0000  -0.0000

          k = 0.7789-0.0000-0.1677 (  9885 PWs)   bands (ev):

   -38.6100 -38.6092 -38.6090 -38.6088 -38.5985 -38.5985 -38.5983 -38.5982
   -38.5945 -38.5942 -38.5032 -38.4910 -38.4910 -38.4510 -38.4504 -14.3150
   -14.3128 -14.3008 -14.3005 -14.2985 -14.2983 -14.2930 -14.2918 -14.2898
   -14.2880  -4.7181  -4.1418  -3.5911  -1.2320  -0.8853   4.8150   4.9760
     5.6730   5.8329   6.2257   6.3681   7.7120   8.1080   8.1552  10.0553
    10.3872  10.8462  11.8002  12.6216  12.6305  14.0206  14.0380  16.5355
    16.9127  17.0806  17.2259  17.4131  18.3140  18.4315  18.6873  19.3999
    20.4590  21.0606  21.3640  21.6296  22.1842  22.2847

     occupation numbers 
     1.0000   1.0000   1.0000   1.0000   1.0000   1.0000   1.0000   1.0000
     1.0000   1.0000   1.0000   1.0000   1.0000   1.0000   1.0000   1.0000
     1.0000   1.0000   1.0000   1.0000   1.0000   1.0000   1.0000   1.0000
     1.0000   1.0000   1.0000   1.0000   1.0000   1.0000   1.0000   1.0000
     1.0000   1.0000   1.0000   1.0000   1.0000   1.0000   1.0000  -0.0000
    -0.0000  -0.0000  -0.0000  -0.0000  -0.0000  -0.0000  -0.0000  -0.0000
    -0.0000  -0.0000  -0.0000  -0.0000  -0.0000  -0.0000  -0.0000  -0.0000
    -0.0000  -0.0000  -0.0000  -0.0000  -0.0000  -0.0000

          k = 0.4073 0.2425-0.0007 (  9921 PWs)   bands (ev):

   -38.6104 -38.6100 -38.6098 -38.6093 -38.5989 -38.5987 -38.5985 -38.5979
   -38.5954 -38.5942 -38.5036 -38.4913 -38.4911 -38.4514 -38.4513 -14.3130
   -14.3113 -14.3047 -14.3035 -14.2989 -14.2966 -14.2945 -14.2922 -14.2920
   -14.2892  -5.1549  -4.5461  -3.7436  -0.9429  -0.3141   5.4795   5.9366
     6.1955   6.3328   6.9869   7.1803   7.4949   7.9319   8.1440   9.9757
    10.3809  10.6612  11.0540  11.6196  12.1041  14.1271  14.7834  15.9724
    16.1480  16.5487  17.1443  17.2441  17.4392  18.2240  18.3439  18.6895
    19.0006  19.7143  19.9948  20.4200  20.9595  21.5334

     occupation numbers 
     1.0000   1.0000   1.0000   1.0000   1.0000   1.0000   1.0000   1.0000
     1.0000   1.0000   1.0000   1.0000   1.0000   1.0000   1.0000   1.0000
     1.0000   1.0000   1.0000   1.0000   1.0000   1.0000   1.0000   1.0000
     1.0000   1.0000   1.0000   1.0000   1.0000   1.0000   1.0000   1.0000
     1.0000   1.0000   1.0000   1.0000   1.0000   1.0000   1.0000  -0.0000
    -0.0000  -0.0000  -0.0000  -0.0000  -0.0000  -0.0000  -0.0000  -0.0000
    -0.0000  -0.0000  -0.0000  -0.0000  -0.0000  -0.0000  -0.0000  -0.0000
    -0.0000  -0.0000  -0.0000  -0.0000  -0.0000  -0.0000

          k = 0.0359 0.0214 0.1666 (  9892 PWs)   bands (ev):

   -38.6099 -38.6099 -38.6088 -38.6088 -38.5987 -38.5987 -38.5977 -38.5977
   -38.5947 -38.5937 -38.5030 -38.4909 -38.4909 -38.4509 -38.4509 -14.3104
   -14.3104 -14.3092 -14.3092 -14.3020 -14.2999 -14.2910 -14.2910 -14.2890
   -14.2890  -5.3769  -4.7928  -3.8221  -0.8835   0.0612   6.4746   6.9395
     6.9395   6.9504   7.0899   7.0899   7.5835   7.5835   8.5453   9.1109
    10.2173  10.2173  10.8368  11.3453  11.3453  14.7012  15.4620  15.6981
    15.6981  16.3088  16.8312  16.8312  17.0693  17.6289  17.6289  17.9008
    19.2887  19.4141  19.4141  19.9196  20.5756  20.5756

     occupation numbers 
     1.0000   1.0000   1.0000   1.0000   1.0000   1.0000   1.0000   1.0000
     1.0000   1.0000   1.0000   1.0000   1.0000   1.0000   1.0000   1.0000
     1.0000   1.0000   1.0000   1.0000   1.0000   1.0000   1.0000   1.0000
     1.0000   1.0000   1.0000   1.0000   1.0000   1.0000   1.0000   1.0000
     1.0000   1.0000   1.0000   1.0000   1.0000   1.0000   1.0063  -0.0060
    -0.0000  -0.0000  -0.0000  -0.0000  -0.0000  -0.0000  -0.0000  -0.0000
    -0.0000  -0.0000  -0.0000  -0.0000  -0.0000  -0.0000  -0.0000  -0.0000
    -0.0000  -0.0000  -0.0000  -0.0000  -0.0000  -0.0000

          k =-0.3356-0.1997 0.3339 (  9930 PWs)   bands (ev):

   -38.6103 -38.6103 -38.6099 -38.6095 -38.5991 -38.5989 -38.5983 -38.5980
   -38.5951 -38.5948 -38.5038 -38.4914 -38.4912 -38.4516 -38.4514 -14.3130
   -14.3113 -14.3047 -14.3035 -14.2989 -14.2967 -14.2946 -14.2922 -14.2920
   -14.2892  -5.1252  -4.6255  -3.6691  -1.0531  -0.2214   5.4476   5.8408
     6.2906   6.4224   6.7714   7.4243   7.6406   7.6632   8.1557   9.9081
    10.7080  10.7924  10.8769  11.5074  11.9294  14.0357  15.1198  15.8044
    16.2684  16.2736  16.7999  17.0292  17.7833  18.5849  18.8065  18.9687
    19.2938  19.6549  19.6749  20.3684  20.6268  21.4902

     occupation numbers 
     1.0000   1.0000   1.0000   1.0000   1.0000   1.0000   1.0000   1.0000
     1.0000   1.0000   1.0000   1.0000   1.0000   1.0000   1.0000   1.0000
     1.0000   1.0000   1.0000   1.0000   1.0000   1.0000   1.0000   1.0000
     1.0000   1.0000   1.0000   1.0000   1.0000   1.0000   1.0000   1.0000
     1.0000   1.0000   1.0000   1.0000   1.0000   1.0000   1.0000  -0.0000
    -0.0000  -0.0000  -0.0000  -0.0000  -0.0000  -0.0000  -0.0000  -0.0000
    -0.0000  -0.0000  -0.0000  -0.0000  -0.0000  -0.0000  -0.0000  -0.0000
    -0.0000  -0.0000  -0.0000  -0.0000  -0.0000  -0.0000

          k = 1.5217 0.9057-0.5028 (  9894 PWs)   bands (ev):

   -38.6101 -38.6091 -38.6091 -38.6086 -38.5990 -38.5989 -38.5986 -38.5982
   -38.5945 -38.5943 -38.5033 -38.4914 -38.4913 -38.4511 -38.4504 -14.3203
   -14.3172 -14.3026 -14.2986 -14.2960 -14.2938 -14.2910 -14.2900 -14.2888
   -14.2876  -4.4517  -4.1415  -3.4357  -1.5101  -1.0086   4.3198   4.9031
     5.7165   5.8322   6.1650   6.2975   7.6417   7.6963   8.3278   9.5846
    10.7066  10.7665  11.7819  12.4393  13.2168  13.2923  15.0198  15.9920
    17.1686  17.5600  17.5786  18.1050  18.8162  19.2758  19.5453  20.0171
    20.3404  20.7568  21.3506  21.6192  21.9226  22.6119

     occupation numbers 
     1.0000   1.0000   1.0000   1.0000   1.0000   1.0000   1.0000   1.0000
     1.0000   1.0000   1.0000   1.0000   1.0000   1.0000   1.0000   1.0000
     1.0000   1.0000   1.0000   1.0000   1.0000   1.0000   1.0000   1.0000
     1.0000   1.0000   1.0000   1.0000   1.0000   1.0000   1.0000   1.0000
     1.0000   1.0000   1.0000   1.0000   1.0000   1.0000   1.0000  -0.0000
    -0.0000  -0.0000  -0.0000  -0.0000  -0.0000  -0.0000  -0.0000  -0.0000
    -0.0000  -0.0000  -0.0000  -0.0000  -0.0000  -0.0000  -0.0000  -0.0000
    -0.0000  -0.0000  -0.0000  -0.0000  -0.0000  -0.0000

          k = 1.1503 0.6846-0.3354 (  9866 PWs)   bands (ev):

   -38.6102 -38.6090 -38.6087 -38.6080 -38.5985 -38.5984 -38.5979 -38.5978
   -38.5942 -38.5938 -38.5029 -38.4909 -38.4907 -38.4511 -38.4498 -14.3246
   -14.3208 -14.3053 -14.3010 -14.2964 -14.2921 -14.2861 -14.2859 -14.2852
   -14.2836  -3.7647  -3.6695  -3.6596  -1.9054  -1.5089   3.6479   5.2072
     5.3222   5.5353   6.0420   6.1201   7.0400   7.5041   7.9427   9.8117
    10.8049  11.3283  11.7758  12.6428  12.9368  13.2172  14.9668  17.2441
    18.0987  18.2142  19.0043  19.1784  19.3963  19.5287  20.3112  20.4318
    20.5680  21.2835  21.2921  21.4954  21.8307  22.1558

     occupation numbers 
     1.0000   1.0000   1.0000   1.0000   1.0000   1.0000   1.0000   1.0000
     1.0000   1.0000   1.0000   1.0000   1.0000   1.0000   1.0000   1.0000
     1.0000   1.0000   1.0000   1.0000   1.0000   1.0000   1.0000   1.0000
     1.0000   1.0000   1.0000   1.0000   1.0000   1.0000   1.0000   1.0000
     1.0000   1.0000   1.0000   1.0000   1.0000   1.0000   1.0000  -0.0000
    -0.0000  -0.0000  -0.0000  -0.0000  -0.0000  -0.0000  -0.0000  -0.0000
    -0.0000  -0.0000  -0.0000  -0.0000  -0.0000  -0.0000  -0.0000  -0.0000
    -0.0000  -0.0000  -0.0000  -0.0000  -0.0000  -0.0000

          k = 0.7788 0.4635-0.1681 (  9895 PWs)   bands (ev):

   -38.6105 -38.6094 -38.6093 -38.6087 -38.5988 -38.5987 -38.5983 -38.5980
   -38.5947 -38.5943 -38.5034 -38.4912 -38.4911 -38.4514 -38.4505 -14.3203
   -14.3172 -14.3026 -14.2986 -14.2960 -14.2938 -14.2910 -14.2900 -14.2888
   -14.2877  -4.5122  -3.9899  -3.5496  -1.4586  -1.0332   4.0578   5.3383
     5.7234   5.7394   6.3883   6.6286   7.1257   7.4500   7.7704  10.1491
    11.0375  11.3708  11.7106  12.1153  12.7251  13.0644  15.5176  16.2174
    16.9259  17.4384  17.4898  17.9568  18.9470  19.1711  19.2208  19.8855
    20.0246  20.3716  21.1932  22.6472  22.9911  23.0511

     occupation numbers 
     1.0000   1.0000   1.0000   1.0000   1.0000   1.0000   1.0000   1.0000
     1.0000   1.0000   1.0000   1.0000   1.0000   1.0000   1.0000   1.0000
     1.0000   1.0000   1.0000   1.0000   1.0000   1.0000   1.0000   1.0000
     1.0000   1.0000   1.0000   1.0000   1.0000   1.0000   1.0000   1.0000
     1.0000   1.0000   1.0000   1.0000   1.0000   1.0000   1.0000  -0.0000
    -0.0000  -0.0000  -0.0000  -0.0000  -0.0000  -0.0000  -0.0000  -0.0000
    -0.0000  -0.0000  -0.0000  -0.0000  -0.0000  -0.0000  -0.0000  -0.0000
    -0.0000  -0.0000  -0.0000  -0.0000  -0.0000  -0.0000

          k = 0.4073 0.7060-0.0011 (  9901 PWs)   bands (ev):

   -38.6102 -38.6099 -38.6093 -38.6089 -38.5990 -38.5986 -38.5983 -38.5979
   -38.5948 -38.5944 -38.5035 -38.4912 -38.4911 -38.4515 -38.4506 -14.3150
   -14.3128 -14.3008 -14.3005 -14.2985 -14.2983 -14.2930 -14.2918 -14.2898
   -14.2880  -4.6979  -4.2012  -3.5419  -1.2650  -0.8619   4.7482   5.0054
     5.5518   6.0767   6.1451   6.5176   7.5528   8.0569   8.0887  10.1827
    10.4327  10.9842  11.7255  12.4608  12.6230  14.0739  14.1140  15.9867
    16.5632  17.1569  17.4795  17.8729  18.3548  18.7167  18.8142  19.6583
    20.3039  20.5845  21.0501  21.8216  22.2050  22.3897

     occupation numbers 
     1.0000   1.0000   1.0000   1.0000   1.0000   1.0000   1.0000   1.0000
     1.0000   1.0000   1.0000   1.0000   1.0000   1.0000   1.0000   1.0000
     1.0000   1.0000   1.0000   1.0000   1.0000   1.0000   1.0000   1.0000
     1.0000   1.0000   1.0000   1.0000   1.0000   1.0000   1.0000   1.0000
     1.0000   1.0000   1.0000   1.0000   1.0000   1.0000   1.0000  -0.0000
    -0.0000  -0.0000  -0.0000  -0.0000  -0.0000  -0.0000  -0.0000  -0.0000
    -0.0000  -0.0000  -0.0000  -0.0000  -0.0000  -0.0000  -0.0000  -0.0000
    -0.0000  -0.0000  -0.0000  -0.0000  -0.0000  -0.0000

          k = 0.0358 0.4849 0.1662 (  9930 PWs)   bands (ev):

   -38.6103 -38.6103 -38.6099 -38.6095 -38.5991 -38.5989 -38.5983 -38.5980
   -38.5951 -38.5948 -38.5038 -38.4914 -38.4912 -38.4516 -38.4514 -14.3130
   -14.3113 -14.3047 -14.3035 -14.2989 -14.2967 -14.2946 -14.2922 -14.2920
   -14.2892  -5.1252  -4.6255  -3.6691  -1.0531  -0.2214   5.4476   5.8408
     6.2906   6.4224   6.7714   7.4243   7.6406   7.6632   8.1557   9.9081
    10.7080  10.7924  10.8769  11.5074  11.9294  14.0357  15.1198  15.8044
    16.2684  16.2736  16.7999  17.0292  17.7833  18.5849  18.8065  18.9687
    19.2938  19.6549  19.6749  20.3684  20.6268  21.4900

     occupation numbers 
     1.0000   1.0000   1.0000   1.0000   1.0000   1.0000   1.0000   1.0000
     1.0000   1.0000   1.0000   1.0000   1.0000   1.0000   1.0000   1.0000
     1.0000   1.0000   1.0000   1.0000   1.0000   1.0000   1.0000   1.0000
     1.0000   1.0000   1.0000   1.0000   1.0000   1.0000   1.0000   1.0000
     1.0000   1.0000   1.0000   1.0000   1.0000   1.0000   1.0000  -0.0000
    -0.0000  -0.0000  -0.0000  -0.0000  -0.0000  -0.0000  -0.0000  -0.0000
    -0.0000  -0.0000  -0.0000  -0.0000  -0.0000  -0.0000  -0.0000  -0.0000
    -0.0000  -0.0000  -0.0000  -0.0000  -0.0000  -0.0000

          k =-0.3357 0.2638 0.3336 (  9919 PWs)   bands (ev):

   -38.6104 -38.6102 -38.6099 -38.6094 -38.5988 -38.5986 -38.5982 -38.5979
   -38.5951 -38.5945 -38.5037 -38.4912 -38.4910 -38.4516 -38.4514 -14.3130
   -14.3113 -14.3047 -14.3035 -14.2989 -14.2967 -14.2945 -14.2922 -14.2920
   -14.2892  -5.1075  -4.6635  -3.6400  -1.0644  -0.2255   5.3833   6.1933
     6.2780   6.3528   6.8021   6.9040   7.5822   7.9891   8.2543   9.7557
    10.4750  10.5327  11.2042  11.7470  12.0809  14.2954  14.8197  15.8241
    15.9552  16.3637  16.9413  17.6187  17.6960  17.8068  17.9463  18.8014
    19.2058  19.4387  20.4332  20.6386  21.3515  21.7828

     occupation numbers 
     1.0000   1.0000   1.0000   1.0000   1.0000   1.0000   1.0000   1.0000
     1.0000   1.0000   1.0000   1.0000   1.0000   1.0000   1.0000   1.0000
     1.0000   1.0000   1.0000   1.0000   1.0000   1.0000   1.0000   1.0000
     1.0000   1.0000   1.0000   1.0000   1.0000   1.0000   1.0000   1.0000
     1.0000   1.0000   1.0000   1.0000   1.0000   1.0000   1.0000  -0.0000
    -0.0000  -0.0000  -0.0000  -0.0000  -0.0000  -0.0000  -0.0000  -0.0000
    -0.0000  -0.0000  -0.0000  -0.0000  -0.0000  -0.0000  -0.0000  -0.0000
    -0.0000  -0.0000  -0.0000  -0.0000  -0.0000  -0.0000

          k = 1.5217 1.3693-0.5032 (  9898 PWs)   bands (ev):

   -38.6099 -38.6097 -38.6094 -38.6089 -38.5989 -38.5987 -38.5982 -38.5979
   -38.5950 -38.5944 -38.5035 -38.4912 -38.4910 -38.4513 -38.4507 -14.3150
   -14.3128 -14.3008 -14.3005 -14.2985 -14.2983 -14.2930 -14.2918 -14.2898
   -14.2880  -4.6449  -4.3164  -3.4592  -1.3232  -0.8239   4.6800   4.9457
     5.6001   6.0607   6.3398   6.7767   7.3485   7.8133   7.9360  10.4583
    10.6526  11.1876  11.5194  12.2446  12.4838  14.2312  14.3063  15.3529
    15.9827  17.4203  17.7177  18.2613  18.5499  19.0584  19.5760  19.8386
    19.9995  20.2292  20.7194  21.4316  22.1092  22.2518

     occupation numbers 
     1.0000   1.0000   1.0000   1.0000   1.0000   1.0000   1.0000   1.0000
     1.0000   1.0000   1.0000   1.0000   1.0000   1.0000   1.0000   1.0000
     1.0000   1.0000   1.0000   1.0000   1.0000   1.0000   1.0000   1.0000
     1.0000   1.0000   1.0000   1.0000   1.0000   1.0000   1.0000   1.0000
     1.0000   1.0000   1.0000   1.0000   1.0000   1.0000   1.0000  -0.0000
    -0.0000  -0.0000  -0.0000  -0.0000  -0.0000  -0.0000  -0.0000  -0.0000
    -0.0000  -0.0000  -0.0000  -0.0000  -0.0000  -0.0000  -0.0000  -0.0000
    -0.0000  -0.0000  -0.0000  -0.0000  -0.0000  -0.0000

          k = 1.1502 1.1482-0.3358 (  9895 PWs)   bands (ev):

   -38.6097 -38.6093 -38.6089 -38.6085 -38.5992 -38.5988 -38.5986 -38.5983
   -38.5947 -38.5943 -38.5033 -38.4914 -38.4914 -38.4510 -38.4502 -14.3184
   -14.3154 -14.3022 -14.2999 -14.2986 -14.2952 -14.2915 -14.2899 -14.2858
   -14.2840  -3.8907  -3.7876  -3.4036  -1.8004  -1.5941   4.0957   4.6823
     4.9500   5.1083   6.0300   6.5377   7.3140   7.4379   7.9560  10.3746
    10.9191  11.1716  12.0228  12.4147  13.4543  13.7708  14.8544  15.6920
    17.3461  17.8233  18.3474  19.2070  19.3346  19.6865  20.0245  20.5663
    20.6608  21.0986  21.2402  21.3864  22.1229  22.6989

     occupation numbers 
     1.0000   1.0000   1.0000   1.0000   1.0000   1.0000   1.0000   1.0000
     1.0000   1.0000   1.0000   1.0000   1.0000   1.0000   1.0000   1.0000
     1.0000   1.0000   1.0000   1.0000   1.0000   1.0000   1.0000   1.0000
     1.0000   1.0000   1.0000   1.0000   1.0000   1.0000   1.0000   1.0000
     1.0000   1.0000   1.0000   1.0000   1.0000   1.0000   1.0000  -0.0000
    -0.0000  -0.0000  -0.0000  -0.0000  -0.0000  -0.0000  -0.0000  -0.0000
    -0.0000  -0.0000  -0.0000  -0.0000  -0.0000  -0.0000  -0.0000  -0.0000
    -0.0000  -0.0000  -0.0000  -0.0000  -0.0000  -0.0000

          k = 0.7787 0.9271-0.1685 (  9868 PWs)   bands (ev):

   -38.6093 -38.6090 -38.6087 -38.6080 -38.5986 -38.5986 -38.5984 -38.5981
   -38.5943 -38.5938 -38.5029 -38.4911 -38.4910 -38.4507 -38.4498 -14.3184
   -14.3154 -14.3022 -14.2999 -14.2986 -14.2952 -14.2915 -14.2899 -14.2859
   -14.2840  -3.9675  -3.6393  -3.4733  -1.8304  -1.5661   3.8884   4.7693
     5.2448   5.5788   5.6789   6.1338   6.9477   7.8507   7.9989  10.4405
    10.5173  11.5556  12.3227  12.5844  12.9696  13.4772  15.6695  15.9427
    16.6548  17.4802  17.9097  19.1183  19.2934  19.4801  20.1172  20.5132
    20.8549  21.1670  21.8318  22.1983  22.5301  23.0235

     occupation numbers 
     1.0000   1.0000   1.0000   1.0000   1.0000   1.0000   1.0000   1.0000
     1.0000   1.0000   1.0000   1.0000   1.0000   1.0000   1.0000   1.0000
     1.0000   1.0000   1.0000   1.0000   1.0000   1.0000   1.0000   1.0000
     1.0000   1.0000   1.0000   1.0000   1.0000   1.0000   1.0000   1.0000
     1.0000   1.0000   1.0000   1.0000   1.0000   1.0000   1.0000  -0.0000
    -0.0000  -0.0000  -0.0000  -0.0000  -0.0000  -0.0000  -0.0000  -0.0000
    -0.0000  -0.0000  -0.0000  -0.0000  -0.0000  -0.0000  -0.0000  -0.0000
    -0.0000  -0.0000  -0.0000  -0.0000  -0.0000  -0.0000

          k = 0.4077-1.6117 0.0007 (  9884 PWs)   bands (ev):

   -38.6096 -38.6091 -38.6088 -38.6084 -38.5991 -38.5989 -38.5983 -38.5981
   -38.5943 -38.5942 -38.5031 -38.4916 -38.4910 -38.4508 -38.4500 -14.3184
   -14.3154 -14.3022 -14.2999 -14.2985 -14.2952 -14.2915 -14.2899 -14.2859
   -14.2840  -3.9316  -3.7311  -3.4159  -1.8212  -1.5764   3.9548   4.6331
     5.0837   5.3138   6.1924   6.6015   7.1349   7.1980   7.6920  10.7457
    11.1144  11.3449  11.9074  12.3060  13.1783  13.8555  14.7633  15.6267
    17.6099  17.8205  18.3964  19.1440  19.4249  19.6439  19.7281  20.4917
    20.7440  21.0886  21.2001  21.4799  21.7979  22.6351

     occupation numbers 
     1.0000   1.0000   1.0000   1.0000   1.0000   1.0000   1.0000   1.0000
     1.0000   1.0000   1.0000   1.0000   1.0000   1.0000   1.0000   1.0000
     1.0000   1.0000   1.0000   1.0000   1.0000   1.0000   1.0000   1.0000
     1.0000   1.0000   1.0000   1.0000   1.0000   1.0000   1.0000   1.0000
     1.0000   1.0000   1.0000   1.0000   1.0000   1.0000   1.0000  -0.0000
    -0.0000  -0.0000  -0.0000  -0.0000  -0.0000  -0.0000  -0.0000  -0.0000
    -0.0000  -0.0000  -0.0000  -0.0000  -0.0000  -0.0000  -0.0000  -0.0000
    -0.0000  -0.0000  -0.0000  -0.0000  -0.0000  -0.0000

          k = 0.0362-1.8328 0.1681 (  9894 PWs)   bands (ev):

   -38.6101 -38.6091 -38.6091 -38.6086 -38.5990 -38.5989 -38.5986 -38.5982
   -38.5945 -38.5943 -38.5033 -38.4914 -38.4913 -38.4511 -38.4504 -14.3203
   -14.3172 -14.3026 -14.2986 -14.2960 -14.2938 -14.2910 -14.2900 -14.2888
   -14.2876  -4.4517  -4.1415  -3.4357  -1.5101  -1.0086   4.3198   4.9031
     5.7165   5.8322   6.1650   6.2975   7.6417   7.6963   8.3278   9.5846
    10.7066  10.7665  11.7819  12.4393  13.2168  13.2923  15.0198  15.9920
    17.1686  17.5600  17.5786  18.1050  18.8162  19.2758  19.5453  20.0171
    20.3404  20.7567  21.3506  21.6192  21.9227  22.6119

     occupation numbers 
     1.0000   1.0000   1.0000   1.0000   1.0000   1.0000   1.0000   1.0000
     1.0000   1.0000   1.0000   1.0000   1.0000   1.0000   1.0000   1.0000
     1.0000   1.0000   1.0000   1.0000   1.0000   1.0000   1.0000   1.0000
     1.0000   1.0000   1.0000   1.0000   1.0000   1.0000   1.0000   1.0000
     1.0000   1.0000   1.0000   1.0000   1.0000   1.0000   1.0000  -0.0000
    -0.0000  -0.0000  -0.0000  -0.0000  -0.0000  -0.0000  -0.0000  -0.0000
    -0.0000  -0.0000  -0.0000  -0.0000  -0.0000  -0.0000  -0.0000  -0.0000
    -0.0000  -0.0000  -0.0000  -0.0000  -0.0000  -0.0000

          k =-0.3353-2.0539 0.3354 (  9898 PWs)   bands (ev):

   -38.6099 -38.6097 -38.6094 -38.6089 -38.5989 -38.5987 -38.5982 -38.5979
   -38.5950 -38.5944 -38.5035 -38.4912 -38.4910 -38.4513 -38.4507 -14.3150
   -14.3128 -14.3008 -14.3005 -14.2985 -14.2983 -14.2930 -14.2918 -14.2898
   -14.2880  -4.6449  -4.3164  -3.4592  -1.3232  -0.8239   4.6800   4.9457
     5.6001   6.0607   6.3398   6.7767   7.3485   7.8133   7.9360  10.4583
    10.6526  11.1876  11.5194  12.2446  12.4838  14.2312  14.3063  15.3529
    15.9827  17.4203  17.7177  18.2613  18.5499  19.0584  19.5760  19.8386
    19.9995  20.2292  20.7194  21.4316  22.1092  22.2518

     occupation numbers 
     1.0000   1.0000   1.0000   1.0000   1.0000   1.0000   1.0000   1.0000
     1.0000   1.0000   1.0000   1.0000   1.0000   1.0000   1.0000   1.0000
     1.0000   1.0000   1.0000   1.0000   1.0000   1.0000   1.0000   1.0000
     1.0000   1.0000   1.0000   1.0000   1.0000   1.0000   1.0000   1.0000
     1.0000   1.0000   1.0000   1.0000   1.0000   1.0000   1.0000  -0.0000
    -0.0000  -0.0000  -0.0000  -0.0000  -0.0000  -0.0000  -0.0000  -0.0000
    -0.0000  -0.0000  -0.0000  -0.0000  -0.0000  -0.0000  -0.0000  -0.0000
    -0.0000  -0.0000  -0.0000  -0.0000  -0.0000  -0.0000

          k = 1.5221-0.9484-0.5013 (  9880 PWs)   bands (ev):

   -38.6100 -38.6092 -38.6090 -38.6083 -38.5987 -38.5986 -38.5980 -38.5980
   -38.5948 -38.5943 -38.5034 -38.4910 -38.4910 -38.4511 -38.4502 -14.3203
   -14.3173 -14.3026 -14.2986 -14.2960 -14.2938 -14.2910 -14.2899 -14.2888
   -14.2877  -4.4363  -4.1594  -3.4441  -1.4271  -1.0815   4.1299   5.1138
     5.6972   5.7775   6.4573   6.7187   7.1920   7.3963   7.8427  10.1318
    11.0001  11.1592  11.6113  12.2095  12.9082  13.2412  15.0810  16.4096
    16.6951  17.5450  17.6001  17.8075  18.1240  18.9624  20.0660  20.4852
    20.9758  21.0493  21.2356  22.2200  22.4419  22.8935

     occupation numbers 
     1.0000   1.0000   1.0000   1.0000   1.0000   1.0000   1.0000   1.0000
     1.0000   1.0000   1.0000   1.0000   1.0000   1.0000   1.0000   1.0000
     1.0000   1.0000   1.0000   1.0000   1.0000   1.0000   1.0000   1.0000
     1.0000   1.0000   1.0000   1.0000   1.0000   1.0000   1.0000   1.0000
     1.0000   1.0000   1.0000   1.0000   1.0000   1.0000   1.0000  -0.0000
    -0.0000  -0.0000  -0.0000  -0.0000  -0.0000  -0.0000  -0.0000  -0.0000
    -0.0000  -0.0000  -0.0000  -0.0000  -0.0000  -0.0000  -0.0000  -0.0000
    -0.0000  -0.0000  -0.0000  -0.0000  -0.0000  -0.0000

          k = 1.1506-1.1695-0.3339 (  9872 PWs)   bands (ev):

   -38.6094 -38.6090 -38.6085 -38.6081 -38.5988 -38.5986 -38.5984 -38.5980
   -38.5944 -38.5939 -38.5030 -38.4913 -38.4910 -38.4507 -38.4498 -14.3183
   -14.3154 -14.3022 -14.3000 -14.2986 -14.2952 -14.2915 -14.2899 -14.2858
   -14.2840  -3.9059  -3.7609  -3.4175  -1.7949  -1.5976   4.1340   4.7827
     4.8703   5.1927   5.7646   6.2355   7.5278   7.7785   8.1322  10.1875
    10.5714  10.9728  12.2744  12.6397  13.4758  13.5537  15.2961  15.8659
    16.9998  17.5879  17.8493  19.1913  19.3469  19.7385  20.3161  20.7297
    20.7606  21.1913  21.2030  21.8735  22.4410  22.5587

     occupation numbers 
     1.0000   1.0000   1.0000   1.0000   1.0000   1.0000   1.0000   1.0000
     1.0000   1.0000   1.0000   1.0000   1.0000   1.0000   1.0000   1.0000
     1.0000   1.0000   1.0000   1.0000   1.0000   1.0000   1.0000   1.0000
     1.0000   1.0000   1.0000   1.0000   1.0000   1.0000   1.0000   1.0000
     1.0000   1.0000   1.0000   1.0000   1.0000   1.0000   1.0000  -0.0000
    -0.0000  -0.0000  -0.0000  -0.0000  -0.0000  -0.0000  -0.0000  -0.0000
    -0.0000  -0.0000  -0.0000  -0.0000  -0.0000  -0.0000  -0.0000  -0.0000
    -0.0000  -0.0000  -0.0000  -0.0000  -0.0000  -0.0000

          k = 0.7791-1.3906-0.1666 (  9892 PWs)   bands (ev):

   -38.6095 -38.6093 -38.6091 -38.6088 -38.5990 -38.5984 -38.5983 -38.5978
   -38.5948 -38.5945 -38.5035 -38.4911 -38.4910 -38.4508 -38.4506 -14.3109
   -14.3108 -14.3067 -14.2986 -14.2952 -14.2950 -14.2949 -14.2937 -14.2865
   -14.2863  -3.4706  -3.4680  -3.4615  -2.0233  -2.0053   4.0435   4.5529
     4.5857   5.0268   5.7682   6.1618   6.9404   7.7087   7.9917  10.4854
    11.0297  11.5235  12.4814  12.9861  13.0199  15.0594  15.6860  15.9065
    16.0329  16.4049  17.8064  18.4988  19.0381  19.9750  20.0997  20.5737
    20.7036  21.2626  22.3234  22.4173  23.2744  23.4249

     occupation numbers 
     1.0000   1.0000   1.0000   1.0000   1.0000   1.0000   1.0000   1.0000
     1.0000   1.0000   1.0000   1.0000   1.0000   1.0000   1.0000   1.0000
     1.0000   1.0000   1.0000   1.0000   1.0000   1.0000   1.0000   1.0000
     1.0000   1.0000   1.0000   1.0000   1.0000   1.0000   1.0000   1.0000
     1.0000   1.0000   1.0000   1.0000   1.0000   1.0000   1.0000  -0.0000
    -0.0000  -0.0000  -0.0000  -0.0000  -0.0000  -0.0000  -0.0000  -0.0000
    -0.0000  -0.0000  -0.0000  -0.0000  -0.0000  -0.0000  -0.0000  -0.0000
    -0.0000  -0.0000  -0.0000  -0.0000  -0.0000  -0.0000

          k = 0.4076-1.1482 0.0004 (  9870 PWs)   bands (ev):

   -38.6093 -38.6092 -38.6086 -38.6081 -38.5991 -38.5987 -38.5982 -38.5980
   -38.5941 -38.5938 -38.5028 -38.4914 -38.4909 -38.4508 -38.4499 -14.3184
   -14.3154 -14.3022 -14.2999 -14.2986 -14.2952 -14.2915 -14.2899 -14.2859
   -14.2839  -3.9625  -3.6653  -3.4499  -1.8349  -1.5636   3.8715   4.6697
     5.1527   5.6304   6.0335   6.3039   6.8772   7.5081   7.7495  10.7344
    10.8489  11.6369  12.1090  12.3961  12.8866  13.6450  15.2337  15.6487
    17.1597  17.8102  18.4559  18.8209  19.1920  19.4694  20.1729  20.4380
    20.6993  21.1576  21.5289  21.8568  22.1469  22.5378

     occupation numbers 
     1.0000   1.0000   1.0000   1.0000   1.0000   1.0000   1.0000   1.0000
     1.0000   1.0000   1.0000   1.0000   1.0000   1.0000   1.0000   1.0000
     1.0000   1.0000   1.0000   1.0000   1.0000   1.0000   1.0000   1.0000
     1.0000   1.0000   1.0000   1.0000   1.0000   1.0000   1.0000   1.0000
     1.0000   1.0000   1.0000   1.0000   1.0000   1.0000   1.0000  -0.0000
    -0.0000  -0.0000  -0.0000  -0.0000  -0.0000  -0.0000  -0.0000  -0.0000
    -0.0000  -0.0000  -0.0000  -0.0000  -0.0000  -0.0000  -0.0000  -0.0000
    -0.0000  -0.0000  -0.0000  -0.0000  -0.0000  -0.0000

          k = 0.0361-1.3693 0.1677 (  9866 PWs)   bands (ev):

   -38.6102 -38.6090 -38.6087 -38.6080 -38.5985 -38.5984 -38.5979 -38.5978
   -38.5942 -38.5938 -38.5029 -38.4909 -38.4907 -38.4511 -38.4498 -14.3246
   -14.3208 -14.3053 -14.3010 -14.2964 -14.2921 -14.2861 -14.2859 -14.2852
   -14.2836  -3.7647  -3.6695  -3.6596  -1.9054  -1.5089   3.6479   5.2072
     5.3222   5.5353   6.0420   6.1201   7.0400   7.5041   7.9427   9.8117
    10.8049  11.3283  11.7758  12.6428  12.9368  13.2172  14.9668  17.2441
    18.0987  18.2142  19.0043  19.1784  19.3963  19.5287  20.3112  20.4318
    20.5680  21.2835  21.2921  21.4954  21.8306  22.1558

     occupation numbers 
     1.0000   1.0000   1.0000   1.0000   1.0000   1.0000   1.0000   1.0000
     1.0000   1.0000   1.0000   1.0000   1.0000   1.0000   1.0000   1.0000
     1.0000   1.0000   1.0000   1.0000   1.0000   1.0000   1.0000   1.0000
     1.0000   1.0000   1.0000   1.0000   1.0000   1.0000   1.0000   1.0000
     1.0000   1.0000   1.0000   1.0000   1.0000   1.0000   1.0000  -0.0000
    -0.0000  -0.0000  -0.0000  -0.0000  -0.0000  -0.0000  -0.0000  -0.0000
    -0.0000  -0.0000  -0.0000  -0.0000  -0.0000  -0.0000  -0.0000  -0.0000
    -0.0000  -0.0000  -0.0000  -0.0000  -0.0000  -0.0000

          k =-0.3354-1.5904 0.3351 (  9895 PWs)   bands (ev):

   -38.6097 -38.6093 -38.6089 -38.6085 -38.5992 -38.5988 -38.5986 -38.5983
   -38.5947 -38.5943 -38.5033 -38.4914 -38.4914 -38.4510 -38.4502 -14.3184
   -14.3154 -14.3022 -14.2999 -14.2986 -14.2952 -14.2915 -14.2899 -14.2858
   -14.2840  -3.8907  -3.7876  -3.4036  -1.8004  -1.5941   4.0957   4.6823
     4.9500   5.1083   6.0300   6.5377   7.3140   7.4379   7.9560  10.3746
    10.9191  11.1716  12.0228  12.4147  13.4543  13.7708  14.8544  15.6920
    17.3461  17.8233  18.3474  19.2070  19.3346  19.6865  20.0245  20.5663
    20.6608  21.0986  21.2402  21.3864  22.1229  22.6989

     occupation numbers 
     1.0000   1.0000   1.0000   1.0000   1.0000   1.0000   1.0000   1.0000
     1.0000   1.0000   1.0000   1.0000   1.0000   1.0000   1.0000   1.0000
     1.0000   1.0000   1.0000   1.0000   1.0000   1.0000   1.0000   1.0000
     1.0000   1.0000   1.0000   1.0000   1.0000   1.0000   1.0000   1.0000
     1.0000   1.0000   1.0000   1.0000   1.0000   1.0000   1.0000  -0.0000
    -0.0000  -0.0000  -0.0000  -0.0000  -0.0000  -0.0000  -0.0000  -0.0000
    -0.0000  -0.0000  -0.0000  -0.0000  -0.0000  -0.0000  -0.0000  -0.0000
    -0.0000  -0.0000  -0.0000  -0.0000  -0.0000  -0.0000

          k = 1.5220-0.4849-0.5017 (  9872 PWs)   bands (ev):

   -38.6094 -38.6090 -38.6085 -38.6081 -38.5988 -38.5986 -38.5984 -38.5980
   -38.5944 -38.5939 -38.5030 -38.4913 -38.4910 -38.4507 -38.4498 -14.3183
   -14.3154 -14.3022 -14.3000 -14.2986 -14.2952 -14.2915 -14.2899 -14.2858
   -14.2840  -3.9059  -3.7609  -3.4175  -1.7949  -1.5976   4.1340   4.7827
     4.8703   5.1927   5.7646   6.2355   7.5278   7.7785   8.1322  10.1875
    10.5714  10.9728  12.2744  12.6397  13.4758  13.5537  15.2961  15.8659
    16.9998  17.5879  17.8493  19.1913  19.3469  19.7385  20.3161  20.7297
    20.7606  21.1913  21.2030  21.8735  22.4411  22.5588

     occupation numbers 
     1.0000   1.0000   1.0000   1.0000   1.0000   1.0000   1.0000   1.0000
     1.0000   1.0000   1.0000   1.0000   1.0000   1.0000   1.0000   1.0000
     1.0000   1.0000   1.0000   1.0000   1.0000   1.0000   1.0000   1.0000
     1.0000   1.0000   1.0000   1.0000   1.0000   1.0000   1.0000   1.0000
     1.0000   1.0000   1.0000   1.0000   1.0000   1.0000   1.0000  -0.0000
    -0.0000  -0.0000  -0.0000  -0.0000  -0.0000  -0.0000  -0.0000  -0.0000
    -0.0000  -0.0000  -0.0000  -0.0000  -0.0000  -0.0000  -0.0000  -0.0000
    -0.0000  -0.0000  -0.0000  -0.0000  -0.0000  -0.0000

          k = 1.1505-0.7060-0.3343 (  9889 PWs)   bands (ev):

   -38.6103 -38.6093 -38.6087 -38.6078 -38.5990 -38.5990 -38.5987 -38.5983
   -38.5945 -38.5939 -38.5031 -38.4915 -38.4913 -38.4512 -38.4497 -14.3246
   -14.3208 -14.3053 -14.3010 -14.2964 -14.2921 -14.2860 -14.2859 -14.2852
   -14.2837  -3.7725  -3.6712  -3.6461  -1.9430  -1.4730   3.7795   4.8758
     5.1617   5.4614   6.2173   6.4980   7.3363   7.3910   7.5906  10.0826
    10.8402  11.0729  11.7103  12.3869  12.8436  13.6307  15.2433  16.7243
    17.8440  18.2397  19.0919  19.1761  19.4656  19.6030  20.4551  20.6618
    20.7048  21.1609  21.2796  21.6784  21.7678  22.5020

     occupation numbers 
     1.0000   1.0000   1.0000   1.0000   1.0000   1.0000   1.0000   1.0000
     1.0000   1.0000   1.0000   1.0000   1.0000   1.0000   1.0000   1.0000
     1.0000   1.0000   1.0000   1.0000   1.0000   1.0000   1.0000   1.0000
     1.0000   1.0000   1.0000   1.0000   1.0000   1.0000   1.0000   1.0000
     1.0000   1.0000   1.0000   1.0000   1.0000   1.0000   1.0000  -0.0000
    -0.0000  -0.0000  -0.0000  -0.0000  -0.0000  -0.0000  -0.0000  -0.0000
    -0.0000  -0.0000  -0.0000  -0.0000  -0.0000  -0.0000  -0.0000  -0.0000
    -0.0000  -0.0000  -0.0000  -0.0000  -0.0000  -0.0000

          k = 0.7790-0.9271-0.1670 (  9868 PWs)   bands (ev):

   -38.6093 -38.6090 -38.6087 -38.6080 -38.5986 -38.5986 -38.5984 -38.5981
   -38.5943 -38.5938 -38.5029 -38.4911 -38.4910 -38.4507 -38.4498 -14.3184
   -14.3154 -14.3022 -14.2999 -14.2986 -14.2952 -14.2915 -14.2899 -14.2859
   -14.2840  -3.9675  -3.6393  -3.4733  -1.8304  -1.5661   3.8884   4.7693
     5.2448   5.5788   5.6789   6.1338   6.9477   7.8507   7.9989  10.4405
    10.5173  11.5556  12.3227  12.5844  12.9696  13.4772  15.6695  15.9427
    16.6548  17.4802  17.9097  19.1183  19.2934  19.4801  20.1172  20.5132
    20.8549  21.1670  21.8318  22.1983  22.5302  23.0241

     occupation numbers 
     1.0000   1.0000   1.0000   1.0000   1.0000   1.0000   1.0000   1.0000
     1.0000   1.0000   1.0000   1.0000   1.0000   1.0000   1.0000   1.0000
     1.0000   1.0000   1.0000   1.0000   1.0000   1.0000   1.0000   1.0000
     1.0000   1.0000   1.0000   1.0000   1.0000   1.0000   1.0000   1.0000
     1.0000   1.0000   1.0000   1.0000   1.0000   1.0000   1.0000  -0.0000
    -0.0000  -0.0000  -0.0000  -0.0000  -0.0000  -0.0000  -0.0000  -0.0000
    -0.0000  -0.0000  -0.0000  -0.0000  -0.0000  -0.0000  -0.0000  -0.0000
    -0.0000  -0.0000  -0.0000  -0.0000  -0.0000  -0.0000

          k = 0.4075-0.6846-0.0000 (  9885 PWs)   bands (ev):

   -38.6100 -38.6092 -38.6090 -38.6088 -38.5985 -38.5985 -38.5983 -38.5982
   -38.5945 -38.5942 -38.5032 -38.4910 -38.4910 -38.4510 -38.4504 -14.3150
   -14.3128 -14.3008 -14.3005 -14.2985 -14.2983 -14.2930 -14.2918 -14.2898
   -14.2880  -4.7181  -4.1418  -3.5911  -1.2320  -0.8853   4.8150   4.9760
     5.6730   5.8329   6.2257   6.3681   7.7120   8.1080   8.1552  10.0553
    10.3872  10.8462  11.8002  12.6216  12.6305  14.0206  14.0380  16.5355
    16.9127  17.0806  17.2259  17.4131  18.3140  18.4315  18.6873  19.3999
    20.4590  21.0606  21.3640  21.6296  22.1841  22.2846

     occupation numbers 
     1.0000   1.0000   1.0000   1.0000   1.0000   1.0000   1.0000   1.0000
     1.0000   1.0000   1.0000   1.0000   1.0000   1.0000   1.0000   1.0000
     1.0000   1.0000   1.0000   1.0000   1.0000   1.0000   1.0000   1.0000
     1.0000   1.0000   1.0000   1.0000   1.0000   1.0000   1.0000   1.0000
     1.0000   1.0000   1.0000   1.0000   1.0000   1.0000   1.0000  -0.0000
    -0.0000  -0.0000  -0.0000  -0.0000  -0.0000  -0.0000  -0.0000  -0.0000
    -0.0000  -0.0000  -0.0000  -0.0000  -0.0000  -0.0000  -0.0000  -0.0000
    -0.0000  -0.0000  -0.0000  -0.0000  -0.0000  -0.0000

          k = 0.0360-0.9057 0.1673 (  9895 PWs)   bands (ev):

   -38.6105 -38.6094 -38.6093 -38.6087 -38.5988 -38.5987 -38.5983 -38.5980
   -38.5947 -38.5943 -38.5034 -38.4912 -38.4911 -38.4514 -38.4505 -14.3203
   -14.3172 -14.3026 -14.2986 -14.2960 -14.2938 -14.2910 -14.2900 -14.2888
   -14.2877  -4.5122  -3.9899  -3.5496  -1.4586  -1.0332   4.0578   5.3383
     5.7234   5.7394   6.3883   6.6286   7.1257   7.4500   7.7704  10.1491
    11.0375  11.3708  11.7106  12.1153  12.7251  13.0644  15.5176  16.2174
    16.9259  17.4384  17.4898  17.9568  18.9470  19.1711  19.2208  19.8855
    20.0246  20.3716  21.1932  22.6472  22.9912  23.0511

     occupation numbers 
     1.0000   1.0000   1.0000   1.0000   1.0000   1.0000   1.0000   1.0000
     1.0000   1.0000   1.0000   1.0000   1.0000   1.0000   1.0000   1.0000
     1.0000   1.0000   1.0000   1.0000   1.0000   1.0000   1.0000   1.0000
     1.0000   1.0000   1.0000   1.0000   1.0000   1.0000   1.0000   1.0000
     1.0000   1.0000   1.0000   1.0000   1.0000   1.0000   1.0000  -0.0000
    -0.0000  -0.0000  -0.0000  -0.0000  -0.0000  -0.0000  -0.0000  -0.0000
    -0.0000  -0.0000  -0.0000  -0.0000  -0.0000  -0.0000  -0.0000  -0.0000
    -0.0000  -0.0000  -0.0000  -0.0000  -0.0000  -0.0000

          k =-0.3354-1.1268 0.3347 (  9868 PWs)   bands (ev):

   -38.6093 -38.6090 -38.6087 -38.6080 -38.5986 -38.5986 -38.5984 -38.5981
   -38.5943 -38.5938 -38.5029 -38.4911 -38.4910 -38.4507 -38.4498 -14.3184
   -14.3154 -14.3022 -14.2999 -14.2986 -14.2952 -14.2915 -14.2899 -14.2859
   -14.2840  -3.9675  -3.6393  -3.4733  -1.8304  -1.5661   3.8884   4.7693
     5.2448   5.5788   5.6789   6.1338   6.9477   7.8507   7.9989  10.4405
    10.5173  11.5556  12.3227  12.5844  12.9696  13.4772  15.6695  15.9427
    16.6548  17.4802  17.9097  19.1183  19.2934  19.4801  20.1172  20.5132
    20.8549  21.1670  21.8318  22.1983  22.5301  23.0236

     occupation numbers 
     1.0000   1.0000   1.0000   1.0000   1.0000   1.0000   1.0000   1.0000
     1.0000   1.0000   1.0000   1.0000   1.0000   1.0000   1.0000   1.0000
     1.0000   1.0000   1.0000   1.0000   1.0000   1.0000   1.0000   1.0000
     1.0000   1.0000   1.0000   1.0000   1.0000   1.0000   1.0000   1.0000
     1.0000   1.0000   1.0000   1.0000   1.0000   1.0000   1.0000  -0.0000
    -0.0000  -0.0000  -0.0000  -0.0000  -0.0000  -0.0000  -0.0000  -0.0000
    -0.0000  -0.0000  -0.0000  -0.0000  -0.0000  -0.0000  -0.0000  -0.0000
    -0.0000  -0.0000  -0.0000  -0.0000  -0.0000  -0.0000

          k = 1.5219-0.0214-0.5020 (  9892 PWs)   bands (ev):

   -38.6095 -38.6093 -38.6091 -38.6088 -38.5990 -38.5984 -38.5983 -38.5978
   -38.5948 -38.5945 -38.5035 -38.4911 -38.4910 -38.4508 -38.4506 -14.3109
   -14.3108 -14.3067 -14.2986 -14.2952 -14.2950 -14.2949 -14.2937 -14.2865
   -14.2863  -3.4706  -3.4680  -3.4615  -2.0233  -2.0053   4.0435   4.5529
     4.5857   5.0268   5.7682   6.1618   6.9404   7.7087   7.9917  10.4854
    11.0297  11.5235  12.4814  12.9861  13.0199  15.0594  15.6860  15.9065
    16.0329  16.4049  17.8064  18.4988  19.0381  19.9750  20.0997  20.5737
    20.7036  21.2626  22.3234  22.4173  23.2744  23.4248

     occupation numbers 
     1.0000   1.0000   1.0000   1.0000   1.0000   1.0000   1.0000   1.0000
     1.0000   1.0000   1.0000   1.0000   1.0000   1.0000   1.0000   1.0000
     1.0000   1.0000   1.0000   1.0000   1.0000   1.0000   1.0000   1.0000
     1.0000   1.0000   1.0000   1.0000   1.0000   1.0000   1.0000   1.0000
     1.0000   1.0000   1.0000   1.0000   1.0000   1.0000   1.0000  -0.0000
    -0.0000  -0.0000  -0.0000  -0.0000  -0.0000  -0.0000  -0.0000  -0.0000
    -0.0000  -0.0000  -0.0000  -0.0000  -0.0000  -0.0000  -0.0000  -0.0000
    -0.0000  -0.0000  -0.0000  -0.0000  -0.0000  -0.0000

          k = 1.1504-0.2425-0.3347 (  9868 PWs)   bands (ev):

   -38.6093 -38.6090 -38.6087 -38.6080 -38.5986 -38.5986 -38.5984 -38.5981
   -38.5943 -38.5938 -38.5029 -38.4911 -38.4910 -38.4507 -38.4498 -14.3184
   -14.3154 -14.3022 -14.2999 -14.2986 -14.2952 -14.2915 -14.2899 -14.2859
   -14.2840  -3.9675  -3.6393  -3.4733  -1.8304  -1.5661   3.8884   4.7693
     5.2448   5.5788   5.6789   6.1338   6.9477   7.8507   7.9989  10.4405
    10.5173  11.5556  12.3227  12.5844  12.9696  13.4772  15.6695  15.9427
    16.6548  17.4802  17.9097  19.1183  19.2934  19.4801  20.1172  20.5132
    20.8549  21.1670  21.8318  22.1983  22.5302  23.0239

     occupation numbers 
     1.0000   1.0000   1.0000   1.0000   1.0000   1.0000   1.0000   1.0000
     1.0000   1.0000   1.0000   1.0000   1.0000   1.0000   1.0000   1.0000
     1.0000   1.0000   1.0000   1.0000   1.0000   1.0000   1.0000   1.0000
     1.0000   1.0000   1.0000   1.0000   1.0000   1.0000   1.0000   1.0000
     1.0000   1.0000   1.0000   1.0000   1.0000   1.0000   1.0000  -0.0000
    -0.0000  -0.0000  -0.0000  -0.0000  -0.0000  -0.0000  -0.0000  -0.0000
    -0.0000  -0.0000  -0.0000  -0.0000  -0.0000  -0.0000  -0.0000  -0.0000
    -0.0000  -0.0000  -0.0000  -0.0000  -0.0000  -0.0000

          k = 0.7790-0.4635-0.1673 (  9895 PWs)   bands (ev):

   -38.6105 -38.6094 -38.6093 -38.6087 -38.5988 -38.5987 -38.5983 -38.5980
   -38.5947 -38.5943 -38.5034 -38.4912 -38.4911 -38.4514 -38.4505 -14.3203
   -14.3172 -14.3026 -14.2986 -14.2960 -14.2938 -14.2910 -14.2900 -14.2888
   -14.2877  -4.5122  -3.9899  -3.5496  -1.4586  -1.0332   4.0578   5.3383
     5.7234   5.7394   6.3883   6.6286   7.1257   7.4500   7.7704  10.1491
    11.0375  11.3708  11.7106  12.1153  12.7251  13.0644  15.5176  16.2174
    16.9259  17.4384  17.4898  17.9568  18.9470  19.1711  19.2208  19.8855
    20.0246  20.3716  21.1932  22.6472  22.9911  23.0511

     occupation numbers 
     1.0000   1.0000   1.0000   1.0000   1.0000   1.0000   1.0000   1.0000
     1.0000   1.0000   1.0000   1.0000   1.0000   1.0000   1.0000   1.0000
     1.0000   1.0000   1.0000   1.0000   1.0000   1.0000   1.0000   1.0000
     1.0000   1.0000   1.0000   1.0000   1.0000   1.0000   1.0000   1.0000
     1.0000   1.0000   1.0000   1.0000   1.0000   1.0000   1.0000  -0.0000
    -0.0000  -0.0000  -0.0000  -0.0000  -0.0000  -0.0000  -0.0000  -0.0000
    -0.0000  -0.0000  -0.0000  -0.0000  -0.0000  -0.0000  -0.0000  -0.0000
    -0.0000  -0.0000  -0.0000  -0.0000  -0.0000  -0.0000

          k = 0.8148-0.4422-0.0007 (  9889 PWs)   bands (ev):

   -38.6102 -38.6095 -38.6091 -38.6086 -38.5988 -38.5987 -38.5983 -38.5980
   -38.5946 -38.5940 -38.5031 -38.4912 -38.4911 -38.4512 -38.4505 -14.3203
   -14.3172 -14.3026 -14.2986 -14.2960 -14.2938 -14.2910 -14.2900 -14.2888
   -14.2876  -4.4986  -4.0382  -3.5039  -1.5008  -1.0030   4.1702   5.2198
     5.5755   5.8008   6.2201   6.4743   7.3849   7.5952   8.1665   9.7854
    10.8117  11.0461  11.7520  12.3176  13.0377  13.1754  15.2732  15.9710
    17.4316  17.4635  17.7177  17.9966  18.5441  19.4749  19.5935  19.5963
    19.9977  20.2456  21.2101  22.1959  22.4332  22.7522

     occupation numbers 
     1.0000   1.0000   1.0000   1.0000   1.0000   1.0000   1.0000   1.0000
     1.0000   1.0000   1.0000   1.0000   1.0000   1.0000   1.0000   1.0000
     1.0000   1.0000   1.0000   1.0000   1.0000   1.0000   1.0000   1.0000
     1.0000   1.0000   1.0000   1.0000   1.0000   1.0000   1.0000   1.0000
     1.0000   1.0000   1.0000   1.0000   1.0000   1.0000   1.0000  -0.0000
    -0.0000  -0.0000  -0.0000  -0.0000  -0.0000  -0.0000  -0.0000  -0.0000
    -0.0000  -0.0000  -0.0000  -0.0000  -0.0000  -0.0000  -0.0000  -0.0000
    -0.0000  -0.0000  -0.0000  -0.0000  -0.0000  -0.0000

          k = 0.4434-0.6633 0.1666 (  9901 PWs)   bands (ev):

   -38.6102 -38.6099 -38.6093 -38.6089 -38.5990 -38.5986 -38.5983 -38.5979
   -38.5948 -38.5944 -38.5035 -38.4912 -38.4911 -38.4515 -38.4506 -14.3150
   -14.3128 -14.3008 -14.3005 -14.2985 -14.2983 -14.2930 -14.2918 -14.2898
   -14.2880  -4.6979  -4.2012  -3.5419  -1.2650  -0.8619   4.7482   5.0054
     5.5518   6.0767   6.1451   6.5176   7.5528   8.0569   8.0887  10.1827
    10.4327  10.9842  11.7255  12.4608  12.6230  14.0739  14.1140  15.9867
    16.5632  17.1568  17.4795  17.8729  18.3549  18.7167  18.8142  19.6583
    20.3039  20.5845  21.0501  21.8216  22.2050  22.3897

     occupation numbers 
     1.0000   1.0000   1.0000   1.0000   1.0000   1.0000   1.0000   1.0000
     1.0000   1.0000   1.0000   1.0000   1.0000   1.0000   1.0000   1.0000
     1.0000   1.0000   1.0000   1.0000   1.0000   1.0000   1.0000   1.0000
     1.0000   1.0000   1.0000   1.0000   1.0000   1.0000   1.0000   1.0000
     1.0000   1.0000   1.0000   1.0000   1.0000   1.0000   1.0000  -0.0000
    -0.0000  -0.0000  -0.0000  -0.0000  -0.0000  -0.0000  -0.0000  -0.0000
    -0.0000  -0.0000  -0.0000  -0.0000  -0.0000  -0.0000  -0.0000  -0.0000
    -0.0000  -0.0000  -0.0000  -0.0000  -0.0000  -0.0000

          k = 0.0719-0.8844 0.3339 (  9894 PWs)   bands (ev):

   -38.6102 -38.6095 -38.6093 -38.6087 -38.5990 -38.5988 -38.5983 -38.5980
   -38.5949 -38.5941 -38.5033 -38.4913 -38.4911 -38.4513 -38.4505 -14.3203
   -14.3172 -14.3026 -14.2986 -14.2960 -14.2937 -14.2910 -14.2899 -14.2888
   -14.2877  -4.4883  -4.0513  -3.5117  -1.4182  -1.0760   4.0415   5.2552
     5.6832   5.9082   6.5107   6.6708   7.1823   7.3369   7.5143  10.3221
    11.1557  11.4923  11.5745  12.0353  12.6329  13.0982  15.4148  16.4855
    16.8599  17.0687  17.4882  17.8195  18.5782  19.0416  19.5194  20.2117
    20.3986  20.8646  21.7672  22.0576  22.8845  23.1418

     occupation numbers 
     1.0000   1.0000   1.0000   1.0000   1.0000   1.0000   1.0000   1.0000
     1.0000   1.0000   1.0000   1.0000   1.0000   1.0000   1.0000   1.0000
     1.0000   1.0000   1.0000   1.0000   1.0000   1.0000   1.0000   1.0000
     1.0000   1.0000   1.0000   1.0000   1.0000   1.0000   1.0000   1.0000
     1.0000   1.0000   1.0000   1.0000   1.0000   1.0000   1.0000  -0.0000
    -0.0000  -0.0000  -0.0000  -0.0000  -0.0000  -0.0000  -0.0000  -0.0000
    -0.0000  -0.0000  -0.0000  -0.0000  -0.0000  -0.0000  -0.0000  -0.0000
    -0.0000  -0.0000  -0.0000  -0.0000  -0.0000  -0.0000

          k = 1.9292 0.2211-0.5028 (  9871 PWs)   bands (ev):

   -38.6093 -38.6091 -38.6085 -38.6079 -38.5988 -38.5986 -38.5984 -38.5979
   -38.5945 -38.5941 -38.5031 -38.4913 -38.4909 -38.4507 -38.4497 -14.3184
   -14.3154 -14.3022 -14.3000 -14.2986 -14.2952 -14.2915 -14.2899 -14.2858
   -14.2840  -3.9460  -3.6876  -3.4497  -1.8113  -1.5821   4.0008   4.8432
     5.0985   5.3577   5.5898   6.0562   7.3355   7.9758   8.1490  10.2675
    10.3516  11.1306  12.3957  12.7464  13.2449  13.4490  15.6353  16.1491
    16.7252  17.1244  17.7493  19.1942  19.2534  19.6917  20.4383  20.5448
    20.9359  21.1483  21.5575  22.2125  22.4375  23.0011

     occupation numbers 
     1.0000   1.0000   1.0000   1.0000   1.0000   1.0000   1.0000   1.0000
     1.0000   1.0000   1.0000   1.0000   1.0000   1.0000   1.0000   1.0000
     1.0000   1.0000   1.0000   1.0000   1.0000   1.0000   1.0000   1.0000
     1.0000   1.0000   1.0000   1.0000   1.0000   1.0000   1.0000   1.0000
     1.0000   1.0000   1.0000   1.0000   1.0000   1.0000   1.0000  -0.0000
    -0.0000  -0.0000  -0.0000  -0.0000  -0.0000  -0.0000  -0.0000  -0.0000
    -0.0000  -0.0000  -0.0000  -0.0000  -0.0000  -0.0000  -0.0000  -0.0000
    -0.0000  -0.0000  -0.0000  -0.0000  -0.0000  -0.0000

          k = 1.5578-0.0000-0.3354 (  9886 PWs)   bands (ev):

   -38.6096 -38.6092 -38.6091 -38.6088 -38.5989 -38.5986 -38.5983 -38.5979
   -38.5944 -38.5940 -38.5030 -38.4912 -38.4910 -38.4508 -38.4506 -14.3109
   -14.3108 -14.3067 -14.2986 -14.2952 -14.2950 -14.2949 -14.2937 -14.2865
   -14.2863  -3.4706  -3.4680  -3.4615  -2.0233  -2.0053   4.0446   4.4959
     4.6732   4.9735   5.9345   5.9768   7.0410   7.5769   8.0687  10.4321
    11.2684  11.2974  12.6151  12.7931  13.1145  15.0592  15.7550  15.7610
    16.2195  16.2794  18.0495  18.0996  19.5409  19.6248  20.0652  20.4247
    20.8289  21.4159  22.1933  22.6409  22.9209  23.4907

     occupation numbers 
     1.0000   1.0000   1.0000   1.0000   1.0000   1.0000   1.0000   1.0000
     1.0000   1.0000   1.0000   1.0000   1.0000   1.0000   1.0000   1.0000
     1.0000   1.0000   1.0000   1.0000   1.0000   1.0000   1.0000   1.0000
     1.0000   1.0000   1.0000   1.0000   1.0000   1.0000   1.0000   1.0000
     1.0000   1.0000   1.0000   1.0000   1.0000   1.0000   1.0000  -0.0000
    -0.0000  -0.0000  -0.0000  -0.0000  -0.0000  -0.0000  -0.0000  -0.0000
    -0.0000  -0.0000  -0.0000  -0.0000  -0.0000  -0.0000  -0.0000  -0.0000
    -0.0000  -0.0000  -0.0000  -0.0000  -0.0000  -0.0000

          k = 1.1863-0.2211-0.1681 (  9870 PWs)   bands (ev):

   -38.6093 -38.6092 -38.6086 -38.6081 -38.5991 -38.5987 -38.5982 -38.5980
   -38.5941 -38.5938 -38.5028 -38.4914 -38.4909 -38.4508 -38.4499 -14.3184
   -14.3154 -14.3022 -14.2999 -14.2986 -14.2952 -14.2915 -14.2899 -14.2859
   -14.2839  -3.9625  -3.6653  -3.4499  -1.8349  -1.5636   3.8715   4.6697
     5.1527   5.6304   6.0335   6.3039   6.8772   7.5081   7.7495  10.7344
    10.8489  11.6369  12.1090  12.3961  12.8866  13.6450  15.2337  15.6487
    17.1597  17.8102  18.4559  18.8209  19.1920  19.4694  20.1729  20.4380
    20.6993  21.1576  21.5289  21.8568  22.1469  22.5378

     occupation numbers 
     1.0000   1.0000   1.0000   1.0000   1.0000   1.0000   1.0000   1.0000
     1.0000   1.0000   1.0000   1.0000   1.0000   1.0000   1.0000   1.0000
     1.0000   1.0000   1.0000   1.0000   1.0000   1.0000   1.0000   1.0000
     1.0000   1.0000   1.0000   1.0000   1.0000   1.0000   1.0000   1.0000
     1.0000   1.0000   1.0000   1.0000   1.0000   1.0000   1.0000  -0.0000
    -0.0000  -0.0000  -0.0000  -0.0000  -0.0000  -0.0000  -0.0000  -0.0000
    -0.0000  -0.0000  -0.0000  -0.0000  -0.0000  -0.0000  -0.0000  -0.0000
    -0.0000  -0.0000  -0.0000  -0.0000  -0.0000  -0.0000

          k = 0.8148 0.0214-0.0011 (  9901 PWs)   bands (ev):

   -38.6102 -38.6099 -38.6093 -38.6089 -38.5990 -38.5986 -38.5983 -38.5979
   -38.5948 -38.5944 -38.5035 -38.4912 -38.4911 -38.4515 -38.4506 -14.3150
   -14.3128 -14.3008 -14.3005 -14.2985 -14.2983 -14.2930 -14.2918 -14.2898
   -14.2880  -4.6979  -4.2012  -3.5419  -1.2650  -0.8619   4.7482   5.0054
     5.5518   6.0767   6.1451   6.5176   7.5528   8.0569   8.0887  10.1827
    10.4327  10.9842  11.7255  12.4608  12.6230  14.0739  14.1140  15.9867
    16.5632  17.1569  17.4795  17.8729  18.3548  18.7167  18.8142  19.6583
    20.3039  20.5845  21.0501  21.8216  22.2050  22.3897

     occupation numbers 
     1.0000   1.0000   1.0000   1.0000   1.0000   1.0000   1.0000   1.0000
     1.0000   1.0000   1.0000   1.0000   1.0000   1.0000   1.0000   1.0000
     1.0000   1.0000   1.0000   1.0000   1.0000   1.0000   1.0000   1.0000
     1.0000   1.0000   1.0000   1.0000   1.0000   1.0000   1.0000   1.0000
     1.0000   1.0000   1.0000   1.0000   1.0000   1.0000   1.0000  -0.0000
    -0.0000  -0.0000  -0.0000  -0.0000  -0.0000  -0.0000  -0.0000  -0.0000
    -0.0000  -0.0000  -0.0000  -0.0000  -0.0000  -0.0000  -0.0000  -0.0000
    -0.0000  -0.0000  -0.0000  -0.0000  -0.0000  -0.0000

          k = 0.4433-0.1997 0.1662 (  9930 PWs)   bands (ev):

   -38.6103 -38.6103 -38.6099 -38.6095 -38.5991 -38.5989 -38.5983 -38.5980
   -38.5951 -38.5948 -38.5038 -38.4914 -38.4912 -38.4516 -38.4514 -14.3130
   -14.3113 -14.3047 -14.3035 -14.2989 -14.2967 -14.2946 -14.2922 -14.2920
   -14.2892  -5.1252  -4.6255  -3.6691  -1.0531  -0.2214   5.4476   5.8408
     6.2906   6.4224   6.7714   7.4243   7.6406   7.6632   8.1557   9.9081
    10.7080  10.7924  10.8769  11.5074  11.9294  14.0357  15.1198  15.8044
    16.2684  16.2736  16.7999  17.0292  17.7833  18.5849  18.8065  18.9687
    19.2938  19.6549  19.6749  20.3684  20.6268  21.4899

     occupation numbers 
     1.0000   1.0000   1.0000   1.0000   1.0000   1.0000   1.0000   1.0000
     1.0000   1.0000   1.0000   1.0000   1.0000   1.0000   1.0000   1.0000
     1.0000   1.0000   1.0000   1.0000   1.0000   1.0000   1.0000   1.0000
     1.0000   1.0000   1.0000   1.0000   1.0000   1.0000   1.0000   1.0000
     1.0000   1.0000   1.0000   1.0000   1.0000   1.0000   1.0000  -0.0000
    -0.0000  -0.0000  -0.0000  -0.0000  -0.0000  -0.0000  -0.0000  -0.0000
    -0.0000  -0.0000  -0.0000  -0.0000  -0.0000  -0.0000  -0.0000  -0.0000
    -0.0000  -0.0000  -0.0000  -0.0000  -0.0000  -0.0000

          k = 0.0718-0.4208 0.3336 (  9919 PWs)   bands (ev):

   -38.6104 -38.6102 -38.6099 -38.6094 -38.5988 -38.5986 -38.5982 -38.5979
   -38.5951 -38.5945 -38.5037 -38.4912 -38.4910 -38.4516 -38.4514 -14.3130
   -14.3113 -14.3047 -14.3035 -14.2989 -14.2967 -14.2945 -14.2922 -14.2920
   -14.2892  -5.1075  -4.6635  -3.6400  -1.0644  -0.2255   5.3833   6.1933
     6.2780   6.3528   6.8021   6.9040   7.5822   7.9891   8.2543   9.7557
    10.4750  10.5327  11.2042  11.7470  12.0809  14.2954  14.8197  15.8241
    15.9552  16.3637  16.9413  17.6187  17.6960  17.8068  17.9463  18.8014
    19.2058  19.4387  20.4332  20.6386  21.3515  21.7828

     occupation numbers 
     1.0000   1.0000   1.0000   1.0000   1.0000   1.0000   1.0000   1.0000
     1.0000   1.0000   1.0000   1.0000   1.0000   1.0000   1.0000   1.0000
     1.0000   1.0000   1.0000   1.0000   1.0000   1.0000   1.0000   1.0000
     1.0000   1.0000   1.0000   1.0000   1.0000   1.0000   1.0000   1.0000
     1.0000   1.0000   1.0000   1.0000   1.0000   1.0000   1.0000  -0.0000
    -0.0000  -0.0000  -0.0000  -0.0000  -0.0000  -0.0000  -0.0000  -0.0000
    -0.0000  -0.0000  -0.0000  -0.0000  -0.0000  -0.0000  -0.0000  -0.0000
    -0.0000  -0.0000  -0.0000  -0.0000  -0.0000  -0.0000

          k = 1.9292 0.6846-0.5032 (  9898 PWs)   bands (ev):

   -38.6099 -38.6097 -38.6094 -38.6089 -38.5989 -38.5987 -38.5982 -38.5979
   -38.5950 -38.5944 -38.5035 -38.4912 -38.4910 -38.4513 -38.4507 -14.3150
   -14.3128 -14.3008 -14.3005 -14.2985 -14.2983 -14.2930 -14.2918 -14.2898
   -14.2880  -4.6449  -4.3164  -3.4592  -1.3232  -0.8239   4.6800   4.9457
     5.6001   6.0607   6.3398   6.7767   7.3485   7.8133   7.9360  10.4583
    10.6526  11.1876  11.5194  12.2446  12.4838  14.2312  14.3063  15.3529
    15.9827  17.4203  17.7177  18.2613  18.5499  19.0584  19.5760  19.8386
    19.9995  20.2292  20.7194  21.4316  22.1092  22.2521

     occupation numbers 
     1.0000   1.0000   1.0000   1.0000   1.0000   1.0000   1.0000   1.0000
     1.0000   1.0000   1.0000   1.0000   1.0000   1.0000   1.0000   1.0000
     1.0000   1.0000   1.0000   1.0000   1.0000   1.0000   1.0000   1.0000
     1.0000   1.0000   1.0000   1.0000   1.0000   1.0000   1.0000   1.0000
     1.0000   1.0000   1.0000   1.0000   1.0000   1.0000   1.0000  -0.0000
    -0.0000  -0.0000  -0.0000  -0.0000  -0.0000  -0.0000  -0.0000  -0.0000
    -0.0000  -0.0000  -0.0000  -0.0000  -0.0000  -0.0000  -0.0000  -0.0000
    -0.0000  -0.0000  -0.0000  -0.0000  -0.0000  -0.0000

          k = 1.5577 0.4635-0.3358 (  9895 PWs)   bands (ev):

   -38.6097 -38.6093 -38.6089 -38.6085 -38.5992 -38.5988 -38.5986 -38.5983
   -38.5947 -38.5943 -38.5033 -38.4914 -38.4914 -38.4510 -38.4502 -14.3184
   -14.3154 -14.3022 -14.2999 -14.2986 -14.2952 -14.2915 -14.2899 -14.2858
   -14.2840  -3.8907  -3.7876  -3.4036  -1.8004  -1.5941   4.0957   4.6823
     4.9500   5.1083   6.0300   6.5377   7.3140   7.4379   7.9560  10.3746
    10.9191  11.1716  12.0228  12.4147  13.4543  13.7708  14.8544  15.6920
    17.3461  17.8233  18.3474  19.2070  19.3346  19.6865  20.0245  20.5663
    20.6608  21.0986  21.2402  21.3864  22.1229  22.6991

     occupation numbers 
     1.0000   1.0000   1.0000   1.0000   1.0000   1.0000   1.0000   1.0000
     1.0000   1.0000   1.0000   1.0000   1.0000   1.0000   1.0000   1.0000
     1.0000   1.0000   1.0000   1.0000   1.0000   1.0000   1.0000   1.0000
     1.0000   1.0000   1.0000   1.0000   1.0000   1.0000   1.0000   1.0000
     1.0000   1.0000   1.0000   1.0000   1.0000   1.0000   1.0000  -0.0000
    -0.0000  -0.0000  -0.0000  -0.0000  -0.0000  -0.0000  -0.0000  -0.0000
    -0.0000  -0.0000  -0.0000  -0.0000  -0.0000  -0.0000  -0.0000  -0.0000
    -0.0000  -0.0000  -0.0000  -0.0000  -0.0000  -0.0000

          k = 1.1862 0.2424-0.1685 (  9868 PWs)   bands (ev):

   -38.6093 -38.6090 -38.6087 -38.6080 -38.5986 -38.5986 -38.5984 -38.5981
   -38.5943 -38.5938 -38.5029 -38.4911 -38.4910 -38.4507 -38.4498 -14.3184
   -14.3154 -14.3022 -14.2999 -14.2986 -14.2952 -14.2915 -14.2899 -14.2859
   -14.2840  -3.9675  -3.6393  -3.4733  -1.8304  -1.5661   3.8884   4.7693
     5.2448   5.5788   5.6789   6.1338   6.9477   7.8507   7.9989  10.4405
    10.5173  11.5556  12.3227  12.5844  12.9696  13.4772  15.6695  15.9427
    16.6548  17.4802  17.9097  19.1183  19.2934  19.4801  20.1172  20.5132
    20.8549  21.1670  21.8318  22.1983  22.5301  23.0237

     occupation numbers 
     1.0000   1.0000   1.0000   1.0000   1.0000   1.0000   1.0000   1.0000
     1.0000   1.0000   1.0000   1.0000   1.0000   1.0000   1.0000   1.0000
     1.0000   1.0000   1.0000   1.0000   1.0000   1.0000   1.0000   1.0000
     1.0000   1.0000   1.0000   1.0000   1.0000   1.0000   1.0000   1.0000
     1.0000   1.0000   1.0000   1.0000   1.0000   1.0000   1.0000  -0.0000
    -0.0000  -0.0000  -0.0000  -0.0000  -0.0000  -0.0000  -0.0000  -0.0000
    -0.0000  -0.0000  -0.0000  -0.0000  -0.0000  -0.0000  -0.0000  -0.0000
    -0.0000  -0.0000  -0.0000  -0.0000  -0.0000  -0.0000

          k = 0.8147 0.4849-0.0015 (  9894 PWs)   bands (ev):

   -38.6102 -38.6095 -38.6093 -38.6087 -38.5990 -38.5988 -38.5983 -38.5980
   -38.5949 -38.5941 -38.5033 -38.4913 -38.4911 -38.4513 -38.4505 -14.3203
   -14.3172 -14.3026 -14.2986 -14.2960 -14.2937 -14.2910 -14.2899 -14.2888
   -14.2877  -4.4883  -4.0513  -3.5117  -1.4182  -1.0760   4.0415   5.2552
     5.6832   5.9082   6.5107   6.6708   7.1823   7.3369   7.5143  10.3221
    11.1557  11.4923  11.5745  12.0353  12.6329  13.0982  15.4148  16.4855
    16.8599  17.0687  17.4882  17.8195  18.5782  19.0416  19.5194  20.2117
    20.3986  20.8646  21.7672  22.0576  22.8845  23.1418

     occupation numbers 
     1.0000   1.0000   1.0000   1.0000   1.0000   1.0000   1.0000   1.0000
     1.0000   1.0000   1.0000   1.0000   1.0000   1.0000   1.0000   1.0000
     1.0000   1.0000   1.0000   1.0000   1.0000   1.0000   1.0000   1.0000
     1.0000   1.0000   1.0000   1.0000   1.0000   1.0000   1.0000   1.0000
     1.0000   1.0000   1.0000   1.0000   1.0000   1.0000   1.0000  -0.0000
    -0.0000  -0.0000  -0.0000  -0.0000  -0.0000  -0.0000  -0.0000  -0.0000
    -0.0000  -0.0000  -0.0000  -0.0000  -0.0000  -0.0000  -0.0000  -0.0000
    -0.0000  -0.0000  -0.0000  -0.0000  -0.0000  -0.0000

          k = 0.4432 0.2638 0.1659 (  9919 PWs)   bands (ev):

   -38.6104 -38.6102 -38.6099 -38.6094 -38.5988 -38.5986 -38.5982 -38.5979
   -38.5951 -38.5945 -38.5037 -38.4912 -38.4910 -38.4516 -38.4514 -14.3130
   -14.3113 -14.3047 -14.3035 -14.2989 -14.2967 -14.2945 -14.2922 -14.2920
   -14.2892  -5.1075  -4.6635  -3.6400  -1.0644  -0.2255   5.3833   6.1933
     6.2780   6.3528   6.8021   6.9040   7.5822   7.9891   8.2543   9.7557
    10.4750  10.5327  11.2042  11.7470  12.0809  14.2954  14.8197  15.8241
    15.9552  16.3637  16.9413  17.6187  17.6960  17.8068  17.9463  18.8014
    19.2058  19.4387  20.4332  20.6386  21.3514  21.7828

     occupation numbers 
     1.0000   1.0000   1.0000   1.0000   1.0000   1.0000   1.0000   1.0000
     1.0000   1.0000   1.0000   1.0000   1.0000   1.0000   1.0000   1.0000
     1.0000   1.0000   1.0000   1.0000   1.0000   1.0000   1.0000   1.0000
     1.0000   1.0000   1.0000   1.0000   1.0000   1.0000   1.0000   1.0000
     1.0000   1.0000   1.0000   1.0000   1.0000   1.0000   1.0000  -0.0000
    -0.0000  -0.0000  -0.0000  -0.0000  -0.0000  -0.0000  -0.0000  -0.0000
    -0.0000  -0.0000  -0.0000  -0.0000  -0.0000  -0.0000  -0.0000  -0.0000
    -0.0000  -0.0000  -0.0000  -0.0000  -0.0000  -0.0000

          k = 0.0717 0.0427 0.3332 (  9910 PWs)   bands (ev):

   -38.6100 -38.6100 -38.6092 -38.6092 -38.5991 -38.5991 -38.5982 -38.5982
   -38.5945 -38.5943 -38.5032 -38.4914 -38.4914 -38.4511 -38.4511 -14.3104
   -14.3104 -14.3092 -14.3092 -14.3019 -14.2999 -14.2911 -14.2911 -14.2890
   -14.2890  -5.3179  -4.9234  -3.7043  -1.0526   0.2012   6.3097   6.9045
     6.9045   7.1567   7.1772   7.1772   7.5127   7.5128   8.3583   9.2887
    10.3411  10.3411  10.7855  11.2085  11.2085  14.6761  15.5311  15.5636
    15.5636  16.4726  16.9516  17.2492  17.2492  17.5922  18.0331  18.0331
    18.7433  18.7433  18.8894  19.8119  19.8119  20.7674

     occupation numbers 
     1.0000   1.0000   1.0000   1.0000   1.0000   1.0000   1.0000   1.0000
     1.0000   1.0000   1.0000   1.0000   1.0000   1.0000   1.0000   1.0000
     1.0000   1.0000   1.0000   1.0000   1.0000   1.0000   1.0000   1.0000
     1.0000   1.0000   1.0000   1.0000   1.0000   1.0000   1.0000   1.0000
     1.0000   1.0000   1.0000   1.0000   1.0000   1.0000   1.0000  -0.0000
    -0.0000  -0.0000  -0.0000  -0.0000  -0.0000  -0.0000  -0.0000  -0.0000
    -0.0000  -0.0000  -0.0000  -0.0000  -0.0000  -0.0000  -0.0000  -0.0000
    -0.0000  -0.0000  -0.0000  -0.0000  -0.0000  -0.0000

          k = 1.9291 1.1482-0.5035 (  9928 PWs)   bands (ev):

   -38.6105 -38.6101 -38.6097 -38.6096 -38.5990 -38.5988 -38.5984 -38.5981
   -38.5953 -38.5948 -38.5039 -38.4913 -38.4912 -38.4516 -38.4514 -14.3130
   -14.3113 -14.3047 -14.3035 -14.2988 -14.2968 -14.2946 -14.2922 -14.2920
   -14.2892  -5.0630  -4.7476  -3.5740  -1.1570  -0.1518   5.3545   6.0633
     6.3163   6.4699   6.6852   7.1211   7.6305   7.7044   8.3985   9.6792
    10.5610  10.7768  11.1372  11.6515  11.8840  14.1832  15.2707  15.5457
    15.9971  16.2165  16.9306  16.9441  17.7187  18.4668  18.5865  18.8689
    19.4558  19.7524  19.7534  20.3008  21.3160  21.7350

     occupation numbers 
     1.0000   1.0000   1.0000   1.0000   1.0000   1.0000   1.0000   1.0000
     1.0000   1.0000   1.0000   1.0000   1.0000   1.0000   1.0000   1.0000
     1.0000   1.0000   1.0000   1.0000   1.0000   1.0000   1.0000   1.0000
     1.0000   1.0000   1.0000   1.0000   1.0000   1.0000   1.0000   1.0000
     1.0000   1.0000   1.0000   1.0000   1.0000   1.0000   1.0000  -0.0000
    -0.0000  -0.0000  -0.0000  -0.0000  -0.0000  -0.0000  -0.0000  -0.0000
    -0.0000  -0.0000  -0.0000  -0.0000  -0.0000  -0.0000  -0.0000  -0.0000
    -0.0000  -0.0000  -0.0000  -0.0000  -0.0000  -0.0000

          k = 1.5576 0.9271-0.3362 (  9893 PWs)   bands (ev):

   -38.6101 -38.6093 -38.6091 -38.6086 -38.5989 -38.5989 -38.5984 -38.5983
   -38.5946 -38.5942 -38.5033 -38.4913 -38.4913 -38.4511 -38.4505 -14.3203
   -14.3173 -14.3026 -14.2986 -14.2960 -14.2938 -14.2910 -14.2899 -14.2888
   -14.2877  -4.4055  -4.2123  -3.4107  -1.4767  -1.0443   4.2887   4.8975
     5.7594   5.7610   6.2923   6.3980   7.5511   7.6065   8.1697   9.7738
    10.7904  10.8101  11.7319  12.3977  13.1764  13.3198  14.9219  16.1684
    16.8468  17.4434  17.7787  17.8055  18.7272  19.0228  19.9320  20.4502
    20.7107  21.1546  21.3612  21.4859  21.9648  22.7435

     occupation numbers 
     1.0000   1.0000   1.0000   1.0000   1.0000   1.0000   1.0000   1.0000
     1.0000   1.0000   1.0000   1.0000   1.0000   1.0000   1.0000   1.0000
     1.0000   1.0000   1.0000   1.0000   1.0000   1.0000   1.0000   1.0000
     1.0000   1.0000   1.0000   1.0000   1.0000   1.0000   1.0000   1.0000
     1.0000   1.0000   1.0000   1.0000   1.0000   1.0000   1.0000  -0.0000
    -0.0000  -0.0000  -0.0000  -0.0000  -0.0000  -0.0000  -0.0000  -0.0000
    -0.0000  -0.0000  -0.0000  -0.0000  -0.0000  -0.0000  -0.0000  -0.0000
    -0.0000  -0.0000  -0.0000  -0.0000  -0.0000  -0.0000

          k = 1.1861 0.7060-0.1688 (  9889 PWs)   bands (ev):

   -38.6103 -38.6093 -38.6087 -38.6078 -38.5990 -38.5990 -38.5987 -38.5983
   -38.5945 -38.5939 -38.5031 -38.4915 -38.4913 -38.4512 -38.4497 -14.3246
   -14.3208 -14.3053 -14.3010 -14.2964 -14.2921 -14.2860 -14.2859 -14.2852
   -14.2837  -3.7725  -3.6712  -3.6461  -1.9430  -1.4730   3.7795   4.8758
     5.1616   5.4614   6.2173   6.4980   7.3363   7.3910   7.5906  10.0826
    10.8402  11.0729  11.7103  12.3869  12.8436  13.6307  15.2433  16.7243
    17.8440  18.2397  19.0919  19.1761  19.4656  19.6030  20.4551  20.6618
    20.7048  21.1609  21.2796  21.6784  21.7678  22.5021

     occupation numbers 
     1.0000   1.0000   1.0000   1.0000   1.0000   1.0000   1.0000   1.0000
     1.0000   1.0000   1.0000   1.0000   1.0000   1.0000   1.0000   1.0000
     1.0000   1.0000   1.0000   1.0000   1.0000   1.0000   1.0000   1.0000
     1.0000   1.0000   1.0000   1.0000   1.0000   1.0000   1.0000   1.0000
     1.0000   1.0000   1.0000   1.0000   1.0000   1.0000   1.0000  -0.0000
    -0.0000  -0.0000  -0.0000  -0.0000  -0.0000  -0.0000  -0.0000  -0.0000
    -0.0000  -0.0000  -0.0000  -0.0000  -0.0000  -0.0000  -0.0000  -0.0000
    -0.0000  -0.0000  -0.0000  -0.0000  -0.0000  -0.0000

          k = 0.8151-1.8328 0.0004 (  9871 PWs)   bands (ev):

   -38.6093 -38.6091 -38.6085 -38.6079 -38.5988 -38.5986 -38.5984 -38.5979
   -38.5945 -38.5941 -38.5031 -38.4913 -38.4909 -38.4507 -38.4497 -14.3184
   -14.3154 -14.3022 -14.3000 -14.2986 -14.2952 -14.2915 -14.2899 -14.2858
   -14.2840  -3.9460  -3.6876  -3.4497  -1.8113  -1.5821   4.0008   4.8432
     5.0985   5.3577   5.5898   6.0562   7.3355   7.9758   8.1490  10.2675
    10.3516  11.1306  12.3957  12.7464  13.2449  13.4490  15.6353  16.1491
    16.7252  17.1244  17.7493  19.1942  19.2534  19.6917  20.4383  20.5448
    20.9359  21.1483  21.5575  22.2124  22.4375  22.9986

     occupation numbers 
     1.0000   1.0000   1.0000   1.0000   1.0000   1.0000   1.0000   1.0000
     1.0000   1.0000   1.0000   1.0000   1.0000   1.0000   1.0000   1.0000
     1.0000   1.0000   1.0000   1.0000   1.0000   1.0000   1.0000   1.0000
     1.0000   1.0000   1.0000   1.0000   1.0000   1.0000   1.0000   1.0000
     1.0000   1.0000   1.0000   1.0000   1.0000   1.0000   1.0000  -0.0000
    -0.0000  -0.0000  -0.0000  -0.0000  -0.0000  -0.0000  -0.0000  -0.0000
    -0.0000  -0.0000  -0.0000  -0.0000  -0.0000  -0.0000  -0.0000  -0.0000
    -0.0000  -0.0000  -0.0000  -0.0000  -0.0000  -0.0000

          k = 0.4436-2.0539 0.1677 (  9898 PWs)   bands (ev):

   -38.6099 -38.6097 -38.6094 -38.6089 -38.5989 -38.5987 -38.5982 -38.5979
   -38.5950 -38.5944 -38.5035 -38.4912 -38.4910 -38.4513 -38.4507 -14.3150
   -14.3128 -14.3008 -14.3005 -14.2985 -14.2983 -14.2930 -14.2918 -14.2898
   -14.2880  -4.6449  -4.3164  -3.4592  -1.3232  -0.8239   4.6800   4.9457
     5.6001   6.0607   6.3398   6.7767   7.3485   7.8133   7.9360  10.4583
    10.6526  11.1876  11.5194  12.2446  12.4838  14.2312  14.3063  15.3529
    15.9827  17.4203  17.7177  18.2613  18.5499  19.0584  19.5760  19.8386
    19.9995  20.2292  20.7194  21.4316  22.1093  22.2518

     occupation numbers 
     1.0000   1.0000   1.0000   1.0000   1.0000   1.0000   1.0000   1.0000
     1.0000   1.0000   1.0000   1.0000   1.0000   1.0000   1.0000   1.0000
     1.0000   1.0000   1.0000   1.0000   1.0000   1.0000   1.0000   1.0000
     1.0000   1.0000   1.0000   1.0000   1.0000   1.0000   1.0000   1.0000
     1.0000   1.0000   1.0000   1.0000   1.0000   1.0000   1.0000  -0.0000
    -0.0000  -0.0000  -0.0000  -0.0000  -0.0000  -0.0000  -0.0000  -0.0000
    -0.0000  -0.0000  -0.0000  -0.0000  -0.0000  -0.0000  -0.0000  -0.0000
    -0.0000  -0.0000  -0.0000  -0.0000  -0.0000  -0.0000

          k = 0.0722-2.2750 0.3351 (  9928 PWs)   bands (ev):

   -38.6105 -38.6101 -38.6097 -38.6096 -38.5990 -38.5988 -38.5984 -38.5981
   -38.5953 -38.5948 -38.5039 -38.4913 -38.4912 -38.4516 -38.4514 -14.3130
   -14.3113 -14.3047 -14.3035 -14.2988 -14.2968 -14.2946 -14.2922 -14.2920
   -14.2892  -5.0630  -4.7476  -3.5740  -1.1570  -0.1518   5.3545   6.0633
     6.3163   6.4699   6.6852   7.1211   7.6305   7.7044   8.3985   9.6792
    10.5610  10.7768  11.1372  11.6515  11.8840  14.1832  15.2707  15.5457
    15.9971  16.2165  16.9306  16.9441  17.7187  18.4668  18.5865  18.8689
    19.4558  19.7524  19.7534  20.3008  21.3160  21.7350

     occupation numbers 
     1.0000   1.0000   1.0000   1.0000   1.0000   1.0000   1.0000   1.0000
     1.0000   1.0000   1.0000   1.0000   1.0000   1.0000   1.0000   1.0000
     1.0000   1.0000   1.0000   1.0000   1.0000   1.0000   1.0000   1.0000
     1.0000   1.0000   1.0000   1.0000   1.0000   1.0000   1.0000   1.0000
     1.0000   1.0000   1.0000   1.0000   1.0000   1.0000   1.0000  -0.0000
    -0.0000  -0.0000  -0.0000  -0.0000  -0.0000  -0.0000  -0.0000  -0.0000
    -0.0000  -0.0000  -0.0000  -0.0000  -0.0000  -0.0000  -0.0000  -0.0000
    -0.0000  -0.0000  -0.0000  -0.0000  -0.0000  -0.0000

          k = 1.9295-1.1695-0.5017 (  9923 PWs)   bands (ev):

   -38.6105 -38.6101 -38.6099 -38.6094 -38.5989 -38.5988 -38.5983 -38.5977
   -38.5954 -38.5949 -38.5040 -38.4912 -38.4909 -38.4515 -38.4515 -14.3130
   -14.3113 -14.3047 -14.3035 -14.2988 -14.2967 -14.2946 -14.2922 -14.2920
   -14.2892  -5.0483  -4.7708  -3.5608  -1.1628  -0.1541   5.3355   6.2473
     6.3624   6.4142   6.7501   6.7664   7.6814   7.7845   8.4478   9.6055
    10.4873  10.6434  11.2625  11.7574  11.9667  14.3244  15.0129  15.5911
    16.0475  16.3385  16.5460  17.4069  17.6287  17.9954  18.2623  19.0315
    19.2667  19.6495  20.0568  20.9896  21.1383  21.6779

     occupation numbers 
     1.0000   1.0000   1.0000   1.0000   1.0000   1.0000   1.0000   1.0000
     1.0000   1.0000   1.0000   1.0000   1.0000   1.0000   1.0000   1.0000
     1.0000   1.0000   1.0000   1.0000   1.0000   1.0000   1.0000   1.0000
     1.0000   1.0000   1.0000   1.0000   1.0000   1.0000   1.0000   1.0000
     1.0000   1.0000   1.0000   1.0000   1.0000   1.0000   1.0003  -0.0000
    -0.0000  -0.0000  -0.0000  -0.0000  -0.0000  -0.0000  -0.0000  -0.0000
    -0.0000  -0.0000  -0.0000  -0.0000  -0.0000  -0.0000  -0.0000  -0.0000
    -0.0000  -0.0000  -0.0000  -0.0000  -0.0000  -0.0000

          k = 1.5580-1.3906-0.3343 (  9918 PWs)   bands (ev):

   -38.6102 -38.6099 -38.6096 -38.6094 -38.5991 -38.5988 -38.5987 -38.5982
   -38.5949 -38.5947 -38.5036 -38.4916 -38.4911 -38.4516 -38.4510 -14.3150
   -14.3128 -14.3008 -14.3005 -14.2985 -14.2983 -14.2930 -14.2918 -14.2897
   -14.2880  -4.6038  -4.3836  -3.4226  -1.3499  -0.8076   4.6591   4.8976
     5.6521   6.1128   6.3111   7.1164   7.1617   7.6608   7.8124  10.5810
    10.9642  11.1983  11.3083  12.2110  12.3497  14.3482  14.4825  15.0064
    15.7305  17.5877  17.7130  18.4436  18.7754  19.1964  19.5842  20.0645
    20.1102  20.1302  20.6286  21.1972  21.8139  22.0704

     occupation numbers 
     1.0000   1.0000   1.0000   1.0000   1.0000   1.0000   1.0000   1.0000
     1.0000   1.0000   1.0000   1.0000   1.0000   1.0000   1.0000   1.0000
     1.0000   1.0000   1.0000   1.0000   1.0000   1.0000   1.0000   1.0000
     1.0000   1.0000   1.0000   1.0000   1.0000   1.0000   1.0000   1.0000
     1.0000   1.0000   1.0000   1.0000   1.0000   1.0000   1.0000  -0.0000
    -0.0000  -0.0000  -0.0000  -0.0000  -0.0000  -0.0000  -0.0000  -0.0000
    -0.0000  -0.0000  -0.0000  -0.0000  -0.0000  -0.0000  -0.0000  -0.0000
    -0.0000  -0.0000  -0.0000  -0.0000  -0.0000  -0.0000

          k = 1.1866-1.6117-0.1670 (  9872 PWs)   bands (ev):

   -38.6094 -38.6090 -38.6085 -38.6081 -38.5988 -38.5986 -38.5984 -38.5980
   -38.5944 -38.5939 -38.5030 -38.4913 -38.4910 -38.4507 -38.4498 -14.3183
   -14.3154 -14.3022 -14.3000 -14.2986 -14.2952 -14.2915 -14.2899 -14.2858
   -14.2840  -3.9059  -3.7609  -3.4175  -1.7949  -1.5976   4.1340   4.7827
     4.8703   5.1927   5.7646   6.2355   7.5278   7.7785   8.1322  10.1875
    10.5714  10.9728  12.2744  12.6397  13.4758  13.5537  15.2961  15.8659
    16.9998  17.5879  17.8493  19.1913  19.3469  19.7385  20.3161  20.7297
    20.7606  21.1913  21.2030  21.8735  22.4410  22.5587

     occupation numbers 
     1.0000   1.0000   1.0000   1.0000   1.0000   1.0000   1.0000   1.0000
     1.0000   1.0000   1.0000   1.0000   1.0000   1.0000   1.0000   1.0000
     1.0000   1.0000   1.0000   1.0000   1.0000   1.0000   1.0000   1.0000
     1.0000   1.0000   1.0000   1.0000   1.0000   1.0000   1.0000   1.0000
     1.0000   1.0000   1.0000   1.0000   1.0000   1.0000   1.0000  -0.0000
    -0.0000  -0.0000  -0.0000  -0.0000  -0.0000  -0.0000  -0.0000  -0.0000
    -0.0000  -0.0000  -0.0000  -0.0000  -0.0000  -0.0000  -0.0000  -0.0000
    -0.0000  -0.0000  -0.0000  -0.0000  -0.0000  -0.0000

          k = 0.8150-1.3693-0.0000 (  9886 PWs)   bands (ev):

   -38.6096 -38.6092 -38.6091 -38.6088 -38.5989 -38.5986 -38.5983 -38.5979
   -38.5944 -38.5940 -38.5030 -38.4912 -38.4910 -38.4508 -38.4506 -14.3109
   -14.3108 -14.3067 -14.2986 -14.2952 -14.2950 -14.2949 -14.2937 -14.2865
   -14.2863  -3.4706  -3.4680  -3.4615  -2.0233  -2.0053   4.0446   4.4959
     4.6732   4.9735   5.9345   5.9768   7.0410   7.5769   8.0687  10.4321
    11.2684  11.2974  12.6151  12.7931  13.1145  15.0592  15.7550  15.7610
    16.2195  16.2794  18.0495  18.0996  19.5409  19.6248  20.0652  20.4247
    20.8289  21.4159  22.1933  22.6409  22.9209  23.4907

     occupation numbers 
     1.0000   1.0000   1.0000   1.0000   1.0000   1.0000   1.0000   1.0000
     1.0000   1.0000   1.0000   1.0000   1.0000   1.0000   1.0000   1.0000
     1.0000   1.0000   1.0000   1.0000   1.0000   1.0000   1.0000   1.0000
     1.0000   1.0000   1.0000   1.0000   1.0000   1.0000   1.0000   1.0000
     1.0000   1.0000   1.0000   1.0000   1.0000   1.0000   1.0000  -0.0000
    -0.0000  -0.0000  -0.0000  -0.0000  -0.0000  -0.0000  -0.0000  -0.0000
    -0.0000  -0.0000  -0.0000  -0.0000  -0.0000  -0.0000  -0.0000  -0.0000
    -0.0000  -0.0000  -0.0000  -0.0000  -0.0000  -0.0000

          k = 0.4435-1.5904 0.1673 (  9895 PWs)   bands (ev):

   -38.6097 -38.6093 -38.6089 -38.6085 -38.5992 -38.5988 -38.5986 -38.5983
   -38.5947 -38.5943 -38.5033 -38.4914 -38.4914 -38.4510 -38.4502 -14.3184
   -14.3154 -14.3022 -14.2999 -14.2986 -14.2952 -14.2915 -14.2899 -14.2858
   -14.2840  -3.8907  -3.7876  -3.4036  -1.8004  -1.5941   4.0957   4.6823
     4.9500   5.1083   6.0300   6.5377   7.3140   7.4379   7.9560  10.3746
    10.9191  11.1716  12.0228  12.4147  13.4543  13.7708  14.8544  15.6920
    17.3461  17.8233  18.3474  19.2070  19.3346  19.6865  20.0245  20.5663
    20.6608  21.0986  21.2402  21.3864  22.1229  22.6989

     occupation numbers 
     1.0000   1.0000   1.0000   1.0000   1.0000   1.0000   1.0000   1.0000
     1.0000   1.0000   1.0000   1.0000   1.0000   1.0000   1.0000   1.0000
     1.0000   1.0000   1.0000   1.0000   1.0000   1.0000   1.0000   1.0000
     1.0000   1.0000   1.0000   1.0000   1.0000   1.0000   1.0000   1.0000
     1.0000   1.0000   1.0000   1.0000   1.0000   1.0000   1.0000  -0.0000
    -0.0000  -0.0000  -0.0000  -0.0000  -0.0000  -0.0000  -0.0000  -0.0000
    -0.0000  -0.0000  -0.0000  -0.0000  -0.0000  -0.0000  -0.0000  -0.0000
    -0.0000  -0.0000  -0.0000  -0.0000  -0.0000  -0.0000

          k = 0.0721-1.8115 0.3347 (  9893 PWs)   bands (ev):

   -38.6101 -38.6093 -38.6091 -38.6086 -38.5989 -38.5989 -38.5984 -38.5983
   -38.5946 -38.5942 -38.5033 -38.4913 -38.4913 -38.4511 -38.4505 -14.3203
   -14.3173 -14.3026 -14.2986 -14.2960 -14.2938 -14.2910 -14.2899 -14.2888
   -14.2877  -4.4055  -4.2123  -3.4107  -1.4767  -1.0443   4.2887   4.8975
     5.7594   5.7610   6.2923   6.3980   7.5511   7.6065   8.1697   9.7738
    10.7904  10.8101  11.7319  12.3977  13.1764  13.3198  14.9219  16.1684
    16.8468  17.4434  17.7787  17.8055  18.7272  19.0228  19.9320  20.4502
    20.7107  21.1546  21.3612  21.4859  21.9648  22.7436

     occupation numbers 
     1.0000   1.0000   1.0000   1.0000   1.0000   1.0000   1.0000   1.0000
     1.0000   1.0000   1.0000   1.0000   1.0000   1.0000   1.0000   1.0000
     1.0000   1.0000   1.0000   1.0000   1.0000   1.0000   1.0000   1.0000
     1.0000   1.0000   1.0000   1.0000   1.0000   1.0000   1.0000   1.0000
     1.0000   1.0000   1.0000   1.0000   1.0000   1.0000   1.0000  -0.0000
    -0.0000  -0.0000  -0.0000  -0.0000  -0.0000  -0.0000  -0.0000  -0.0000
    -0.0000  -0.0000  -0.0000  -0.0000  -0.0000  -0.0000  -0.0000  -0.0000
    -0.0000  -0.0000  -0.0000  -0.0000  -0.0000  -0.0000

          k = 1.9294-0.7060-0.5020 (  9918 PWs)   bands (ev):

   -38.6102 -38.6099 -38.6096 -38.6094 -38.5991 -38.5988 -38.5987 -38.5982
   -38.5949 -38.5947 -38.5036 -38.4916 -38.4911 -38.4516 -38.4510 -14.3150
   -14.3128 -14.3008 -14.3005 -14.2985 -14.2983 -14.2930 -14.2918 -14.2897
   -14.2880  -4.6038  -4.3836  -3.4226  -1.3499  -0.8076   4.6591   4.8976
     5.6521   6.1128   6.3111   7.1164   7.1617   7.6608   7.8124  10.5810
    10.9642  11.1983  11.3083  12.2110  12.3497  14.3482  14.4825  15.0064
    15.7305  17.5877  17.7130  18.4436  18.7754  19.1964  19.5842  20.0645
    20.1102  20.1302  20.6286  21.1972  21.8139  22.0704

     occupation numbers 
     1.0000   1.0000   1.0000   1.0000   1.0000   1.0000   1.0000   1.0000
     1.0000   1.0000   1.0000   1.0000   1.0000   1.0000   1.0000   1.0000
     1.0000   1.0000   1.0000   1.0000   1.0000   1.0000   1.0000   1.0000
     1.0000   1.0000   1.0000   1.0000   1.0000   1.0000   1.0000   1.0000
     1.0000   1.0000   1.0000   1.0000   1.0000   1.0000   1.0000  -0.0000
    -0.0000  -0.0000  -0.0000  -0.0000  -0.0000  -0.0000  -0.0000  -0.0000
    -0.0000  -0.0000  -0.0000  -0.0000  -0.0000  -0.0000  -0.0000  -0.0000
    -0.0000  -0.0000  -0.0000  -0.0000  -0.0000  -0.0000

          k = 1.5579-0.9271-0.3347 (  9893 PWs)   bands (ev):

   -38.6101 -38.6093 -38.6091 -38.6086 -38.5989 -38.5989 -38.5984 -38.5983
   -38.5946 -38.5942 -38.5033 -38.4913 -38.4913 -38.4511 -38.4505 -14.3203
   -14.3173 -14.3026 -14.2986 -14.2960 -14.2938 -14.2910 -14.2899 -14.2888
   -14.2877  -4.4055  -4.2123  -3.4107  -1.4767  -1.0443   4.2887   4.8975
     5.7594   5.7610   6.2923   6.3980   7.5511   7.6065   8.1697   9.7738
    10.7904  10.8101  11.7319  12.3977  13.1764  13.3198  14.9219  16.1684
    16.8468  17.4434  17.7787  17.8055  18.7272  19.0228  19.9320  20.4502
    20.7107  21.1546  21.3612  21.4859  21.9648  22.7436

     occupation numbers 
     1.0000   1.0000   1.0000   1.0000   1.0000   1.0000   1.0000   1.0000
     1.0000   1.0000   1.0000   1.0000   1.0000   1.0000   1.0000   1.0000
     1.0000   1.0000   1.0000   1.0000   1.0000   1.0000   1.0000   1.0000
     1.0000   1.0000   1.0000   1.0000   1.0000   1.0000   1.0000   1.0000
     1.0000   1.0000   1.0000   1.0000   1.0000   1.0000   1.0000  -0.0000
    -0.0000  -0.0000  -0.0000  -0.0000  -0.0000  -0.0000  -0.0000  -0.0000
    -0.0000  -0.0000  -0.0000  -0.0000  -0.0000  -0.0000  -0.0000  -0.0000
    -0.0000  -0.0000  -0.0000  -0.0000  -0.0000  -0.0000

          k = 1.1865-1.1482-0.1673 (  9895 PWs)   bands (ev):

   -38.6097 -38.6093 -38.6089 -38.6085 -38.5992 -38.5988 -38.5986 -38.5983
   -38.5947 -38.5943 -38.5033 -38.4914 -38.4914 -38.4510 -38.4502 -14.3184
   -14.3154 -14.3022 -14.2999 -14.2986 -14.2952 -14.2915 -14.2899 -14.2858
   -14.2840  -3.8907  -3.7876  -3.4036  -1.8004  -1.5941   4.0957   4.6823
     4.9500   5.1083   6.0300   6.5377   7.3140   7.4379   7.9560  10.3746
    10.9191  11.1716  12.0228  12.4147  13.4543  13.7708  14.8544  15.6920
    17.3461  17.8233  18.3474  19.2070  19.3346  19.6865  20.0245  20.5663
    20.6608  21.0986  21.2402  21.3864  22.1229  22.6989

     occupation numbers 
     1.0000   1.0000   1.0000   1.0000   1.0000   1.0000   1.0000   1.0000
     1.0000   1.0000   1.0000   1.0000   1.0000   1.0000   1.0000   1.0000
     1.0000   1.0000   1.0000   1.0000   1.0000   1.0000   1.0000   1.0000
     1.0000   1.0000   1.0000   1.0000   1.0000   1.0000   1.0000   1.0000
     1.0000   1.0000   1.0000   1.0000   1.0000   1.0000   1.0000  -0.0000
    -0.0000  -0.0000  -0.0000  -0.0000  -0.0000  -0.0000  -0.0000  -0.0000
    -0.0000  -0.0000  -0.0000  -0.0000  -0.0000  -0.0000  -0.0000  -0.0000
    -0.0000  -0.0000  -0.0000  -0.0000  -0.0000  -0.0000

          k = 0.8149-0.9057-0.0004 (  9870 PWs)   bands (ev):

   -38.6093 -38.6092 -38.6086 -38.6081 -38.5991 -38.5987 -38.5982 -38.5980
   -38.5941 -38.5938 -38.5028 -38.4914 -38.4909 -38.4508 -38.4499 -14.3184
   -14.3154 -14.3022 -14.2999 -14.2986 -14.2952 -14.2915 -14.2899 -14.2859
   -14.2839  -3.9625  -3.6653  -3.4499  -1.8349  -1.5636   3.8715   4.6697
     5.1527   5.6304   6.0335   6.3039   6.8772   7.5081   7.7495  10.7344
    10.8489  11.6369  12.1090  12.3961  12.8866  13.6450  15.2337  15.6487
    17.1597  17.8102  18.4559  18.8209  19.1920  19.4694  20.1729  20.4380
    20.6993  21.1576  21.5289  21.8568  22.1469  22.5378

     occupation numbers 
     1.0000   1.0000   1.0000   1.0000   1.0000   1.0000   1.0000   1.0000
     1.0000   1.0000   1.0000   1.0000   1.0000   1.0000   1.0000   1.0000
     1.0000   1.0000   1.0000   1.0000   1.0000   1.0000   1.0000   1.0000
     1.0000   1.0000   1.0000   1.0000   1.0000   1.0000   1.0000   1.0000
     1.0000   1.0000   1.0000   1.0000   1.0000   1.0000   1.0000  -0.0000
    -0.0000  -0.0000  -0.0000  -0.0000  -0.0000  -0.0000  -0.0000  -0.0000
    -0.0000  -0.0000  -0.0000  -0.0000  -0.0000  -0.0000  -0.0000  -0.0000
    -0.0000  -0.0000  -0.0000  -0.0000  -0.0000  -0.0000

          k = 0.4435-1.1268 0.1670 (  9868 PWs)   bands (ev):

   -38.6093 -38.6090 -38.6087 -38.6080 -38.5986 -38.5986 -38.5984 -38.5981
   -38.5943 -38.5938 -38.5029 -38.4911 -38.4910 -38.4507 -38.4498 -14.3184
   -14.3154 -14.3022 -14.2999 -14.2986 -14.2952 -14.2915 -14.2899 -14.2859
   -14.2840  -3.9675  -3.6393  -3.4733  -1.8304  -1.5661   3.8884   4.7693
     5.2448   5.5788   5.6789   6.1338   6.9477   7.8507   7.9989  10.4405
    10.5173  11.5556  12.3227  12.5844  12.9696  13.4772  15.6695  15.9427
    16.6548  17.4802  17.9097  19.1183  19.2934  19.4801  20.1172  20.5132
    20.8549  21.1670  21.8318  22.1983  22.5301  23.0235

     occupation numbers 
     1.0000   1.0000   1.0000   1.0000   1.0000   1.0000   1.0000   1.0000
     1.0000   1.0000   1.0000   1.0000   1.0000   1.0000   1.0000   1.0000
     1.0000   1.0000   1.0000   1.0000   1.0000   1.0000   1.0000   1.0000
     1.0000   1.0000   1.0000   1.0000   1.0000   1.0000   1.0000   1.0000
     1.0000   1.0000   1.0000   1.0000   1.0000   1.0000   1.0000  -0.0000
    -0.0000  -0.0000  -0.0000  -0.0000  -0.0000  -0.0000  -0.0000  -0.0000
    -0.0000  -0.0000  -0.0000  -0.0000  -0.0000  -0.0000  -0.0000  -0.0000
    -0.0000  -0.0000  -0.0000  -0.0000  -0.0000  -0.0000

          k = 0.0720-1.3479 0.3343 (  9889 PWs)   bands (ev):

   -38.6103 -38.6093 -38.6087 -38.6078 -38.5990 -38.5990 -38.5987 -38.5983
   -38.5945 -38.5939 -38.5031 -38.4915 -38.4913 -38.4512 -38.4497 -14.3246
   -14.3208 -14.3053 -14.3010 -14.2964 -14.2921 -14.2860 -14.2859 -14.2852
   -14.2837  -3.7725  -3.6712  -3.6461  -1.9430  -1.4730   3.7795   4.8758
     5.1616   5.4614   6.2173   6.4980   7.3363   7.3910   7.5906  10.0826
    10.8402  11.0729  11.7103  12.3869  12.8436  13.6307  15.2433  16.7243
    17.8440  18.2397  19.0919  19.1761  19.4656  19.6030  20.4551  20.6618
    20.7048  21.1609  21.2796  21.6784  21.7678  22.5020

     occupation numbers 
     1.0000   1.0000   1.0000   1.0000   1.0000   1.0000   1.0000   1.0000
     1.0000   1.0000   1.0000   1.0000   1.0000   1.0000   1.0000   1.0000
     1.0000   1.0000   1.0000   1.0000   1.0000   1.0000   1.0000   1.0000
     1.0000   1.0000   1.0000   1.0000   1.0000   1.0000   1.0000   1.0000
     1.0000   1.0000   1.0000   1.0000   1.0000   1.0000   1.0000  -0.0000
    -0.0000  -0.0000  -0.0000  -0.0000  -0.0000  -0.0000  -0.0000  -0.0000
    -0.0000  -0.0000  -0.0000  -0.0000  -0.0000  -0.0000  -0.0000  -0.0000
    -0.0000  -0.0000  -0.0000  -0.0000  -0.0000  -0.0000

          k = 1.9293-0.2425-0.5024 (  9872 PWs)   bands (ev):

   -38.6094 -38.6090 -38.6085 -38.6081 -38.5988 -38.5986 -38.5984 -38.5980
   -38.5944 -38.5939 -38.5030 -38.4913 -38.4910 -38.4507 -38.4498 -14.3183
   -14.3154 -14.3022 -14.3000 -14.2986 -14.2952 -14.2915 -14.2899 -14.2858
   -14.2840  -3.9059  -3.7609  -3.4175  -1.7949  -1.5976   4.1340   4.7827
     4.8703   5.1927   5.7646   6.2355   7.5278   7.7785   8.1322  10.1875
    10.5714  10.9728  12.2744  12.6397  13.4758  13.5537  15.2961  15.8659
    16.9998  17.5879  17.8493  19.1913  19.3469  19.7385  20.3161  20.7297
    20.7606  21.1913  21.2030  21.8735  22.4409  22.5587

     occupation numbers 
     1.0000   1.0000   1.0000   1.0000   1.0000   1.0000   1.0000   1.0000
     1.0000   1.0000   1.0000   1.0000   1.0000   1.0000   1.0000   1.0000
     1.0000   1.0000   1.0000   1.0000   1.0000   1.0000   1.0000   1.0000
     1.0000   1.0000   1.0000   1.0000   1.0000   1.0000   1.0000   1.0000
     1.0000   1.0000   1.0000   1.0000   1.0000   1.0000   1.0000  -0.0000
    -0.0000  -0.0000  -0.0000  -0.0000  -0.0000  -0.0000  -0.0000  -0.0000
    -0.0000  -0.0000  -0.0000  -0.0000  -0.0000  -0.0000  -0.0000  -0.0000
    -0.0000  -0.0000  -0.0000  -0.0000  -0.0000  -0.0000

          k = 1.5579-0.4635-0.3351 (  9895 PWs)   bands (ev):

   -38.6097 -38.6093 -38.6089 -38.6085 -38.5992 -38.5988 -38.5986 -38.5983
   -38.5947 -38.5943 -38.5033 -38.4914 -38.4914 -38.4510 -38.4502 -14.3184
   -14.3154 -14.3022 -14.2999 -14.2986 -14.2952 -14.2915 -14.2899 -14.2858
   -14.2840  -3.8907  -3.7876  -3.4036  -1.8004  -1.5941   4.0957   4.6823
     4.9500   5.1083   6.0300   6.5377   7.3140   7.4379   7.9560  10.3746
    10.9191  11.1716  12.0228  12.4147  13.4543  13.7708  14.8544  15.6920
    17.3461  17.8233  18.3474  19.2070  19.3346  19.6865  20.0245  20.5663
    20.6608  21.0986  21.2402  21.3864  22.1230  22.6990

     occupation numbers 
     1.0000   1.0000   1.0000   1.0000   1.0000   1.0000   1.0000   1.0000
     1.0000   1.0000   1.0000   1.0000   1.0000   1.0000   1.0000   1.0000
     1.0000   1.0000   1.0000   1.0000   1.0000   1.0000   1.0000   1.0000
     1.0000   1.0000   1.0000   1.0000   1.0000   1.0000   1.0000   1.0000
     1.0000   1.0000   1.0000   1.0000   1.0000   1.0000   1.0000  -0.0000
    -0.0000  -0.0000  -0.0000  -0.0000  -0.0000  -0.0000  -0.0000  -0.0000
    -0.0000  -0.0000  -0.0000  -0.0000  -0.0000  -0.0000  -0.0000  -0.0000
    -0.0000  -0.0000  -0.0000  -0.0000  -0.0000  -0.0000

          k = 1.1864-0.6846-0.1677 (  9866 PWs)   bands (ev):

   -38.6102 -38.6090 -38.6087 -38.6080 -38.5985 -38.5984 -38.5979 -38.5978
   -38.5942 -38.5938 -38.5029 -38.4909 -38.4907 -38.4511 -38.4498 -14.3246
   -14.3208 -14.3053 -14.3010 -14.2964 -14.2921 -14.2861 -14.2859 -14.2852
   -14.2836  -3.7647  -3.6695  -3.6596  -1.9054  -1.5089   3.6479   5.2072
     5.3222   5.5353   6.0420   6.1201   7.0400   7.5041   7.9427   9.8117
    10.8049  11.3283  11.7758  12.6428  12.9368  13.2172  14.9668  17.2441
    18.0987  18.2142  19.0043  19.1784  19.3963  19.5287  20.3112  20.4318
    20.5680  21.2835  21.2921  21.4954  21.8307  22.1558

     occupation numbers 
     1.0000   1.0000   1.0000   1.0000   1.0000   1.0000   1.0000   1.0000
     1.0000   1.0000   1.0000   1.0000   1.0000   1.0000   1.0000   1.0000
     1.0000   1.0000   1.0000   1.0000   1.0000   1.0000   1.0000   1.0000
     1.0000   1.0000   1.0000   1.0000   1.0000   1.0000   1.0000   1.0000
     1.0000   1.0000   1.0000   1.0000   1.0000   1.0000   1.0000  -0.0000
    -0.0000  -0.0000  -0.0000  -0.0000  -0.0000  -0.0000  -0.0000  -0.0000
    -0.0000  -0.0000  -0.0000  -0.0000  -0.0000  -0.0000  -0.0000  -0.0000
    -0.0000  -0.0000  -0.0000  -0.0000  -0.0000  -0.0000

          k =-1.2223 0.6633 0.0011 (  9850 PWs)   bands (ev):

   -38.6098 -38.6092 -38.6082 -38.6074 -38.5985 -38.5980 -38.5978 -38.5976
   -38.5941 -38.5940 -38.5030 -38.4907 -38.4906 -38.4510 -38.4493 -14.3246
   -14.3208 -14.3053 -14.3010 -14.2963 -14.2921 -14.2861 -14.2859 -14.2852
   -14.2836  -3.7599  -3.6679  -3.6679  -1.8840  -1.5296   3.5959   5.3868
     5.4495   5.5911   5.9441   5.9524   6.7774   7.5818   8.1656   9.6201
    10.6899  11.7367  11.7556  12.7502  12.9171  12.9504  14.9002  17.4004
    18.0483  18.5728  18.9206  19.0870  19.4682  19.4914  20.2775  20.3184
    20.4571  20.8554  21.3820  21.5230  21.8973  22.0525

     occupation numbers 
     1.0000   1.0000   1.0000   1.0000   1.0000   1.0000   1.0000   1.0000
     1.0000   1.0000   1.0000   1.0000   1.0000   1.0000   1.0000   1.0000
     1.0000   1.0000   1.0000   1.0000   1.0000   1.0000   1.0000   1.0000
     1.0000   1.0000   1.0000   1.0000   1.0000   1.0000   1.0000   1.0000
     1.0000   1.0000   1.0000   1.0000   1.0000   1.0000   1.0000  -0.0000
    -0.0000  -0.0000  -0.0000  -0.0000  -0.0000  -0.0000  -0.0000  -0.0000
    -0.0000  -0.0000  -0.0000  -0.0000  -0.0000  -0.0000  -0.0000  -0.0000
    -0.0000  -0.0000  -0.0000  -0.0000  -0.0000  -0.0000

          k =-1.5937 0.4422 0.1685 (  9884 PWs)   bands (ev):

   -38.6096 -38.6091 -38.6088 -38.6084 -38.5991 -38.5989 -38.5983 -38.5981
   -38.5943 -38.5942 -38.5031 -38.4916 -38.4910 -38.4508 -38.4500 -14.3184
   -14.3154 -14.3022 -14.2999 -14.2985 -14.2952 -14.2915 -14.2899 -14.2859
   -14.2840  -3.9316  -3.7311  -3.4159  -1.8212  -1.5764   3.9548   4.6331
     5.0837   5.3138   6.1924   6.6015   7.1349   7.1980   7.6920  10.7457
    11.1144  11.3449  11.9074  12.3060  13.1783  13.8555  14.7633  15.6267
    17.6099  17.8205  18.3964  19.1440  19.4249  19.6439  19.7281  20.4917
    20.7440  21.0886  21.2001  21.4799  21.7979  22.6351

     occupation numbers 
     1.0000   1.0000   1.0000   1.0000   1.0000   1.0000   1.0000   1.0000
     1.0000   1.0000   1.0000   1.0000   1.0000   1.0000   1.0000   1.0000
     1.0000   1.0000   1.0000   1.0000   1.0000   1.0000   1.0000   1.0000
     1.0000   1.0000   1.0000   1.0000   1.0000   1.0000   1.0000   1.0000
     1.0000   1.0000   1.0000   1.0000   1.0000   1.0000   1.0000  -0.0000
    -0.0000  -0.0000  -0.0000  -0.0000  -0.0000  -0.0000  -0.0000  -0.0000
    -0.0000  -0.0000  -0.0000  -0.0000  -0.0000  -0.0000  -0.0000  -0.0000
    -0.0000  -0.0000  -0.0000  -0.0000  -0.0000  -0.0000

          k =-1.9652 0.2211 0.3358 (  9871 PWs)   bands (ev):

   -38.6093 -38.6091 -38.6085 -38.6079 -38.5988 -38.5986 -38.5984 -38.5979
   -38.5945 -38.5941 -38.5031 -38.4913 -38.4909 -38.4507 -38.4497 -14.3184
   -14.3154 -14.3022 -14.3000 -14.2986 -14.2952 -14.2915 -14.2899 -14.2858
   -14.2840  -3.9460  -3.6876  -3.4497  -1.8113  -1.5821   4.0008   4.8432
     5.0985   5.3577   5.5898   6.0562   7.3355   7.9758   8.1490  10.2675
    10.3516  11.1306  12.3957  12.7464  13.2449  13.4490  15.6353  16.1491
    16.7252  17.1244  17.7493  19.1942  19.2534  19.6917  20.4383  20.5448
    20.9359  21.1483  21.5575  22.2126  22.4375  22.9990

     occupation numbers 
     1.0000   1.0000   1.0000   1.0000   1.0000   1.0000   1.0000   1.0000
     1.0000   1.0000   1.0000   1.0000   1.0000   1.0000   1.0000   1.0000
     1.0000   1.0000   1.0000   1.0000   1.0000   1.0000   1.0000   1.0000
     1.0000   1.0000   1.0000   1.0000   1.0000   1.0000   1.0000   1.0000
     1.0000   1.0000   1.0000   1.0000   1.0000   1.0000   1.0000  -0.0000
    -0.0000  -0.0000  -0.0000  -0.0000  -0.0000  -0.0000  -0.0000  -0.0000
    -0.0000  -0.0000  -0.0000  -0.0000  -0.0000  -0.0000  -0.0000  -0.0000
    -0.0000  -0.0000  -0.0000  -0.0000  -0.0000  -0.0000

          k =-0.1079 1.3266-0.5009 (  9892 PWs)   bands (ev):

   -38.6102 -38.6090 -38.6087 -38.6079 -38.5991 -38.5988 -38.5987 -38.5985
   -38.5946 -38.5944 -38.5034 -38.4915 -38.4914 -38.4510 -38.4498 -14.3246
   -14.3208 -14.3053 -14.3010 -14.2964 -14.2921 -14.2860 -14.2859 -14.2852
   -14.2837  -3.7758  -3.6720  -3.6399  -1.9598  -1.4570   3.8716   4.6992
     5.1061   5.4331   6.3101   6.9126   7.0076   7.2406   7.7563  10.1097
    10.7095  11.2479  11.6846  12.2166  12.7635  13.7986  15.5668  16.2648
    17.7599  18.2942  19.0597  19.2672  19.4757  19.6249  20.6583  20.7958
    20.8029  20.9228  21.3042  21.5599  21.5773  22.7464

     occupation numbers 
     1.0000   1.0000   1.0000   1.0000   1.0000   1.0000   1.0000   1.0000
     1.0000   1.0000   1.0000   1.0000   1.0000   1.0000   1.0000   1.0000
     1.0000   1.0000   1.0000   1.0000   1.0000   1.0000   1.0000   1.0000
     1.0000   1.0000   1.0000   1.0000   1.0000   1.0000   1.0000   1.0000
     1.0000   1.0000   1.0000   1.0000   1.0000   1.0000   1.0000  -0.0000
    -0.0000  -0.0000  -0.0000  -0.0000  -0.0000  -0.0000  -0.0000  -0.0000
    -0.0000  -0.0000  -0.0000  -0.0000  -0.0000  -0.0000  -0.0000  -0.0000
    -0.0000  -0.0000  -0.0000  -0.0000  -0.0000  -0.0000

          k =-0.4793 1.1055-0.3336 (  9871 PWs)   bands (ev):

   -38.6093 -38.6091 -38.6085 -38.6079 -38.5988 -38.5986 -38.5984 -38.5979
   -38.5945 -38.5941 -38.5031 -38.4913 -38.4909 -38.4507 -38.4497 -14.3184
   -14.3154 -14.3022 -14.3000 -14.2986 -14.2952 -14.2915 -14.2899 -14.2858
   -14.2840  -3.9460  -3.6876  -3.4497  -1.8113  -1.5821   4.0008   4.8432
     5.0985   5.3577   5.5898   6.0562   7.3355   7.9758   8.1490  10.2675
    10.3516  11.1306  12.3957  12.7464  13.2449  13.4490  15.6353  16.1491
    16.7252  17.1244  17.7493  19.1942  19.2534  19.6917  20.4383  20.5448
    20.9359  21.1483  21.5575  22.2125  22.4376  23.0002

     occupation numbers 
     1.0000   1.0000   1.0000   1.0000   1.0000   1.0000   1.0000   1.0000
     1.0000   1.0000   1.0000   1.0000   1.0000   1.0000   1.0000   1.0000
     1.0000   1.0000   1.0000   1.0000   1.0000   1.0000   1.0000   1.0000
     1.0000   1.0000   1.0000   1.0000   1.0000   1.0000   1.0000   1.0000
     1.0000   1.0000   1.0000   1.0000   1.0000   1.0000   1.0000  -0.0000
    -0.0000  -0.0000  -0.0000  -0.0000  -0.0000  -0.0000  -0.0000  -0.0000
    -0.0000  -0.0000  -0.0000  -0.0000  -0.0000  -0.0000  -0.0000  -0.0000
    -0.0000  -0.0000  -0.0000  -0.0000  -0.0000  -0.0000

          k =-0.8508 0.8844-0.1662 (  9884 PWs)   bands (ev):

   -38.6096 -38.6091 -38.6088 -38.6084 -38.5991 -38.5989 -38.5983 -38.5981
   -38.5943 -38.5942 -38.5031 -38.4916 -38.4910 -38.4508 -38.4500 -14.3184
   -14.3154 -14.3022 -14.2999 -14.2985 -14.2952 -14.2915 -14.2899 -14.2859
   -14.2840  -3.9316  -3.7311  -3.4159  -1.8212  -1.5764   3.9548   4.6331
     5.0837   5.3138   6.1924   6.6015   7.1349   7.1980   7.6920  10.7457
    11.1144  11.3449  11.9074  12.3060  13.1783  13.8555  14.7633  15.6267
    17.6099  17.8205  18.3964  19.1440  19.4249  19.6439  19.7281  20.4917
    20.7440  21.0886  21.2001  21.4799  21.7979  22.6351

     occupation numbers 
     1.0000   1.0000   1.0000   1.0000   1.0000   1.0000   1.0000   1.0000
     1.0000   1.0000   1.0000   1.0000   1.0000   1.0000   1.0000   1.0000
     1.0000   1.0000   1.0000   1.0000   1.0000   1.0000   1.0000   1.0000
     1.0000   1.0000   1.0000   1.0000   1.0000   1.0000   1.0000   1.0000
     1.0000   1.0000   1.0000   1.0000   1.0000   1.0000   1.0000  -0.0000
    -0.0000  -0.0000  -0.0000  -0.0000  -0.0000  -0.0000  -0.0000  -0.0000
    -0.0000  -0.0000  -0.0000  -0.0000  -0.0000  -0.0000  -0.0000  -0.0000
    -0.0000  -0.0000  -0.0000  -0.0000  -0.0000  -0.0000

          k =-1.2223 1.1268 0.0007 (  9884 PWs)   bands (ev):

   -38.6096 -38.6091 -38.6088 -38.6084 -38.5991 -38.5989 -38.5983 -38.5981
   -38.5943 -38.5942 -38.5031 -38.4916 -38.4910 -38.4508 -38.4500 -14.3184
   -14.3154 -14.3022 -14.2999 -14.2985 -14.2952 -14.2915 -14.2899 -14.2859
   -14.2840  -3.9316  -3.7311  -3.4159  -1.8212  -1.5764   3.9548   4.6331
     5.0837   5.3138   6.1924   6.6015   7.1349   7.1980   7.6920  10.7457
    11.1144  11.3449  11.9074  12.3060  13.1783  13.8555  14.7633  15.6267
    17.6099  17.8205  18.3964  19.1440  19.4249  19.6439  19.7281  20.4917
    20.7440  21.0886  21.2001  21.4799  21.7979  22.6352

     occupation numbers 
     1.0000   1.0000   1.0000   1.0000   1.0000   1.0000   1.0000   1.0000
     1.0000   1.0000   1.0000   1.0000   1.0000   1.0000   1.0000   1.0000
     1.0000   1.0000   1.0000   1.0000   1.0000   1.0000   1.0000   1.0000
     1.0000   1.0000   1.0000   1.0000   1.0000   1.0000   1.0000   1.0000
     1.0000   1.0000   1.0000   1.0000   1.0000   1.0000   1.0000  -0.0000
    -0.0000  -0.0000  -0.0000  -0.0000  -0.0000  -0.0000  -0.0000  -0.0000
    -0.0000  -0.0000  -0.0000  -0.0000  -0.0000  -0.0000  -0.0000  -0.0000
    -0.0000  -0.0000  -0.0000  -0.0000  -0.0000  -0.0000

          k =-1.5938 0.9057 0.1681 (  9894 PWs)   bands (ev):

   -38.6101 -38.6091 -38.6091 -38.6086 -38.5990 -38.5989 -38.5986 -38.5982
   -38.5945 -38.5943 -38.5033 -38.4914 -38.4913 -38.4511 -38.4504 -14.3203
   -14.3172 -14.3026 -14.2986 -14.2960 -14.2938 -14.2910 -14.2900 -14.2888
   -14.2876  -4.4517  -4.1415  -3.4357  -1.5101  -1.0086   4.3198   4.9031
     5.7165   5.8322   6.1650   6.2975   7.6417   7.6963   8.3278   9.5846
    10.7066  10.7665  11.7819  12.4393  13.2168  13.2923  15.0198  15.9920
    17.1686  17.5600  17.5786  18.1050  18.8162  19.2758  19.5453  20.0171
    20.3404  20.7567  21.3506  21.6192  21.9226  22.6120

     occupation numbers 
     1.0000   1.0000   1.0000   1.0000   1.0000   1.0000   1.0000   1.0000
     1.0000   1.0000   1.0000   1.0000   1.0000   1.0000   1.0000   1.0000
     1.0000   1.0000   1.0000   1.0000   1.0000   1.0000   1.0000   1.0000
     1.0000   1.0000   1.0000   1.0000   1.0000   1.0000   1.0000   1.0000
     1.0000   1.0000   1.0000   1.0000   1.0000   1.0000   1.0000  -0.0000
    -0.0000  -0.0000  -0.0000  -0.0000  -0.0000  -0.0000  -0.0000  -0.0000
    -0.0000  -0.0000  -0.0000  -0.0000  -0.0000  -0.0000  -0.0000  -0.0000
    -0.0000  -0.0000  -0.0000  -0.0000  -0.0000  -0.0000

          k =-1.9653 0.6846 0.3354 (  9898 PWs)   bands (ev):

   -38.6099 -38.6097 -38.6094 -38.6089 -38.5989 -38.5987 -38.5982 -38.5979
   -38.5950 -38.5944 -38.5035 -38.4912 -38.4910 -38.4513 -38.4507 -14.3150
   -14.3128 -14.3008 -14.3005 -14.2985 -14.2983 -14.2930 -14.2918 -14.2898
   -14.2880  -4.6449  -4.3164  -3.4592  -1.3232  -0.8239   4.6800   4.9457
     5.6001   6.0607   6.3398   6.7767   7.3485   7.8133   7.9360  10.4583
    10.6526  11.1876  11.5194  12.2446  12.4838  14.2312  14.3063  15.3529
    15.9827  17.4203  17.7177  18.2613  18.5499  19.0584  19.5760  19.8386
    19.9995  20.2292  20.7194  21.4316  22.1092  22.2519

     occupation numbers 
     1.0000   1.0000   1.0000   1.0000   1.0000   1.0000   1.0000   1.0000
     1.0000   1.0000   1.0000   1.0000   1.0000   1.0000   1.0000   1.0000
     1.0000   1.0000   1.0000   1.0000   1.0000   1.0000   1.0000   1.0000
     1.0000   1.0000   1.0000   1.0000   1.0000   1.0000   1.0000   1.0000
     1.0000   1.0000   1.0000   1.0000   1.0000   1.0000   1.0000  -0.0000
    -0.0000  -0.0000  -0.0000  -0.0000  -0.0000  -0.0000  -0.0000  -0.0000
    -0.0000  -0.0000  -0.0000  -0.0000  -0.0000  -0.0000  -0.0000  -0.0000
    -0.0000  -0.0000  -0.0000  -0.0000  -0.0000  -0.0000

          k =-0.1079 1.7901-0.5013 (  9880 PWs)   bands (ev):

   -38.6100 -38.6092 -38.6090 -38.6083 -38.5987 -38.5986 -38.5980 -38.5980
   -38.5948 -38.5943 -38.5034 -38.4910 -38.4910 -38.4511 -38.4502 -14.3203
   -14.3173 -14.3026 -14.2986 -14.2960 -14.2938 -14.2910 -14.2899 -14.2888
   -14.2877  -4.4363  -4.1594  -3.4441  -1.4271  -1.0815   4.1299   5.1138
     5.6972   5.7775   6.4573   6.7187   7.1920   7.3963   7.8427  10.1318
    11.0001  11.1592  11.6113  12.2095  12.9082  13.2412  15.0810  16.4096
    16.6951  17.5450  17.6001  17.8075  18.1240  18.9624  20.0660  20.4852
    20.9758  21.0493  21.2356  22.2201  22.4420  22.8939

     occupation numbers 
     1.0000   1.0000   1.0000   1.0000   1.0000   1.0000   1.0000   1.0000
     1.0000   1.0000   1.0000   1.0000   1.0000   1.0000   1.0000   1.0000
     1.0000   1.0000   1.0000   1.0000   1.0000   1.0000   1.0000   1.0000
     1.0000   1.0000   1.0000   1.0000   1.0000   1.0000   1.0000   1.0000
     1.0000   1.0000   1.0000   1.0000   1.0000   1.0000   1.0000  -0.0000
    -0.0000  -0.0000  -0.0000  -0.0000  -0.0000  -0.0000  -0.0000  -0.0000
    -0.0000  -0.0000  -0.0000  -0.0000  -0.0000  -0.0000  -0.0000  -0.0000
    -0.0000  -0.0000  -0.0000  -0.0000  -0.0000  -0.0000

          k =-0.4794 1.5690-0.3339 (  9872 PWs)   bands (ev):

   -38.6094 -38.6090 -38.6085 -38.6081 -38.5988 -38.5986 -38.5984 -38.5980
   -38.5944 -38.5939 -38.5030 -38.4913 -38.4910 -38.4507 -38.4498 -14.3183
   -14.3154 -14.3022 -14.3000 -14.2986 -14.2952 -14.2915 -14.2899 -14.2858
   -14.2840  -3.9059  -3.7609  -3.4175  -1.7949  -1.5976   4.1340   4.7827
     4.8703   5.1927   5.7646   6.2355   7.5278   7.7785   8.1322  10.1875
    10.5714  10.9728  12.2744  12.6397  13.4758  13.5537  15.2961  15.8659
    16.9998  17.5879  17.8493  19.1913  19.3469  19.7385  20.3161  20.7297
    20.7606  21.1913  21.2030  21.8735  22.4410  22.5587

     occupation numbers 
     1.0000   1.0000   1.0000   1.0000   1.0000   1.0000   1.0000   1.0000
     1.0000   1.0000   1.0000   1.0000   1.0000   1.0000   1.0000   1.0000
     1.0000   1.0000   1.0000   1.0000   1.0000   1.0000   1.0000   1.0000
     1.0000   1.0000   1.0000   1.0000   1.0000   1.0000   1.0000   1.0000
     1.0000   1.0000   1.0000   1.0000   1.0000   1.0000   1.0000  -0.0000
    -0.0000  -0.0000  -0.0000  -0.0000  -0.0000  -0.0000  -0.0000  -0.0000
    -0.0000  -0.0000  -0.0000  -0.0000  -0.0000  -0.0000  -0.0000  -0.0000
    -0.0000  -0.0000  -0.0000  -0.0000  -0.0000  -0.0000

          k =-0.8509 1.3479-0.1666 (  9892 PWs)   bands (ev):

   -38.6095 -38.6093 -38.6091 -38.6088 -38.5990 -38.5984 -38.5983 -38.5978
   -38.5948 -38.5945 -38.5035 -38.4911 -38.4910 -38.4508 -38.4506 -14.3109
   -14.3108 -14.3067 -14.2986 -14.2952 -14.2950 -14.2949 -14.2937 -14.2865
   -14.2863  -3.4706  -3.4680  -3.4615  -2.0233  -2.0053   4.0435   4.5529
     4.5857   5.0268   5.7682   6.1618   6.9404   7.7087   7.9917  10.4854
    11.0297  11.5235  12.4814  12.9861  13.0199  15.0594  15.6860  15.9065
    16.0329  16.4049  17.8064  18.4988  19.0381  19.9750  20.0997  20.5737
    20.7036  21.2626  22.3234  22.4173  23.2744  23.4249

     occupation numbers 
     1.0000   1.0000   1.0000   1.0000   1.0000   1.0000   1.0000   1.0000
     1.0000   1.0000   1.0000   1.0000   1.0000   1.0000   1.0000   1.0000
     1.0000   1.0000   1.0000   1.0000   1.0000   1.0000   1.0000   1.0000
     1.0000   1.0000   1.0000   1.0000   1.0000   1.0000   1.0000   1.0000
     1.0000   1.0000   1.0000   1.0000   1.0000   1.0000   1.0000  -0.0000
    -0.0000  -0.0000  -0.0000  -0.0000  -0.0000  -0.0000  -0.0000  -0.0000
    -0.0000  -0.0000  -0.0000  -0.0000  -0.0000  -0.0000  -0.0000  -0.0000
    -0.0000  -0.0000  -0.0000  -0.0000  -0.0000  -0.0000

          k =-1.2224 1.5904 0.0004 (  9871 PWs)   bands (ev):

   -38.6093 -38.6091 -38.6085 -38.6079 -38.5988 -38.5986 -38.5984 -38.5979
   -38.5945 -38.5941 -38.5031 -38.4913 -38.4909 -38.4507 -38.4497 -14.3184
   -14.3154 -14.3022 -14.3000 -14.2986 -14.2952 -14.2915 -14.2899 -14.2858
   -14.2840  -3.9460  -3.6876  -3.4497  -1.8113  -1.5821   4.0008   4.8432
     5.0985   5.3577   5.5898   6.0562   7.3355   7.9758   8.1490  10.2675
    10.3516  11.1306  12.3957  12.7464  13.2449  13.4490  15.6353  16.1491
    16.7252  17.1244  17.7493  19.1942  19.2534  19.6917  20.4383  20.5448
    20.9359  21.1483  21.5575  22.2125  22.4375  22.9986

     occupation numbers 
     1.0000   1.0000   1.0000   1.0000   1.0000   1.0000   1.0000   1.0000
     1.0000   1.0000   1.0000   1.0000   1.0000   1.0000   1.0000   1.0000
     1.0000   1.0000   1.0000   1.0000   1.0000   1.0000   1.0000   1.0000
     1.0000   1.0000   1.0000   1.0000   1.0000   1.0000   1.0000   1.0000
     1.0000   1.0000   1.0000   1.0000   1.0000   1.0000   1.0000  -0.0000
    -0.0000  -0.0000  -0.0000  -0.0000  -0.0000  -0.0000  -0.0000  -0.0000
    -0.0000  -0.0000  -0.0000  -0.0000  -0.0000  -0.0000  -0.0000  -0.0000
    -0.0000  -0.0000  -0.0000  -0.0000  -0.0000  -0.0000

          k =-1.5939 1.3693 0.1677 (  9898 PWs)   bands (ev):

   -38.6099 -38.6097 -38.6094 -38.6089 -38.5989 -38.5987 -38.5982 -38.5979
   -38.5950 -38.5944 -38.5035 -38.4912 -38.4910 -38.4513 -38.4507 -14.3150
   -14.3128 -14.3008 -14.3005 -14.2985 -14.2983 -14.2930 -14.2918 -14.2898
   -14.2880  -4.6449  -4.3164  -3.4592  -1.3232  -0.8239   4.6800   4.9457
     5.6001   6.0607   6.3398   6.7767   7.3485   7.8133   7.9360  10.4583
    10.6526  11.1876  11.5194  12.2446  12.4838  14.2312  14.3063  15.3529
    15.9827  17.4203  17.7177  18.2613  18.5499  19.0584  19.5760  19.8386
    19.9995  20.2292  20.7194  21.4316  22.1093  22.2519

     occupation numbers 
     1.0000   1.0000   1.0000   1.0000   1.0000   1.0000   1.0000   1.0000
     1.0000   1.0000   1.0000   1.0000   1.0000   1.0000   1.0000   1.0000
     1.0000   1.0000   1.0000   1.0000   1.0000   1.0000   1.0000   1.0000
     1.0000   1.0000   1.0000   1.0000   1.0000   1.0000   1.0000   1.0000
     1.0000   1.0000   1.0000   1.0000   1.0000   1.0000   1.0000  -0.0000
    -0.0000  -0.0000  -0.0000  -0.0000  -0.0000  -0.0000  -0.0000  -0.0000
    -0.0000  -0.0000  -0.0000  -0.0000  -0.0000  -0.0000  -0.0000  -0.0000
    -0.0000  -0.0000  -0.0000  -0.0000  -0.0000  -0.0000

          k =-1.9654 1.1482 0.3351 (  9928 PWs)   bands (ev):

   -38.6105 -38.6101 -38.6097 -38.6096 -38.5990 -38.5988 -38.5984 -38.5981
   -38.5953 -38.5948 -38.5039 -38.4913 -38.4912 -38.4516 -38.4514 -14.3130
   -14.3113 -14.3047 -14.3035 -14.2988 -14.2968 -14.2946 -14.2922 -14.2920
   -14.2892  -5.0630  -4.7476  -3.5740  -1.1570  -0.1518   5.3545   6.0633
     6.3163   6.4699   6.6852   7.1211   7.6305   7.7044   8.3985   9.6792
    10.5610  10.7768  11.1372  11.6515  11.8840  14.1832  15.2707  15.5457
    15.9971  16.2165  16.9306  16.9441  17.7187  18.4668  18.5865  18.8689
    19.4558  19.7524  19.7534  20.3008  21.3160  21.7350

     occupation numbers 
     1.0000   1.0000   1.0000   1.0000   1.0000   1.0000   1.0000   1.0000
     1.0000   1.0000   1.0000   1.0000   1.0000   1.0000   1.0000   1.0000
     1.0000   1.0000   1.0000   1.0000   1.0000   1.0000   1.0000   1.0000
     1.0000   1.0000   1.0000   1.0000   1.0000   1.0000   1.0000   1.0000
     1.0000   1.0000   1.0000   1.0000   1.0000   1.0000   1.0000  -0.0000
    -0.0000  -0.0000  -0.0000  -0.0000  -0.0000  -0.0000  -0.0000  -0.0000
    -0.0000  -0.0000  -0.0000  -0.0000  -0.0000  -0.0000  -0.0000  -0.0000
    -0.0000  -0.0000  -0.0000  -0.0000  -0.0000  -0.0000

          k =-0.1080 2.2537-0.5017 (  9923 PWs)   bands (ev):

   -38.6105 -38.6101 -38.6099 -38.6094 -38.5989 -38.5988 -38.5983 -38.5977
   -38.5954 -38.5949 -38.5040 -38.4912 -38.4909 -38.4515 -38.4515 -14.3130
   -14.3113 -14.3047 -14.3035 -14.2988 -14.2967 -14.2946 -14.2922 -14.2920
   -14.2892  -5.0483  -4.7708  -3.5608  -1.1628  -0.1541   5.3355   6.2473
     6.3624   6.4142   6.7501   6.7664   7.6814   7.7845   8.4478   9.6055
    10.4873  10.6434  11.2625  11.7574  11.9667  14.3244  15.0129  15.5911
    16.0475  16.3385  16.5460  17.4069  17.6287  17.9954  18.2623  19.0315
    19.2667  19.6495  20.0568  20.9895  21.1383  21.6779

     occupation numbers 
     1.0000   1.0000   1.0000   1.0000   1.0000   1.0000   1.0000   1.0000
     1.0000   1.0000   1.0000   1.0000   1.0000   1.0000   1.0000   1.0000
     1.0000   1.0000   1.0000   1.0000   1.0000   1.0000   1.0000   1.0000
     1.0000   1.0000   1.0000   1.0000   1.0000   1.0000   1.0000   1.0000
     1.0000   1.0000   1.0000   1.0000   1.0000   1.0000   1.0003  -0.0000
    -0.0000  -0.0000  -0.0000  -0.0000  -0.0000  -0.0000  -0.0000  -0.0000
    -0.0000  -0.0000  -0.0000  -0.0000  -0.0000  -0.0000  -0.0000  -0.0000
    -0.0000  -0.0000  -0.0000  -0.0000  -0.0000  -0.0000

          k =-0.4795 2.0326-0.3343 (  9918 PWs)   bands (ev):

   -38.6102 -38.6099 -38.6096 -38.6094 -38.5991 -38.5988 -38.5987 -38.5982
   -38.5949 -38.5947 -38.5036 -38.4916 -38.4911 -38.4516 -38.4510 -14.3150
   -14.3128 -14.3008 -14.3005 -14.2985 -14.2983 -14.2930 -14.2918 -14.2897
   -14.2880  -4.6038  -4.3836  -3.4226  -1.3499  -0.8076   4.6591   4.8976
     5.6521   6.1128   6.3111   7.1164   7.1617   7.6608   7.8124  10.5810
    10.9642  11.1983  11.3083  12.2110  12.3497  14.3482  14.4825  15.0064
    15.7305  17.5877  17.7130  18.4436  18.7754  19.1964  19.5842  20.0645
    20.1102  20.1302  20.6286  21.1972  21.8139  22.0704

     occupation numbers 
     1.0000   1.0000   1.0000   1.0000   1.0000   1.0000   1.0000   1.0000
     1.0000   1.0000   1.0000   1.0000   1.0000   1.0000   1.0000   1.0000
     1.0000   1.0000   1.0000   1.0000   1.0000   1.0000   1.0000   1.0000
     1.0000   1.0000   1.0000   1.0000   1.0000   1.0000   1.0000   1.0000
     1.0000   1.0000   1.0000   1.0000   1.0000   1.0000   1.0000  -0.0000
    -0.0000  -0.0000  -0.0000  -0.0000  -0.0000  -0.0000  -0.0000  -0.0000
    -0.0000  -0.0000  -0.0000  -0.0000  -0.0000  -0.0000  -0.0000  -0.0000
    -0.0000  -0.0000  -0.0000  -0.0000  -0.0000  -0.0000

          k =-0.8510 1.8115-0.1670 (  9872 PWs)   bands (ev):

   -38.6094 -38.6090 -38.6085 -38.6081 -38.5988 -38.5986 -38.5984 -38.5980
   -38.5944 -38.5939 -38.5030 -38.4913 -38.4910 -38.4507 -38.4498 -14.3183
   -14.3154 -14.3022 -14.3000 -14.2986 -14.2952 -14.2915 -14.2899 -14.2858
   -14.2840  -3.9059  -3.7609  -3.4175  -1.7949  -1.5976   4.1340   4.7827
     4.8703   5.1927   5.7646   6.2355   7.5278   7.7785   8.1322  10.1875
    10.5714  10.9728  12.2744  12.6397  13.4758  13.5537  15.2961  15.8659
    16.9998  17.5879  17.8493  19.1913  19.3469  19.7385  20.3161  20.7297
    20.7606  21.1913  21.2030  21.8735  22.4410  22.5587

     occupation numbers 
     1.0000   1.0000   1.0000   1.0000   1.0000   1.0000   1.0000   1.0000
     1.0000   1.0000   1.0000   1.0000   1.0000   1.0000   1.0000   1.0000
     1.0000   1.0000   1.0000   1.0000   1.0000   1.0000   1.0000   1.0000
     1.0000   1.0000   1.0000   1.0000   1.0000   1.0000   1.0000   1.0000
     1.0000   1.0000   1.0000   1.0000   1.0000   1.0000   1.0000  -0.0000
    -0.0000  -0.0000  -0.0000  -0.0000  -0.0000  -0.0000  -0.0000  -0.0000
    -0.0000  -0.0000  -0.0000  -0.0000  -0.0000  -0.0000  -0.0000  -0.0000
    -0.0000  -0.0000  -0.0000  -0.0000  -0.0000  -0.0000

          k =-1.2220-0.7274 0.0022 (  9892 PWs)   bands (ev):

   -38.6102 -38.6090 -38.6087 -38.6079 -38.5991 -38.5988 -38.5987 -38.5985
   -38.5946 -38.5944 -38.5034 -38.4915 -38.4914 -38.4510 -38.4498 -14.3246
   -14.3208 -14.3053 -14.3010 -14.2964 -14.2921 -14.2860 -14.2859 -14.2852
   -14.2837  -3.7758  -3.6720  -3.6399  -1.9598  -1.4570   3.8716   4.6992
     5.1061   5.4331   6.3101   6.9126   7.0076   7.2406   7.7563  10.1097
    10.7095  11.2479  11.6846  12.2166  12.7635  13.7986  15.5668  16.2648
    17.7599  18.2942  19.0597  19.2672  19.4757  19.6249  20.6583  20.7958
    20.8029  20.9228  21.3042  21.5599  21.5774  22.7468

     occupation numbers 
     1.0000   1.0000   1.0000   1.0000   1.0000   1.0000   1.0000   1.0000
     1.0000   1.0000   1.0000   1.0000   1.0000   1.0000   1.0000   1.0000
     1.0000   1.0000   1.0000   1.0000   1.0000   1.0000   1.0000   1.0000
     1.0000   1.0000   1.0000   1.0000   1.0000   1.0000   1.0000   1.0000
     1.0000   1.0000   1.0000   1.0000   1.0000   1.0000   1.0000  -0.0000
    -0.0000  -0.0000  -0.0000  -0.0000  -0.0000  -0.0000  -0.0000  -0.0000
    -0.0000  -0.0000  -0.0000  -0.0000  -0.0000  -0.0000  -0.0000  -0.0000
    -0.0000  -0.0000  -0.0000  -0.0000  -0.0000  -0.0000

          k =-1.5935-0.9484 0.1696 (  9880 PWs)   bands (ev):

   -38.6100 -38.6092 -38.6090 -38.6083 -38.5987 -38.5986 -38.5980 -38.5980
   -38.5948 -38.5943 -38.5034 -38.4910 -38.4910 -38.4511 -38.4502 -14.3203
   -14.3173 -14.3026 -14.2986 -14.2960 -14.2938 -14.2910 -14.2899 -14.2888
   -14.2877  -4.4363  -4.1594  -3.4441  -1.4271  -1.0815   4.1299   5.1138
     5.6972   5.7775   6.4573   6.7187   7.1920   7.3963   7.8427  10.1318
    11.0001  11.1592  11.6113  12.2095  12.9082  13.2412  15.0810  16.4096
    16.6951  17.5450  17.6001  17.8075  18.1240  18.9624  20.0660  20.4852
    20.9758  21.0493  21.2356  22.2200  22.4419  22.8935

     occupation numbers 
     1.0000   1.0000   1.0000   1.0000   1.0000   1.0000   1.0000   1.0000
     1.0000   1.0000   1.0000   1.0000   1.0000   1.0000   1.0000   1.0000
     1.0000   1.0000   1.0000   1.0000   1.0000   1.0000   1.0000   1.0000
     1.0000   1.0000   1.0000   1.0000   1.0000   1.0000   1.0000   1.0000
     1.0000   1.0000   1.0000   1.0000   1.0000   1.0000   1.0000  -0.0000
    -0.0000  -0.0000  -0.0000  -0.0000  -0.0000  -0.0000  -0.0000  -0.0000
    -0.0000  -0.0000  -0.0000  -0.0000  -0.0000  -0.0000  -0.0000  -0.0000
    -0.0000  -0.0000  -0.0000  -0.0000  -0.0000  -0.0000

          k =-1.9650-1.1695 0.3369 (  9923 PWs)   bands (ev):

   -38.6105 -38.6101 -38.6099 -38.6094 -38.5989 -38.5988 -38.5983 -38.5977
   -38.5954 -38.5949 -38.5040 -38.4912 -38.4909 -38.4515 -38.4515 -14.3130
   -14.3113 -14.3047 -14.3035 -14.2988 -14.2967 -14.2946 -14.2922 -14.2920
   -14.2892  -5.0483  -4.7708  -3.5608  -1.1628  -0.1541   5.3355   6.2473
     6.3624   6.4142   6.7501   6.7664   7.6814   7.7845   8.4478   9.6055
    10.4873  10.6434  11.2625  11.7574  11.9667  14.3244  15.0129  15.5911
    16.0475  16.3385  16.5460  17.4069  17.6287  17.9954  18.2623  19.0315
    19.2667  19.6495  20.0568  20.9896  21.1383  21.6779

     occupation numbers 
     1.0000   1.0000   1.0000   1.0000   1.0000   1.0000   1.0000   1.0000
     1.0000   1.0000   1.0000   1.0000   1.0000   1.0000   1.0000   1.0000
     1.0000   1.0000   1.0000   1.0000   1.0000   1.0000   1.0000   1.0000
     1.0000   1.0000   1.0000   1.0000   1.0000   1.0000   1.0000   1.0000
     1.0000   1.0000   1.0000   1.0000   1.0000   1.0000   1.0003  -0.0000
    -0.0000  -0.0000  -0.0000  -0.0000  -0.0000  -0.0000  -0.0000  -0.0000
    -0.0000  -0.0000  -0.0000  -0.0000  -0.0000  -0.0000  -0.0000  -0.0000
    -0.0000  -0.0000  -0.0000  -0.0000  -0.0000  -0.0000

          k =-0.1076-0.0641-0.4998 (  9894 PWs)   bands (ev):

   -38.6094 -38.6094 -38.6092 -38.6092 -38.5986 -38.5986 -38.5980 -38.5980
   -38.5950 -38.5948 -38.5037 -38.4910 -38.4910 -38.4507 -38.4507 -14.3104
   -14.3104 -14.3092 -14.3092 -14.3019 -14.3000 -14.2911 -14.2911 -14.2890
   -14.2890  -5.2734  -4.9985  -3.6492  -1.1273   0.2600   6.2493   6.8925
     6.8925   7.2278   7.2278   7.2443   7.4652   7.4652   8.2760   9.3623
    10.4186  10.4186  10.7571  11.1246  11.1246  14.6550  15.5107  15.5107
    15.7667  16.0616  17.2572  17.6465  17.6465  17.6794  18.0012  18.0012
    18.3479  18.7543  18.7543  19.1962  19.1962  21.9988

     occupation numbers 
     1.0000   1.0000   1.0000   1.0000   1.0000   1.0000   1.0000   1.0000
     1.0000   1.0000   1.0000   1.0000   1.0000   1.0000   1.0000   1.0000
     1.0000   1.0000   1.0000   1.0000   1.0000   1.0000   1.0000   1.0000
     1.0000   1.0000   1.0000   1.0000   1.0000   1.0000   1.0000   1.0000
     1.0000   1.0000   1.0000   1.0000   1.0000   1.0000   1.0000  -0.0000
    -0.0000  -0.0000  -0.0000  -0.0000  -0.0000  -0.0000  -0.0000  -0.0000
    -0.0000  -0.0000  -0.0000  -0.0000  -0.0000  -0.0000  -0.0000  -0.0000
    -0.0000  -0.0000  -0.0000  -0.0000  -0.0000  -0.0000

          k =-0.4791-0.2852-0.3325 (  9923 PWs)   bands (ev):

   -38.6105 -38.6101 -38.6099 -38.6094 -38.5989 -38.5988 -38.5983 -38.5977
   -38.5954 -38.5949 -38.5040 -38.4912 -38.4909 -38.4515 -38.4515 -14.3130
   -14.3113 -14.3047 -14.3035 -14.2988 -14.2967 -14.2946 -14.2922 -14.2920
   -14.2892  -5.0483  -4.7708  -3.5608  -1.1628  -0.1541   5.3355   6.2473
     6.3624   6.4142   6.7501   6.7664   7.6814   7.7845   8.4478   9.6055
    10.4873  10.6434  11.2625  11.7574  11.9667  14.3244  15.0129  15.5911
    16.0475  16.3385  16.5460  17.4069  17.6287  17.9954  18.2623  19.0315
    19.2667  19.6495  20.0568  20.9896  21.1383  21.6780

     occupation numbers 
     1.0000   1.0000   1.0000   1.0000   1.0000   1.0000   1.0000   1.0000
     1.0000   1.0000   1.0000   1.0000   1.0000   1.0000   1.0000   1.0000
     1.0000   1.0000   1.0000   1.0000   1.0000   1.0000   1.0000   1.0000
     1.0000   1.0000   1.0000   1.0000   1.0000   1.0000   1.0000   1.0000
     1.0000   1.0000   1.0000   1.0000   1.0000   1.0000   1.0003  -0.0000
    -0.0000  -0.0000  -0.0000  -0.0000  -0.0000  -0.0000  -0.0000  -0.0000
    -0.0000  -0.0000  -0.0000  -0.0000  -0.0000  -0.0000  -0.0000  -0.0000
    -0.0000  -0.0000  -0.0000  -0.0000  -0.0000  -0.0000

          k =-0.8506-0.5063-0.1651 (  9880 PWs)   bands (ev):

   -38.6100 -38.6092 -38.6090 -38.6083 -38.5987 -38.5986 -38.5980 -38.5980
   -38.5948 -38.5943 -38.5034 -38.4910 -38.4910 -38.4511 -38.4502 -14.3203
   -14.3173 -14.3026 -14.2986 -14.2960 -14.2938 -14.2910 -14.2899 -14.2888
   -14.2877  -4.4363  -4.1594  -3.4441  -1.4271  -1.0815   4.1299   5.1138
     5.6972   5.7775   6.4573   6.7187   7.1920   7.3963   7.8427  10.1318
    11.0001  11.1592  11.6113  12.2095  12.9082  13.2412  15.0810  16.4096
    16.6951  17.5450  17.6001  17.8075  18.1240  18.9624  20.0660  20.4852
    20.9758  21.0493  21.2356  22.2200  22.4419  22.8935

     occupation numbers 
     1.0000   1.0000   1.0000   1.0000   1.0000   1.0000   1.0000   1.0000
     1.0000   1.0000   1.0000   1.0000   1.0000   1.0000   1.0000   1.0000
     1.0000   1.0000   1.0000   1.0000   1.0000   1.0000   1.0000   1.0000
     1.0000   1.0000   1.0000   1.0000   1.0000   1.0000   1.0000   1.0000
     1.0000   1.0000   1.0000   1.0000   1.0000   1.0000   1.0000  -0.0000
    -0.0000  -0.0000  -0.0000  -0.0000  -0.0000  -0.0000  -0.0000  -0.0000
    -0.0000  -0.0000  -0.0000  -0.0000  -0.0000  -0.0000  -0.0000  -0.0000
    -0.0000  -0.0000  -0.0000  -0.0000  -0.0000  -0.0000

          k =-1.2221-0.2638 0.0019 (  9871 PWs)   bands (ev):

   -38.6093 -38.6091 -38.6085 -38.6079 -38.5988 -38.5986 -38.5984 -38.5979
   -38.5945 -38.5941 -38.5031 -38.4913 -38.4909 -38.4507 -38.4497 -14.3184
   -14.3154 -14.3022 -14.3000 -14.2986 -14.2952 -14.2915 -14.2899 -14.2858
   -14.2840  -3.9460  -3.6876  -3.4497  -1.8113  -1.5821   4.0008   4.8432
     5.0985   5.3577   5.5898   6.0562   7.3355   7.9758   8.1490  10.2675
    10.3516  11.1306  12.3957  12.7464  13.2449  13.4490  15.6353  16.1491
    16.7252  17.1244  17.7493  19.1942  19.2534  19.6917  20.4383  20.5448
    20.9359  21.1483  21.5575  22.2125  22.4376  23.0000

     occupation numbers 
     1.0000   1.0000   1.0000   1.0000   1.0000   1.0000   1.0000   1.0000
     1.0000   1.0000   1.0000   1.0000   1.0000   1.0000   1.0000   1.0000
     1.0000   1.0000   1.0000   1.0000   1.0000   1.0000   1.0000   1.0000
     1.0000   1.0000   1.0000   1.0000   1.0000   1.0000   1.0000   1.0000
     1.0000   1.0000   1.0000   1.0000   1.0000   1.0000   1.0000  -0.0000
    -0.0000  -0.0000  -0.0000  -0.0000  -0.0000  -0.0000  -0.0000  -0.0000
    -0.0000  -0.0000  -0.0000  -0.0000  -0.0000  -0.0000  -0.0000  -0.0000
    -0.0000  -0.0000  -0.0000  -0.0000  -0.0000  -0.0000

          k =-1.5936-0.4849 0.1692 (  9872 PWs)   bands (ev):

   -38.6094 -38.6090 -38.6085 -38.6081 -38.5988 -38.5986 -38.5984 -38.5980
   -38.5944 -38.5939 -38.5030 -38.4913 -38.4910 -38.4507 -38.4498 -14.3183
   -14.3154 -14.3022 -14.3000 -14.2986 -14.2952 -14.2915 -14.2899 -14.2858
   -14.2840  -3.9059  -3.7609  -3.4175  -1.7949  -1.5976   4.1340   4.7827
     4.8703   5.1927   5.7646   6.2355   7.5278   7.7785   8.1322  10.1875
    10.5714  10.9728  12.2744  12.6397  13.4758  13.5537  15.2961  15.8659
    16.9998  17.5879  17.8493  19.1913  19.3469  19.7385  20.3161  20.7297
    20.7606  21.1913  21.2030  21.8735  22.4411  22.5587

     occupation numbers 
     1.0000   1.0000   1.0000   1.0000   1.0000   1.0000   1.0000   1.0000
     1.0000   1.0000   1.0000   1.0000   1.0000   1.0000   1.0000   1.0000
     1.0000   1.0000   1.0000   1.0000   1.0000   1.0000   1.0000   1.0000
     1.0000   1.0000   1.0000   1.0000   1.0000   1.0000   1.0000   1.0000
     1.0000   1.0000   1.0000   1.0000   1.0000   1.0000   1.0000  -0.0000
    -0.0000  -0.0000  -0.0000  -0.0000  -0.0000  -0.0000  -0.0000  -0.0000
    -0.0000  -0.0000  -0.0000  -0.0000  -0.0000  -0.0000  -0.0000  -0.0000
    -0.0000  -0.0000  -0.0000  -0.0000  -0.0000  -0.0000

          k =-1.9650-0.7060 0.3366 (  9918 PWs)   bands (ev):

   -38.6102 -38.6099 -38.6096 -38.6094 -38.5991 -38.5988 -38.5987 -38.5982
   -38.5949 -38.5947 -38.5036 -38.4916 -38.4911 -38.4516 -38.4510 -14.3150
   -14.3128 -14.3008 -14.3005 -14.2985 -14.2983 -14.2930 -14.2918 -14.2897
   -14.2880  -4.6038  -4.3836  -3.4226  -1.3499  -0.8076   4.6591   4.8976
     5.6521   6.1128   6.3111   7.1164   7.1617   7.6608   7.8124  10.5810
    10.9642  11.1983  11.3083  12.2110  12.3497  14.3482  14.4825  15.0064
    15.7305  17.5877  17.7130  18.4436  18.7754  19.1964  19.5842  20.0645
    20.1102  20.1302  20.6286  21.1972  21.8139  22.0704

     occupation numbers 
     1.0000   1.0000   1.0000   1.0000   1.0000   1.0000   1.0000   1.0000
     1.0000   1.0000   1.0000   1.0000   1.0000   1.0000   1.0000   1.0000
     1.0000   1.0000   1.0000   1.0000   1.0000   1.0000   1.0000   1.0000
     1.0000   1.0000   1.0000   1.0000   1.0000   1.0000   1.0000   1.0000
     1.0000   1.0000   1.0000   1.0000   1.0000   1.0000   1.0000  -0.0000
    -0.0000  -0.0000  -0.0000  -0.0000  -0.0000  -0.0000  -0.0000  -0.0000
    -0.0000  -0.0000  -0.0000  -0.0000  -0.0000  -0.0000  -0.0000  -0.0000
    -0.0000  -0.0000  -0.0000  -0.0000  -0.0000  -0.0000

          k =-0.1077 0.3995-0.5002 (  9923 PWs)   bands (ev):

   -38.6105 -38.6101 -38.6099 -38.6094 -38.5989 -38.5988 -38.5983 -38.5977
   -38.5954 -38.5949 -38.5040 -38.4912 -38.4909 -38.4515 -38.4515 -14.3130
   -14.3113 -14.3047 -14.3035 -14.2988 -14.2967 -14.2946 -14.2922 -14.2920
   -14.2892  -5.0483  -4.7708  -3.5608  -1.1628  -0.1541   5.3355   6.2473
     6.3624   6.4142   6.7501   6.7664   7.6814   7.7845   8.4478   9.6055
    10.4873  10.6434  11.2625  11.7574  11.9667  14.3244  15.0129  15.5911
    16.0475  16.3385  16.5460  17.4069  17.6287  17.9954  18.2623  19.0315
    19.2667  19.6495  20.0568  20.9895  21.1383  21.6779

     occupation numbers 
     1.0000   1.0000   1.0000   1.0000   1.0000   1.0000   1.0000   1.0000
     1.0000   1.0000   1.0000   1.0000   1.0000   1.0000   1.0000   1.0000
     1.0000   1.0000   1.0000   1.0000   1.0000   1.0000   1.0000   1.0000
     1.0000   1.0000   1.0000   1.0000   1.0000   1.0000   1.0000   1.0000
     1.0000   1.0000   1.0000   1.0000   1.0000   1.0000   1.0003  -0.0000
    -0.0000  -0.0000  -0.0000  -0.0000  -0.0000  -0.0000  -0.0000  -0.0000
    -0.0000  -0.0000  -0.0000  -0.0000  -0.0000  -0.0000  -0.0000  -0.0000
    -0.0000  -0.0000  -0.0000  -0.0000  -0.0000  -0.0000

          k =-0.4792 0.1784-0.3328 (  9928 PWs)   bands (ev):

   -38.6105 -38.6101 -38.6097 -38.6096 -38.5990 -38.5988 -38.5984 -38.5981
   -38.5953 -38.5948 -38.5039 -38.4913 -38.4912 -38.4516 -38.4514 -14.3130
   -14.3113 -14.3047 -14.3035 -14.2988 -14.2968 -14.2946 -14.2922 -14.2920
   -14.2892  -5.0630  -4.7476  -3.5740  -1.1570  -0.1518   5.3545   6.0633
     6.3163   6.4699   6.6852   7.1211   7.6305   7.7044   8.3985   9.6792
    10.5610  10.7768  11.1372  11.6515  11.8840  14.1832  15.2707  15.5457
    15.9971  16.2165  16.9306  16.9441  17.7187  18.4668  18.5865  18.8689
    19.4558  19.7524  19.7534  20.3008  21.3160  21.7350

     occupation numbers 
     1.0000   1.0000   1.0000   1.0000   1.0000   1.0000   1.0000   1.0000
     1.0000   1.0000   1.0000   1.0000   1.0000   1.0000   1.0000   1.0000
     1.0000   1.0000   1.0000   1.0000   1.0000   1.0000   1.0000   1.0000
     1.0000   1.0000   1.0000   1.0000   1.0000   1.0000   1.0000   1.0000
     1.0000   1.0000   1.0000   1.0000   1.0000   1.0000   1.0000  -0.0000
    -0.0000  -0.0000  -0.0000  -0.0000  -0.0000  -0.0000  -0.0000  -0.0000
    -0.0000  -0.0000  -0.0000  -0.0000  -0.0000  -0.0000  -0.0000  -0.0000
    -0.0000  -0.0000  -0.0000  -0.0000  -0.0000  -0.0000

          k =-0.8506-0.0427-0.1655 (  9898 PWs)   bands (ev):

   -38.6099 -38.6097 -38.6094 -38.6089 -38.5989 -38.5987 -38.5982 -38.5979
   -38.5950 -38.5944 -38.5035 -38.4912 -38.4910 -38.4513 -38.4507 -14.3150
   -14.3128 -14.3008 -14.3005 -14.2985 -14.2983 -14.2930 -14.2918 -14.2898
   -14.2880  -4.6449  -4.3164  -3.4592  -1.3232  -0.8239   4.6800   4.9457
     5.6001   6.0607   6.3398   6.7767   7.3485   7.8133   7.9360  10.4583
    10.6526  11.1876  11.5194  12.2446  12.4838  14.2312  14.3063  15.3529
    15.9827  17.4203  17.7177  18.2613  18.5499  19.0584  19.5760  19.8386
    19.9995  20.2292  20.7194  21.4316  22.1092  22.2518

     occupation numbers 
     1.0000   1.0000   1.0000   1.0000   1.0000   1.0000   1.0000   1.0000
     1.0000   1.0000   1.0000   1.0000   1.0000   1.0000   1.0000   1.0000
     1.0000   1.0000   1.0000   1.0000   1.0000   1.0000   1.0000   1.0000
     1.0000   1.0000   1.0000   1.0000   1.0000   1.0000   1.0000   1.0000
     1.0000   1.0000   1.0000   1.0000   1.0000   1.0000   1.0000  -0.0000
    -0.0000  -0.0000  -0.0000  -0.0000  -0.0000  -0.0000  -0.0000  -0.0000
    -0.0000  -0.0000  -0.0000  -0.0000  -0.0000  -0.0000  -0.0000  -0.0000
    -0.0000  -0.0000  -0.0000  -0.0000  -0.0000  -0.0000

          k =-1.2222 0.1997 0.0015 (  9884 PWs)   bands (ev):

   -38.6096 -38.6091 -38.6088 -38.6084 -38.5991 -38.5989 -38.5983 -38.5981
   -38.5943 -38.5942 -38.5031 -38.4916 -38.4910 -38.4508 -38.4500 -14.3184
   -14.3154 -14.3022 -14.2999 -14.2985 -14.2952 -14.2915 -14.2899 -14.2859
   -14.2840  -3.9316  -3.7311  -3.4159  -1.8212  -1.5764   3.9548   4.6331
     5.0837   5.3138   6.1924   6.6015   7.1349   7.1980   7.6920  10.7457
    11.1144  11.3449  11.9074  12.3060  13.1783  13.8555  14.7633  15.6267
    17.6099  17.8205  18.3964  19.1440  19.4249  19.6439  19.7281  20.4917
    20.7440  21.0886  21.2001  21.4799  21.7979  22.6351

     occupation numbers 
     1.0000   1.0000   1.0000   1.0000   1.0000   1.0000   1.0000   1.0000
     1.0000   1.0000   1.0000   1.0000   1.0000   1.0000   1.0000   1.0000
     1.0000   1.0000   1.0000   1.0000   1.0000   1.0000   1.0000   1.0000
     1.0000   1.0000   1.0000   1.0000   1.0000   1.0000   1.0000   1.0000
     1.0000   1.0000   1.0000   1.0000   1.0000   1.0000   1.0000  -0.0000
    -0.0000  -0.0000  -0.0000  -0.0000  -0.0000  -0.0000  -0.0000  -0.0000
    -0.0000  -0.0000  -0.0000  -0.0000  -0.0000  -0.0000  -0.0000  -0.0000
    -0.0000  -0.0000  -0.0000  -0.0000  -0.0000  -0.0000

          k =-1.5937-0.0214 0.1688 (  9892 PWs)   bands (ev):

   -38.6095 -38.6093 -38.6091 -38.6088 -38.5990 -38.5984 -38.5983 -38.5978
   -38.5948 -38.5945 -38.5035 -38.4911 -38.4910 -38.4508 -38.4506 -14.3109
   -14.3108 -14.3067 -14.2986 -14.2952 -14.2950 -14.2949 -14.2937 -14.2865
   -14.2863  -3.4706  -3.4680  -3.4615  -2.0233  -2.0053   4.0435   4.5529
     4.5857   5.0268   5.7682   6.1618   6.9404   7.7087   7.9917  10.4854
    11.0297  11.5235  12.4814  12.9861  13.0199  15.0594  15.6860  15.9065
    16.0329  16.4049  17.8064  18.4988  19.0381  19.9750  20.0997  20.5737
    20.7036  21.2626  22.3234  22.4173  23.2744  23.4249

     occupation numbers 
     1.0000   1.0000   1.0000   1.0000   1.0000   1.0000   1.0000   1.0000
     1.0000   1.0000   1.0000   1.0000   1.0000   1.0000   1.0000   1.0000
     1.0000   1.0000   1.0000   1.0000   1.0000   1.0000   1.0000   1.0000
     1.0000   1.0000   1.0000   1.0000   1.0000   1.0000   1.0000   1.0000
     1.0000   1.0000   1.0000   1.0000   1.0000   1.0000   1.0000  -0.0000
    -0.0000  -0.0000  -0.0000  -0.0000  -0.0000  -0.0000  -0.0000  -0.0000
    -0.0000  -0.0000  -0.0000  -0.0000  -0.0000  -0.0000  -0.0000  -0.0000
    -0.0000  -0.0000  -0.0000  -0.0000  -0.0000  -0.0000

          k =-1.9651-0.2424 0.3362 (  9872 PWs)   bands (ev):

   -38.6094 -38.6090 -38.6085 -38.6081 -38.5988 -38.5986 -38.5984 -38.5980
   -38.5944 -38.5939 -38.5030 -38.4913 -38.4910 -38.4507 -38.4498 -14.3183
   -14.3154 -14.3022 -14.3000 -14.2986 -14.2952 -14.2915 -14.2899 -14.2858
   -14.2840  -3.9059  -3.7609  -3.4175  -1.7949  -1.5976   4.1340   4.7827
     4.8703   5.1927   5.7646   6.2355   7.5278   7.7785   8.1322  10.1875
    10.5714  10.9728  12.2744  12.6397  13.4758  13.5537  15.2961  15.8659
    16.9998  17.5879  17.8493  19.1913  19.3469  19.7385  20.3161  20.7297
    20.7606  21.1913  21.2030  21.8735  22.4410  22.5587

     occupation numbers 
     1.0000   1.0000   1.0000   1.0000   1.0000   1.0000   1.0000   1.0000
     1.0000   1.0000   1.0000   1.0000   1.0000   1.0000   1.0000   1.0000
     1.0000   1.0000   1.0000   1.0000   1.0000   1.0000   1.0000   1.0000
     1.0000   1.0000   1.0000   1.0000   1.0000   1.0000   1.0000   1.0000
     1.0000   1.0000   1.0000   1.0000   1.0000   1.0000   1.0000  -0.0000
    -0.0000  -0.0000  -0.0000  -0.0000  -0.0000  -0.0000  -0.0000  -0.0000
    -0.0000  -0.0000  -0.0000  -0.0000  -0.0000  -0.0000  -0.0000  -0.0000
    -0.0000  -0.0000  -0.0000  -0.0000  -0.0000  -0.0000

          k =-0.1078 0.8630-0.5005 (  9880 PWs)   bands (ev):

   -38.6100 -38.6092 -38.6090 -38.6083 -38.5987 -38.5986 -38.5980 -38.5980
   -38.5948 -38.5943 -38.5034 -38.4910 -38.4910 -38.4511 -38.4502 -14.3203
   -14.3173 -14.3026 -14.2986 -14.2960 -14.2938 -14.2910 -14.2899 -14.2888
   -14.2877  -4.4363  -4.1594  -3.4441  -1.4271  -1.0815   4.1299   5.1138
     5.6972   5.7775   6.4573   6.7187   7.1920   7.3963   7.8427  10.1318
    11.0001  11.1592  11.6113  12.2095  12.9082  13.2412  15.0810  16.4096
    16.6951  17.5450  17.6001  17.8075  18.1240  18.9624  20.0660  20.4852
    20.9758  21.0493  21.2356  22.2200  22.4419  22.8936

     occupation numbers 
     1.0000   1.0000   1.0000   1.0000   1.0000   1.0000   1.0000   1.0000
     1.0000   1.0000   1.0000   1.0000   1.0000   1.0000   1.0000   1.0000
     1.0000   1.0000   1.0000   1.0000   1.0000   1.0000   1.0000   1.0000
     1.0000   1.0000   1.0000   1.0000   1.0000   1.0000   1.0000   1.0000
     1.0000   1.0000   1.0000   1.0000   1.0000   1.0000   1.0000  -0.0000
    -0.0000  -0.0000  -0.0000  -0.0000  -0.0000  -0.0000  -0.0000  -0.0000
    -0.0000  -0.0000  -0.0000  -0.0000  -0.0000  -0.0000  -0.0000  -0.0000
    -0.0000  -0.0000  -0.0000  -0.0000  -0.0000  -0.0000

          k =-0.4793 0.6419-0.3332 (  9898 PWs)   bands (ev):

   -38.6099 -38.6097 -38.6094 -38.6089 -38.5989 -38.5987 -38.5982 -38.5979
   -38.5950 -38.5944 -38.5035 -38.4912 -38.4910 -38.4513 -38.4507 -14.3150
   -14.3128 -14.3008 -14.3005 -14.2985 -14.2983 -14.2930 -14.2918 -14.2898
   -14.2880  -4.6449  -4.3164  -3.4592  -1.3232  -0.8239   4.6800   4.9457
     5.6001   6.0607   6.3398   6.7767   7.3485   7.8133   7.9360  10.4583
    10.6526  11.1876  11.5194  12.2446  12.4838  14.2312  14.3063  15.3529
    15.9827  17.4203  17.7177  18.2613  18.5499  19.0584  19.5760  19.8386
    19.9995  20.2292  20.7194  21.4316  22.1093  22.2521

     occupation numbers 
     1.0000   1.0000   1.0000   1.0000   1.0000   1.0000   1.0000   1.0000
     1.0000   1.0000   1.0000   1.0000   1.0000   1.0000   1.0000   1.0000
     1.0000   1.0000   1.0000   1.0000   1.0000   1.0000   1.0000   1.0000
     1.0000   1.0000   1.0000   1.0000   1.0000   1.0000   1.0000   1.0000
     1.0000   1.0000   1.0000   1.0000   1.0000   1.0000   1.0000  -0.0000
    -0.0000  -0.0000  -0.0000  -0.0000  -0.0000  -0.0000  -0.0000  -0.0000
    -0.0000  -0.0000  -0.0000  -0.0000  -0.0000  -0.0000  -0.0000  -0.0000
    -0.0000  -0.0000  -0.0000  -0.0000  -0.0000  -0.0000

          k =-0.8507 0.4208-0.1659 (  9894 PWs)   bands (ev):

   -38.6101 -38.6091 -38.6091 -38.6086 -38.5990 -38.5989 -38.5986 -38.5982
   -38.5945 -38.5943 -38.5033 -38.4914 -38.4913 -38.4511 -38.4504 -14.3203
   -14.3172 -14.3026 -14.2986 -14.2960 -14.2938 -14.2910 -14.2900 -14.2888
   -14.2876  -4.4517  -4.1415  -3.4357  -1.5101  -1.0086   4.3198   4.9031
     5.7165   5.8322   6.1650   6.2975   7.6417   7.6963   8.3278   9.5846
    10.7066  10.7665  11.7819  12.4393  13.2168  13.2923  15.0198  15.9920
    17.1686  17.5600  17.5786  18.1050  18.8162  19.2758  19.5453  20.0171
    20.3404  20.7568  21.3506  21.6192  21.9227  22.6120

     occupation numbers 
     1.0000   1.0000   1.0000   1.0000   1.0000   1.0000   1.0000   1.0000
     1.0000   1.0000   1.0000   1.0000   1.0000   1.0000   1.0000   1.0000
     1.0000   1.0000   1.0000   1.0000   1.0000   1.0000   1.0000   1.0000
     1.0000   1.0000   1.0000   1.0000   1.0000   1.0000   1.0000   1.0000
     1.0000   1.0000   1.0000   1.0000   1.0000   1.0000   1.0000  -0.0000
    -0.0000  -0.0000  -0.0000  -0.0000  -0.0000  -0.0000  -0.0000  -0.0000
    -0.0000  -0.0000  -0.0000  -0.0000  -0.0000  -0.0000  -0.0000  -0.0000
    -0.0000  -0.0000  -0.0000  -0.0000  -0.0000  -0.0000

          k =-0.8148 0.4422 0.0007 (  9889 PWs)   bands (ev):

   -38.6102 -38.6095 -38.6091 -38.6086 -38.5988 -38.5987 -38.5983 -38.5980
   -38.5946 -38.5940 -38.5031 -38.4912 -38.4911 -38.4512 -38.4505 -14.3203
   -14.3172 -14.3026 -14.2986 -14.2960 -14.2938 -14.2910 -14.2900 -14.2888
   -14.2876  -4.4986  -4.0382  -3.5039  -1.5008  -1.0030   4.1702   5.2198
     5.5755   5.8008   6.2201   6.4743   7.3849   7.5952   8.1665   9.7854
    10.8117  11.0461  11.7520  12.3176  13.0377  13.1754  15.2732  15.9710
    17.4316  17.4635  17.7177  17.9966  18.5441  19.4749  19.5935  19.5963
    19.9977  20.2456  21.2101  22.1959  22.4332  22.7522

     occupation numbers 
     1.0000   1.0000   1.0000   1.0000   1.0000   1.0000   1.0000   1.0000
     1.0000   1.0000   1.0000   1.0000   1.0000   1.0000   1.0000   1.0000
     1.0000   1.0000   1.0000   1.0000   1.0000   1.0000   1.0000   1.0000
     1.0000   1.0000   1.0000   1.0000   1.0000   1.0000   1.0000   1.0000
     1.0000   1.0000   1.0000   1.0000   1.0000   1.0000   1.0000  -0.0000
    -0.0000  -0.0000  -0.0000  -0.0000  -0.0000  -0.0000  -0.0000  -0.0000
    -0.0000  -0.0000  -0.0000  -0.0000  -0.0000  -0.0000  -0.0000  -0.0000
    -0.0000  -0.0000  -0.0000  -0.0000  -0.0000  -0.0000

          k =-1.1863 0.2211 0.1681 (  9870 PWs)   bands (ev):

   -38.6093 -38.6092 -38.6086 -38.6081 -38.5991 -38.5987 -38.5982 -38.5980
   -38.5941 -38.5938 -38.5028 -38.4914 -38.4909 -38.4508 -38.4499 -14.3184
   -14.3154 -14.3022 -14.2999 -14.2986 -14.2952 -14.2915 -14.2899 -14.2859
   -14.2839  -3.9625  -3.6653  -3.4499  -1.8349  -1.5636   3.8715   4.6697
     5.1527   5.6304   6.0335   6.3039   6.8772   7.5081   7.7495  10.7344
    10.8489  11.6369  12.1090  12.3961  12.8866  13.6450  15.2337  15.6487
    17.1597  17.8102  18.4559  18.8209  19.1920  19.4694  20.1729  20.4380
    20.6993  21.1576  21.5289  21.8568  22.1469  22.5378

     occupation numbers 
     1.0000   1.0000   1.0000   1.0000   1.0000   1.0000   1.0000   1.0000
     1.0000   1.0000   1.0000   1.0000   1.0000   1.0000   1.0000   1.0000
     1.0000   1.0000   1.0000   1.0000   1.0000   1.0000   1.0000   1.0000
     1.0000   1.0000   1.0000   1.0000   1.0000   1.0000   1.0000   1.0000
     1.0000   1.0000   1.0000   1.0000   1.0000   1.0000   1.0000  -0.0000
    -0.0000  -0.0000  -0.0000  -0.0000  -0.0000  -0.0000  -0.0000  -0.0000
    -0.0000  -0.0000  -0.0000  -0.0000  -0.0000  -0.0000  -0.0000  -0.0000
    -0.0000  -0.0000  -0.0000  -0.0000  -0.0000  -0.0000

          k =-1.5578 0.0000 0.3354 (  9886 PWs)   bands (ev):

   -38.6096 -38.6092 -38.6091 -38.6088 -38.5989 -38.5986 -38.5983 -38.5979
   -38.5944 -38.5940 -38.5030 -38.4912 -38.4910 -38.4508 -38.4506 -14.3109
   -14.3108 -14.3067 -14.2986 -14.2952 -14.2950 -14.2949 -14.2937 -14.2865
   -14.2863  -3.4706  -3.4680  -3.4615  -2.0233  -2.0053   4.0446   4.4959
     4.6732   4.9735   5.9345   5.9768   7.0410   7.5769   8.0687  10.4321
    11.2684  11.2974  12.6151  12.7931  13.1145  15.0592  15.7550  15.7610
    16.2195  16.2794  18.0495  18.0996  19.5409  19.6248  20.0652  20.4247
    20.8289  21.4159  22.1934  22.6409  22.9209  23.4907

     occupation numbers 
     1.0000   1.0000   1.0000   1.0000   1.0000   1.0000   1.0000   1.0000
     1.0000   1.0000   1.0000   1.0000   1.0000   1.0000   1.0000   1.0000
     1.0000   1.0000   1.0000   1.0000   1.0000   1.0000   1.0000   1.0000
     1.0000   1.0000   1.0000   1.0000   1.0000   1.0000   1.0000   1.0000
     1.0000   1.0000   1.0000   1.0000   1.0000   1.0000   1.0000  -0.0000
    -0.0000  -0.0000  -0.0000  -0.0000  -0.0000  -0.0000  -0.0000  -0.0000
    -0.0000  -0.0000  -0.0000  -0.0000  -0.0000  -0.0000  -0.0000  -0.0000
    -0.0000  -0.0000  -0.0000  -0.0000  -0.0000  -0.0000

          k = 0.2996 1.1055-0.5013 (  9871 PWs)   bands (ev):

   -38.6093 -38.6091 -38.6085 -38.6079 -38.5988 -38.5986 -38.5984 -38.5979
   -38.5945 -38.5941 -38.5031 -38.4913 -38.4909 -38.4507 -38.4497 -14.3184
   -14.3154 -14.3022 -14.3000 -14.2986 -14.2952 -14.2915 -14.2899 -14.2858
   -14.2840  -3.9460  -3.6876  -3.4497  -1.8113  -1.5821   4.0008   4.8432
     5.0985   5.3577   5.5898   6.0562   7.3355   7.9758   8.1490  10.2675
    10.3516  11.1306  12.3957  12.7464  13.2449  13.4490  15.6353  16.1491
    16.7252  17.1244  17.7493  19.1942  19.2534  19.6917  20.4383  20.5448
    20.9359  21.1483  21.5575  22.2125  22.4375  23.0003

     occupation numbers 
     1.0000   1.0000   1.0000   1.0000   1.0000   1.0000   1.0000   1.0000
     1.0000   1.0000   1.0000   1.0000   1.0000   1.0000   1.0000   1.0000
     1.0000   1.0000   1.0000   1.0000   1.0000   1.0000   1.0000   1.0000
     1.0000   1.0000   1.0000   1.0000   1.0000   1.0000   1.0000   1.0000
     1.0000   1.0000   1.0000   1.0000   1.0000   1.0000   1.0000  -0.0000
    -0.0000  -0.0000  -0.0000  -0.0000  -0.0000  -0.0000  -0.0000  -0.0000
    -0.0000  -0.0000  -0.0000  -0.0000  -0.0000  -0.0000  -0.0000  -0.0000
    -0.0000  -0.0000  -0.0000  -0.0000  -0.0000  -0.0000

          k =-0.0719 0.8844-0.3339 (  9894 PWs)   bands (ev):

   -38.6102 -38.6095 -38.6093 -38.6087 -38.5990 -38.5988 -38.5983 -38.5980
   -38.5949 -38.5941 -38.5033 -38.4913 -38.4911 -38.4513 -38.4505 -14.3203
   -14.3172 -14.3026 -14.2986 -14.2960 -14.2937 -14.2910 -14.2899 -14.2888
   -14.2877  -4.4883  -4.0513  -3.5117  -1.4182  -1.0760   4.0415   5.2552
     5.6832   5.9082   6.5107   6.6708   7.1823   7.3369   7.5143  10.3221
    11.1557  11.4923  11.5745  12.0353  12.6329  13.0982  15.4148  16.4855
    16.8599  17.0687  17.4882  17.8195  18.5782  19.0416  19.5194  20.2117
    20.3986  20.8646  21.7672  22.0576  22.8845  23.1418

     occupation numbers 
     1.0000   1.0000   1.0000   1.0000   1.0000   1.0000   1.0000   1.0000
     1.0000   1.0000   1.0000   1.0000   1.0000   1.0000   1.0000   1.0000
     1.0000   1.0000   1.0000   1.0000   1.0000   1.0000   1.0000   1.0000
     1.0000   1.0000   1.0000   1.0000   1.0000   1.0000   1.0000   1.0000
     1.0000   1.0000   1.0000   1.0000   1.0000   1.0000   1.0000  -0.0000
    -0.0000  -0.0000  -0.0000  -0.0000  -0.0000  -0.0000  -0.0000  -0.0000
    -0.0000  -0.0000  -0.0000  -0.0000  -0.0000  -0.0000  -0.0000  -0.0000
    -0.0000  -0.0000  -0.0000  -0.0000  -0.0000  -0.0000

          k =-0.4434 0.6633-0.1666 (  9901 PWs)   bands (ev):

   -38.6102 -38.6099 -38.6093 -38.6089 -38.5990 -38.5986 -38.5983 -38.5979
   -38.5948 -38.5944 -38.5035 -38.4912 -38.4911 -38.4515 -38.4506 -14.3150
   -14.3128 -14.3008 -14.3005 -14.2985 -14.2983 -14.2930 -14.2918 -14.2898
   -14.2880  -4.6979  -4.2012  -3.5419  -1.2650  -0.8619   4.7482   5.0054
     5.5518   6.0767   6.1451   6.5176   7.5528   8.0569   8.0887  10.1827
    10.4327  10.9842  11.7255  12.4608  12.6230  14.0739  14.1140  15.9867
    16.5632  17.1568  17.4795  17.8729  18.3549  18.7167  18.8142  19.6583
    20.3039  20.5845  21.0501  21.8216  22.2050  22.3897

     occupation numbers 
     1.0000   1.0000   1.0000   1.0000   1.0000   1.0000   1.0000   1.0000
     1.0000   1.0000   1.0000   1.0000   1.0000   1.0000   1.0000   1.0000
     1.0000   1.0000   1.0000   1.0000   1.0000   1.0000   1.0000   1.0000
     1.0000   1.0000   1.0000   1.0000   1.0000   1.0000   1.0000   1.0000
     1.0000   1.0000   1.0000   1.0000   1.0000   1.0000   1.0000  -0.0000
    -0.0000  -0.0000  -0.0000  -0.0000  -0.0000  -0.0000  -0.0000  -0.0000
    -0.0000  -0.0000  -0.0000  -0.0000  -0.0000  -0.0000  -0.0000  -0.0000
    -0.0000  -0.0000  -0.0000  -0.0000  -0.0000  -0.0000

          k =-0.8149 0.9057 0.0004 (  9870 PWs)   bands (ev):

   -38.6093 -38.6092 -38.6086 -38.6081 -38.5991 -38.5987 -38.5982 -38.5980
   -38.5941 -38.5938 -38.5028 -38.4914 -38.4909 -38.4508 -38.4499 -14.3184
   -14.3154 -14.3022 -14.2999 -14.2986 -14.2952 -14.2915 -14.2899 -14.2859
   -14.2839  -3.9625  -3.6653  -3.4499  -1.8349  -1.5636   3.8715   4.6697
     5.1527   5.6304   6.0335   6.3039   6.8772   7.5081   7.7495  10.7344
    10.8489  11.6369  12.1090  12.3961  12.8866  13.6450  15.2337  15.6487
    17.1597  17.8102  18.4559  18.8209  19.1920  19.4694  20.1729  20.4380
    20.6993  21.1576  21.5289  21.8568  22.1469  22.5378

     occupation numbers 
     1.0000   1.0000   1.0000   1.0000   1.0000   1.0000   1.0000   1.0000
     1.0000   1.0000   1.0000   1.0000   1.0000   1.0000   1.0000   1.0000
     1.0000   1.0000   1.0000   1.0000   1.0000   1.0000   1.0000   1.0000
     1.0000   1.0000   1.0000   1.0000   1.0000   1.0000   1.0000   1.0000
     1.0000   1.0000   1.0000   1.0000   1.0000   1.0000   1.0000  -0.0000
    -0.0000  -0.0000  -0.0000  -0.0000  -0.0000  -0.0000  -0.0000  -0.0000
    -0.0000  -0.0000  -0.0000  -0.0000  -0.0000  -0.0000  -0.0000  -0.0000
    -0.0000  -0.0000  -0.0000  -0.0000  -0.0000  -0.0000

          k =-1.1864 0.6846 0.1677 (  9866 PWs)   bands (ev):

   -38.6102 -38.6090 -38.6087 -38.6080 -38.5985 -38.5984 -38.5979 -38.5978
   -38.5942 -38.5938 -38.5029 -38.4909 -38.4907 -38.4511 -38.4498 -14.3246
   -14.3208 -14.3053 -14.3010 -14.2964 -14.2921 -14.2861 -14.2859 -14.2852
   -14.2836  -3.7647  -3.6695  -3.6596  -1.9054  -1.5089   3.6479   5.2072
     5.3222   5.5353   6.0420   6.1201   7.0400   7.5041   7.9427   9.8117
    10.8049  11.3283  11.7758  12.6428  12.9368  13.2172  14.9668  17.2441
    18.0987  18.2142  19.0043  19.1784  19.3963  19.5287  20.3112  20.4318
    20.5680  21.2835  21.2921  21.4954  21.8306  22.1557

     occupation numbers 
     1.0000   1.0000   1.0000   1.0000   1.0000   1.0000   1.0000   1.0000
     1.0000   1.0000   1.0000   1.0000   1.0000   1.0000   1.0000   1.0000
     1.0000   1.0000   1.0000   1.0000   1.0000   1.0000   1.0000   1.0000
     1.0000   1.0000   1.0000   1.0000   1.0000   1.0000   1.0000   1.0000
     1.0000   1.0000   1.0000   1.0000   1.0000   1.0000   1.0000  -0.0000
    -0.0000  -0.0000  -0.0000  -0.0000  -0.0000  -0.0000  -0.0000  -0.0000
    -0.0000  -0.0000  -0.0000  -0.0000  -0.0000  -0.0000  -0.0000  -0.0000
    -0.0000  -0.0000  -0.0000  -0.0000  -0.0000  -0.0000

          k =-1.5579 0.4635 0.3351 (  9895 PWs)   bands (ev):

   -38.6097 -38.6093 -38.6089 -38.6085 -38.5992 -38.5988 -38.5986 -38.5983
   -38.5947 -38.5943 -38.5033 -38.4914 -38.4914 -38.4510 -38.4502 -14.3184
   -14.3154 -14.3022 -14.2999 -14.2986 -14.2952 -14.2915 -14.2899 -14.2858
   -14.2840  -3.8907  -3.7876  -3.4036  -1.8004  -1.5941   4.0957   4.6823
     4.9500   5.1083   6.0300   6.5377   7.3140   7.4379   7.9560  10.3746
    10.9191  11.1716  12.0228  12.4147  13.4543  13.7708  14.8544  15.6920
    17.3461  17.8233  18.3474  19.2070  19.3346  19.6865  20.0245  20.5663
    20.6608  21.0986  21.2402  21.3864  22.1229  22.6989

     occupation numbers 
     1.0000   1.0000   1.0000   1.0000   1.0000   1.0000   1.0000   1.0000
     1.0000   1.0000   1.0000   1.0000   1.0000   1.0000   1.0000   1.0000
     1.0000   1.0000   1.0000   1.0000   1.0000   1.0000   1.0000   1.0000
     1.0000   1.0000   1.0000   1.0000   1.0000   1.0000   1.0000   1.0000
     1.0000   1.0000   1.0000   1.0000   1.0000   1.0000   1.0000  -0.0000
    -0.0000  -0.0000  -0.0000  -0.0000  -0.0000  -0.0000  -0.0000  -0.0000
    -0.0000  -0.0000  -0.0000  -0.0000  -0.0000  -0.0000  -0.0000  -0.0000
    -0.0000  -0.0000  -0.0000  -0.0000  -0.0000  -0.0000

          k = 0.2995 1.5690-0.5017 (  9872 PWs)   bands (ev):

   -38.6094 -38.6090 -38.6085 -38.6081 -38.5988 -38.5986 -38.5984 -38.5980
   -38.5944 -38.5939 -38.5030 -38.4913 -38.4910 -38.4507 -38.4498 -14.3183
   -14.3154 -14.3022 -14.3000 -14.2986 -14.2952 -14.2915 -14.2899 -14.2858
   -14.2840  -3.9059  -3.7609  -3.4175  -1.7949  -1.5976   4.1340   4.7827
     4.8703   5.1927   5.7646   6.2355   7.5278   7.7785   8.1322  10.1875
    10.5714  10.9728  12.2744  12.6397  13.4758  13.5537  15.2961  15.8659
    16.9998  17.5879  17.8493  19.1913  19.3469  19.7385  20.3161  20.7297
    20.7606  21.1913  21.2030  21.8735  22.4409  22.5587

     occupation numbers 
     1.0000   1.0000   1.0000   1.0000   1.0000   1.0000   1.0000   1.0000
     1.0000   1.0000   1.0000   1.0000   1.0000   1.0000   1.0000   1.0000
     1.0000   1.0000   1.0000   1.0000   1.0000   1.0000   1.0000   1.0000
     1.0000   1.0000   1.0000   1.0000   1.0000   1.0000   1.0000   1.0000
     1.0000   1.0000   1.0000   1.0000   1.0000   1.0000   1.0000  -0.0000
    -0.0000  -0.0000  -0.0000  -0.0000  -0.0000  -0.0000  -0.0000  -0.0000
    -0.0000  -0.0000  -0.0000  -0.0000  -0.0000  -0.0000  -0.0000  -0.0000
    -0.0000  -0.0000  -0.0000  -0.0000  -0.0000  -0.0000

          k =-0.0720 1.3479-0.3343 (  9889 PWs)   bands (ev):

   -38.6103 -38.6093 -38.6087 -38.6078 -38.5990 -38.5990 -38.5987 -38.5983
   -38.5945 -38.5939 -38.5031 -38.4915 -38.4913 -38.4512 -38.4497 -14.3246
   -14.3208 -14.3053 -14.3010 -14.2964 -14.2921 -14.2860 -14.2859 -14.2852
   -14.2837  -3.7725  -3.6712  -3.6461  -1.9430  -1.4730   3.7795   4.8758
     5.1616   5.4614   6.2173   6.4980   7.3363   7.3910   7.5906  10.0826
    10.8402  11.0729  11.7103  12.3869  12.8436  13.6307  15.2433  16.7243
    17.8440  18.2397  19.0919  19.1761  19.4656  19.6030  20.4551  20.6618
    20.7048  21.1609  21.2796  21.6784  21.7678  22.5020

     occupation numbers 
     1.0000   1.0000   1.0000   1.0000   1.0000   1.0000   1.0000   1.0000
     1.0000   1.0000   1.0000   1.0000   1.0000   1.0000   1.0000   1.0000
     1.0000   1.0000   1.0000   1.0000   1.0000   1.0000   1.0000   1.0000
     1.0000   1.0000   1.0000   1.0000   1.0000   1.0000   1.0000   1.0000
     1.0000   1.0000   1.0000   1.0000   1.0000   1.0000   1.0000  -0.0000
    -0.0000  -0.0000  -0.0000  -0.0000  -0.0000  -0.0000  -0.0000  -0.0000
    -0.0000  -0.0000  -0.0000  -0.0000  -0.0000  -0.0000  -0.0000  -0.0000
    -0.0000  -0.0000  -0.0000  -0.0000  -0.0000  -0.0000

          k =-0.4435 1.1268-0.1670 (  9868 PWs)   bands (ev):

   -38.6093 -38.6090 -38.6087 -38.6080 -38.5986 -38.5986 -38.5984 -38.5981
   -38.5943 -38.5938 -38.5029 -38.4911 -38.4910 -38.4507 -38.4498 -14.3184
   -14.3154 -14.3022 -14.2999 -14.2986 -14.2952 -14.2915 -14.2899 -14.2859
   -14.2840  -3.9675  -3.6393  -3.4733  -1.8304  -1.5661   3.8884   4.7693
     5.2448   5.5788   5.6789   6.1338   6.9477   7.8507   7.9989  10.4405
    10.5173  11.5556  12.3227  12.5844  12.9696  13.4772  15.6695  15.9427
    16.6548  17.4802  17.9097  19.1183  19.2934  19.4801  20.1172  20.5132
    20.8549  21.1670  21.8318  22.1983  22.5302  23.0240

     occupation numbers 
     1.0000   1.0000   1.0000   1.0000   1.0000   1.0000   1.0000   1.0000
     1.0000   1.0000   1.0000   1.0000   1.0000   1.0000   1.0000   1.0000
     1.0000   1.0000   1.0000   1.0000   1.0000   1.0000   1.0000   1.0000
     1.0000   1.0000   1.0000   1.0000   1.0000   1.0000   1.0000   1.0000
     1.0000   1.0000   1.0000   1.0000   1.0000   1.0000   1.0000  -0.0000
    -0.0000  -0.0000  -0.0000  -0.0000  -0.0000  -0.0000  -0.0000  -0.0000
    -0.0000  -0.0000  -0.0000  -0.0000  -0.0000  -0.0000  -0.0000  -0.0000
    -0.0000  -0.0000  -0.0000  -0.0000  -0.0000  -0.0000

          k =-0.8150 1.3693 0.0000 (  9886 PWs)   bands (ev):

   -38.6096 -38.6092 -38.6091 -38.6088 -38.5989 -38.5986 -38.5983 -38.5979
   -38.5944 -38.5940 -38.5030 -38.4912 -38.4910 -38.4508 -38.4506 -14.3109
   -14.3108 -14.3067 -14.2986 -14.2952 -14.2950 -14.2949 -14.2937 -14.2865
   -14.2863  -3.4706  -3.4680  -3.4615  -2.0233  -2.0053   4.0446   4.4959
     4.6732   4.9735   5.9345   5.9768   7.0410   7.5769   8.0687  10.4321
    11.2684  11.2974  12.6151  12.7931  13.1145  15.0592  15.7550  15.7610
    16.2195  16.2794  18.0495  18.0996  19.5409  19.6248  20.0652  20.4247
    20.8289  21.4159  22.1933  22.6409  22.9209  23.4907

     occupation numbers 
     1.0000   1.0000   1.0000   1.0000   1.0000   1.0000   1.0000   1.0000
     1.0000   1.0000   1.0000   1.0000   1.0000   1.0000   1.0000   1.0000
     1.0000   1.0000   1.0000   1.0000   1.0000   1.0000   1.0000   1.0000
     1.0000   1.0000   1.0000   1.0000   1.0000   1.0000   1.0000   1.0000
     1.0000   1.0000   1.0000   1.0000   1.0000   1.0000   1.0000  -0.0000
    -0.0000  -0.0000  -0.0000  -0.0000  -0.0000  -0.0000  -0.0000  -0.0000
    -0.0000  -0.0000  -0.0000  -0.0000  -0.0000  -0.0000  -0.0000  -0.0000
    -0.0000  -0.0000  -0.0000  -0.0000  -0.0000  -0.0000

          k =-1.1865 1.1482 0.1673 (  9895 PWs)   bands (ev):

   -38.6097 -38.6093 -38.6089 -38.6085 -38.5992 -38.5988 -38.5986 -38.5983
   -38.5947 -38.5943 -38.5033 -38.4914 -38.4914 -38.4510 -38.4502 -14.3184
   -14.3154 -14.3022 -14.2999 -14.2986 -14.2952 -14.2915 -14.2899 -14.2858
   -14.2840  -3.8907  -3.7876  -3.4036  -1.8004  -1.5941   4.0957   4.6823
     4.9500   5.1083   6.0300   6.5377   7.3140   7.4379   7.9560  10.3746
    10.9191  11.1716  12.0228  12.4147  13.4543  13.7708  14.8544  15.6920
    17.3461  17.8233  18.3474  19.2070  19.3346  19.6865  20.0245  20.5663
    20.6608  21.0986  21.2402  21.3864  22.1229  22.6989

     occupation numbers 
     1.0000   1.0000   1.0000   1.0000   1.0000   1.0000   1.0000   1.0000
     1.0000   1.0000   1.0000   1.0000   1.0000   1.0000   1.0000   1.0000
     1.0000   1.0000   1.0000   1.0000   1.0000   1.0000   1.0000   1.0000
     1.0000   1.0000   1.0000   1.0000   1.0000   1.0000   1.0000   1.0000
     1.0000   1.0000   1.0000   1.0000   1.0000   1.0000   1.0000  -0.0000
    -0.0000  -0.0000  -0.0000  -0.0000  -0.0000  -0.0000  -0.0000  -0.0000
    -0.0000  -0.0000  -0.0000  -0.0000  -0.0000  -0.0000  -0.0000  -0.0000
    -0.0000  -0.0000  -0.0000  -0.0000  -0.0000  -0.0000

          k =-1.5579 0.9271 0.3347 (  9893 PWs)   bands (ev):

   -38.6101 -38.6093 -38.6091 -38.6086 -38.5989 -38.5989 -38.5984 -38.5983
   -38.5946 -38.5942 -38.5033 -38.4913 -38.4913 -38.4511 -38.4505 -14.3203
   -14.3173 -14.3026 -14.2986 -14.2960 -14.2938 -14.2910 -14.2899 -14.2888
   -14.2877  -4.4055  -4.2123  -3.4107  -1.4767  -1.0443   4.2887   4.8975
     5.7594   5.7610   6.2923   6.3980   7.5511   7.6065   8.1697   9.7738
    10.7904  10.8101  11.7319  12.3977  13.1764  13.3198  14.9219  16.1684
    16.8468  17.4434  17.7787  17.8055  18.7272  19.0228  19.9320  20.4502
    20.7107  21.1546  21.3612  21.4859  21.9648  22.7436

     occupation numbers 
     1.0000   1.0000   1.0000   1.0000   1.0000   1.0000   1.0000   1.0000
     1.0000   1.0000   1.0000   1.0000   1.0000   1.0000   1.0000   1.0000
     1.0000   1.0000   1.0000   1.0000   1.0000   1.0000   1.0000   1.0000
     1.0000   1.0000   1.0000   1.0000   1.0000   1.0000   1.0000   1.0000
     1.0000   1.0000   1.0000   1.0000   1.0000   1.0000   1.0000  -0.0000
    -0.0000  -0.0000  -0.0000  -0.0000  -0.0000  -0.0000  -0.0000  -0.0000
    -0.0000  -0.0000  -0.0000  -0.0000  -0.0000  -0.0000  -0.0000  -0.0000
    -0.0000  -0.0000  -0.0000  -0.0000  -0.0000  -0.0000

          k = 0.2994 2.0326-0.5020 (  9918 PWs)   bands (ev):

   -38.6102 -38.6099 -38.6096 -38.6094 -38.5991 -38.5988 -38.5987 -38.5982
   -38.5949 -38.5947 -38.5036 -38.4916 -38.4911 -38.4516 -38.4510 -14.3150
   -14.3128 -14.3008 -14.3005 -14.2985 -14.2983 -14.2930 -14.2918 -14.2897
   -14.2880  -4.6038  -4.3836  -3.4226  -1.3499  -0.8076   4.6591   4.8976
     5.6521   6.1128   6.3111   7.1164   7.1617   7.6608   7.8124  10.5810
    10.9642  11.1983  11.3083  12.2110  12.3497  14.3482  14.4825  15.0064
    15.7305  17.5877  17.7130  18.4436  18.7754  19.1964  19.5842  20.0645
    20.1102  20.1302  20.6286  21.1972  21.8139  22.0704

     occupation numbers 
     1.0000   1.0000   1.0000   1.0000   1.0000   1.0000   1.0000   1.0000
     1.0000   1.0000   1.0000   1.0000   1.0000   1.0000   1.0000   1.0000
     1.0000   1.0000   1.0000   1.0000   1.0000   1.0000   1.0000   1.0000
     1.0000   1.0000   1.0000   1.0000   1.0000   1.0000   1.0000   1.0000
     1.0000   1.0000   1.0000   1.0000   1.0000   1.0000   1.0000  -0.0000
    -0.0000  -0.0000  -0.0000  -0.0000  -0.0000  -0.0000  -0.0000  -0.0000
    -0.0000  -0.0000  -0.0000  -0.0000  -0.0000  -0.0000  -0.0000  -0.0000
    -0.0000  -0.0000  -0.0000  -0.0000  -0.0000  -0.0000

          k =-0.0721 1.8115-0.3347 (  9893 PWs)   bands (ev):

   -38.6101 -38.6093 -38.6091 -38.6086 -38.5989 -38.5989 -38.5984 -38.5983
   -38.5946 -38.5942 -38.5033 -38.4913 -38.4913 -38.4511 -38.4505 -14.3203
   -14.3173 -14.3026 -14.2986 -14.2960 -14.2938 -14.2910 -14.2899 -14.2888
   -14.2877  -4.4055  -4.2123  -3.4107  -1.4767  -1.0443   4.2887   4.8975
     5.7594   5.7610   6.2923   6.3980   7.5511   7.6065   8.1697   9.7738
    10.7904  10.8101  11.7319  12.3977  13.1764  13.3198  14.9219  16.1684
    16.8468  17.4434  17.7787  17.8055  18.7272  19.0228  19.9320  20.4502
    20.7107  21.1546  21.3612  21.4859  21.9648  22.7436

     occupation numbers 
     1.0000   1.0000   1.0000   1.0000   1.0000   1.0000   1.0000   1.0000
     1.0000   1.0000   1.0000   1.0000   1.0000   1.0000   1.0000   1.0000
     1.0000   1.0000   1.0000   1.0000   1.0000   1.0000   1.0000   1.0000
     1.0000   1.0000   1.0000   1.0000   1.0000   1.0000   1.0000   1.0000
     1.0000   1.0000   1.0000   1.0000   1.0000   1.0000   1.0000  -0.0000
    -0.0000  -0.0000  -0.0000  -0.0000  -0.0000  -0.0000  -0.0000  -0.0000
    -0.0000  -0.0000  -0.0000  -0.0000  -0.0000  -0.0000  -0.0000  -0.0000
    -0.0000  -0.0000  -0.0000  -0.0000  -0.0000  -0.0000

          k =-0.4435 1.5904-0.1673 (  9895 PWs)   bands (ev):

   -38.6097 -38.6093 -38.6089 -38.6085 -38.5992 -38.5988 -38.5986 -38.5983
   -38.5947 -38.5943 -38.5033 -38.4914 -38.4914 -38.4510 -38.4502 -14.3184
   -14.3154 -14.3022 -14.2999 -14.2986 -14.2952 -14.2915 -14.2899 -14.2858
   -14.2840  -3.8907  -3.7876  -3.4036  -1.8004  -1.5941   4.0957   4.6823
     4.9500   5.1083   6.0300   6.5377   7.3140   7.4379   7.9560  10.3746
    10.9191  11.1716  12.0228  12.4147  13.4543  13.7708  14.8544  15.6920
    17.3461  17.8233  18.3474  19.2070  19.3346  19.6865  20.0245  20.5663
    20.6608  21.0986  21.2402  21.3864  22.1229  22.6989

     occupation numbers 
     1.0000   1.0000   1.0000   1.0000   1.0000   1.0000   1.0000   1.0000
     1.0000   1.0000   1.0000   1.0000   1.0000   1.0000   1.0000   1.0000
     1.0000   1.0000   1.0000   1.0000   1.0000   1.0000   1.0000   1.0000
     1.0000   1.0000   1.0000   1.0000   1.0000   1.0000   1.0000   1.0000
     1.0000   1.0000   1.0000   1.0000   1.0000   1.0000   1.0000  -0.0000
    -0.0000  -0.0000  -0.0000  -0.0000  -0.0000  -0.0000  -0.0000  -0.0000
    -0.0000  -0.0000  -0.0000  -0.0000  -0.0000  -0.0000  -0.0000  -0.0000
    -0.0000  -0.0000  -0.0000  -0.0000  -0.0000  -0.0000

          k =-0.8146-0.9484 0.0019 (  9871 PWs)   bands (ev):

   -38.6093 -38.6091 -38.6085 -38.6079 -38.5988 -38.5986 -38.5984 -38.5979
   -38.5945 -38.5941 -38.5031 -38.4913 -38.4909 -38.4507 -38.4497 -14.3184
   -14.3154 -14.3022 -14.3000 -14.2986 -14.2952 -14.2915 -14.2899 -14.2858
   -14.2840  -3.9460  -3.6876  -3.4497  -1.8113  -1.5821   4.0008   4.8432
     5.0985   5.3577   5.5898   6.0562   7.3355   7.9758   8.1490  10.2675
    10.3516  11.1306  12.3957  12.7464  13.2449  13.4490  15.6353  16.1491
    16.7252  17.1244  17.7493  19.1942  19.2534  19.6917  20.4383  20.5448
    20.9359  21.1483  21.5575  22.2125  22.4375  23.0009

     occupation numbers 
     1.0000   1.0000   1.0000   1.0000   1.0000   1.0000   1.0000   1.0000
     1.0000   1.0000   1.0000   1.0000   1.0000   1.0000   1.0000   1.0000
     1.0000   1.0000   1.0000   1.0000   1.0000   1.0000   1.0000   1.0000
     1.0000   1.0000   1.0000   1.0000   1.0000   1.0000   1.0000   1.0000
     1.0000   1.0000   1.0000   1.0000   1.0000   1.0000   1.0000  -0.0000
    -0.0000  -0.0000  -0.0000  -0.0000  -0.0000  -0.0000  -0.0000  -0.0000
    -0.0000  -0.0000  -0.0000  -0.0000  -0.0000  -0.0000  -0.0000  -0.0000
    -0.0000  -0.0000  -0.0000  -0.0000  -0.0000  -0.0000

          k =-1.1861-1.1695 0.1692 (  9872 PWs)   bands (ev):

   -38.6094 -38.6090 -38.6085 -38.6081 -38.5988 -38.5986 -38.5984 -38.5980
   -38.5944 -38.5939 -38.5030 -38.4913 -38.4910 -38.4507 -38.4498 -14.3183
   -14.3154 -14.3022 -14.3000 -14.2986 -14.2952 -14.2915 -14.2899 -14.2858
   -14.2840  -3.9059  -3.7609  -3.4175  -1.7949  -1.5976   4.1340   4.7827
     4.8703   5.1927   5.7646   6.2355   7.5278   7.7785   8.1322  10.1875
    10.5714  10.9728  12.2744  12.6397  13.4758  13.5537  15.2961  15.8659
    16.9998  17.5879  17.8493  19.1913  19.3469  19.7385  20.3161  20.7297
    20.7606  21.1913  21.2030  21.8735  22.4409  22.5587

     occupation numbers 
     1.0000   1.0000   1.0000   1.0000   1.0000   1.0000   1.0000   1.0000
     1.0000   1.0000   1.0000   1.0000   1.0000   1.0000   1.0000   1.0000
     1.0000   1.0000   1.0000   1.0000   1.0000   1.0000   1.0000   1.0000
     1.0000   1.0000   1.0000   1.0000   1.0000   1.0000   1.0000   1.0000
     1.0000   1.0000   1.0000   1.0000   1.0000   1.0000   1.0000  -0.0000
    -0.0000  -0.0000  -0.0000  -0.0000  -0.0000  -0.0000  -0.0000  -0.0000
    -0.0000  -0.0000  -0.0000  -0.0000  -0.0000  -0.0000  -0.0000  -0.0000
    -0.0000  -0.0000  -0.0000  -0.0000  -0.0000  -0.0000

          k =-1.5575-1.3906 0.3366 (  9918 PWs)   bands (ev):

   -38.6102 -38.6099 -38.6096 -38.6094 -38.5991 -38.5988 -38.5987 -38.5982
   -38.5949 -38.5947 -38.5036 -38.4916 -38.4911 -38.4516 -38.4510 -14.3150
   -14.3128 -14.3008 -14.3005 -14.2985 -14.2983 -14.2930 -14.2918 -14.2897
   -14.2880  -4.6038  -4.3836  -3.4226  -1.3499  -0.8076   4.6591   4.8976
     5.6521   6.1128   6.3111   7.1164   7.1617   7.6608   7.8124  10.5810
    10.9642  11.1983  11.3083  12.2110  12.3497  14.3482  14.4825  15.0064
    15.7305  17.5877  17.7130  18.4436  18.7754  19.1964  19.5842  20.0645
    20.1102  20.1302  20.6286  21.1972  21.8139  22.0706

     occupation numbers 
     1.0000   1.0000   1.0000   1.0000   1.0000   1.0000   1.0000   1.0000
     1.0000   1.0000   1.0000   1.0000   1.0000   1.0000   1.0000   1.0000
     1.0000   1.0000   1.0000   1.0000   1.0000   1.0000   1.0000   1.0000
     1.0000   1.0000   1.0000   1.0000   1.0000   1.0000   1.0000   1.0000
     1.0000   1.0000   1.0000   1.0000   1.0000   1.0000   1.0000  -0.0000
    -0.0000  -0.0000  -0.0000  -0.0000  -0.0000  -0.0000  -0.0000  -0.0000
    -0.0000  -0.0000  -0.0000  -0.0000  -0.0000  -0.0000  -0.0000  -0.0000
    -0.0000  -0.0000  -0.0000  -0.0000  -0.0000  -0.0000

          k = 0.2998-0.2852-0.5002 (  9923 PWs)   bands (ev):

   -38.6105 -38.6101 -38.6099 -38.6094 -38.5989 -38.5988 -38.5983 -38.5977
   -38.5954 -38.5949 -38.5040 -38.4912 -38.4909 -38.4515 -38.4515 -14.3130
   -14.3113 -14.3047 -14.3035 -14.2988 -14.2967 -14.2946 -14.2922 -14.2920
   -14.2892  -5.0483  -4.7708  -3.5608  -1.1628  -0.1541   5.3355   6.2473
     6.3624   6.4142   6.7501   6.7664   7.6814   7.7845   8.4478   9.6055
    10.4873  10.6434  11.2625  11.7574  11.9667  14.3244  15.0129  15.5911
    16.0475  16.3385  16.5460  17.4069  17.6287  17.9954  18.2623  19.0315
    19.2667  19.6495  20.0568  20.9895  21.1383  21.6779

     occupation numbers 
     1.0000   1.0000   1.0000   1.0000   1.0000   1.0000   1.0000   1.0000
     1.0000   1.0000   1.0000   1.0000   1.0000   1.0000   1.0000   1.0000
     1.0000   1.0000   1.0000   1.0000   1.0000   1.0000   1.0000   1.0000
     1.0000   1.0000   1.0000   1.0000   1.0000   1.0000   1.0000   1.0000
     1.0000   1.0000   1.0000   1.0000   1.0000   1.0000   1.0003  -0.0000
    -0.0000  -0.0000  -0.0000  -0.0000  -0.0000  -0.0000  -0.0000  -0.0000
    -0.0000  -0.0000  -0.0000  -0.0000  -0.0000  -0.0000  -0.0000  -0.0000
    -0.0000  -0.0000  -0.0000  -0.0000  -0.0000  -0.0000

          k =-0.0717-0.5063-0.3328 (  9928 PWs)   bands (ev):

   -38.6105 -38.6101 -38.6097 -38.6096 -38.5990 -38.5988 -38.5984 -38.5981
   -38.5953 -38.5948 -38.5039 -38.4913 -38.4912 -38.4516 -38.4514 -14.3130
   -14.3113 -14.3047 -14.3035 -14.2988 -14.2968 -14.2946 -14.2922 -14.2920
   -14.2892  -5.0630  -4.7476  -3.5740  -1.1570  -0.1518   5.3545   6.0633
     6.3163   6.4699   6.6852   7.1211   7.6305   7.7044   8.3985   9.6792
    10.5610  10.7768  11.1372  11.6515  11.8840  14.1832  15.2707  15.5457
    15.9971  16.2165  16.9306  16.9441  17.7187  18.4668  18.5865  18.8689
    19.4558  19.7524  19.7534  20.3008  21.3160  21.7350

     occupation numbers 
     1.0000   1.0000   1.0000   1.0000   1.0000   1.0000   1.0000   1.0000
     1.0000   1.0000   1.0000   1.0000   1.0000   1.0000   1.0000   1.0000
     1.0000   1.0000   1.0000   1.0000   1.0000   1.0000   1.0000   1.0000
     1.0000   1.0000   1.0000   1.0000   1.0000   1.0000   1.0000   1.0000
     1.0000   1.0000   1.0000   1.0000   1.0000   1.0000   1.0000  -0.0000
    -0.0000  -0.0000  -0.0000  -0.0000  -0.0000  -0.0000  -0.0000  -0.0000
    -0.0000  -0.0000  -0.0000  -0.0000  -0.0000  -0.0000  -0.0000  -0.0000
    -0.0000  -0.0000  -0.0000  -0.0000  -0.0000  -0.0000

          k =-0.4431-0.7274-0.1655 (  9898 PWs)   bands (ev):

   -38.6099 -38.6097 -38.6094 -38.6089 -38.5989 -38.5987 -38.5982 -38.5979
   -38.5950 -38.5944 -38.5035 -38.4912 -38.4910 -38.4513 -38.4507 -14.3150
   -14.3128 -14.3008 -14.3005 -14.2985 -14.2983 -14.2930 -14.2918 -14.2898
   -14.2880  -4.6449  -4.3164  -3.4592  -1.3232  -0.8239   4.6800   4.9457
     5.6001   6.0607   6.3398   6.7767   7.3485   7.8133   7.9360  10.4583
    10.6526  11.1876  11.5194  12.2446  12.4838  14.2312  14.3063  15.3529
    15.9827  17.4203  17.7177  18.2613  18.5499  19.0584  19.5760  19.8386
    19.9995  20.2292  20.7194  21.4316  22.1092  22.2518

     occupation numbers 
     1.0000   1.0000   1.0000   1.0000   1.0000   1.0000   1.0000   1.0000
     1.0000   1.0000   1.0000   1.0000   1.0000   1.0000   1.0000   1.0000
     1.0000   1.0000   1.0000   1.0000   1.0000   1.0000   1.0000   1.0000
     1.0000   1.0000   1.0000   1.0000   1.0000   1.0000   1.0000   1.0000
     1.0000   1.0000   1.0000   1.0000   1.0000   1.0000   1.0000  -0.0000
    -0.0000  -0.0000  -0.0000  -0.0000  -0.0000  -0.0000  -0.0000  -0.0000
    -0.0000  -0.0000  -0.0000  -0.0000  -0.0000  -0.0000  -0.0000  -0.0000
    -0.0000  -0.0000  -0.0000  -0.0000  -0.0000  -0.0000

          k =-0.8147-0.4849 0.0015 (  9894 PWs)   bands (ev):

   -38.6102 -38.6095 -38.6093 -38.6087 -38.5990 -38.5988 -38.5983 -38.5980
   -38.5949 -38.5941 -38.5033 -38.4913 -38.4911 -38.4513 -38.4505 -14.3203
   -14.3172 -14.3026 -14.2986 -14.2960 -14.2937 -14.2910 -14.2899 -14.2888
   -14.2877  -4.4883  -4.0513  -3.5117  -1.4182  -1.0760   4.0415   5.2552
     5.6832   5.9082   6.5107   6.6708   7.1823   7.3369   7.5143  10.3221
    11.1557  11.4923  11.5745  12.0353  12.6329  13.0982  15.4148  16.4855
    16.8599  17.0687  17.4882  17.8195  18.5782  19.0416  19.5194  20.2117
    20.3986  20.8646  21.7672  22.0576  22.8846  23.1418

     occupation numbers 
     1.0000   1.0000   1.0000   1.0000   1.0000   1.0000   1.0000   1.0000
     1.0000   1.0000   1.0000   1.0000   1.0000   1.0000   1.0000   1.0000
     1.0000   1.0000   1.0000   1.0000   1.0000   1.0000   1.0000   1.0000
     1.0000   1.0000   1.0000   1.0000   1.0000   1.0000   1.0000   1.0000
     1.0000   1.0000   1.0000   1.0000   1.0000   1.0000   1.0000  -0.0000
    -0.0000  -0.0000  -0.0000  -0.0000  -0.0000  -0.0000  -0.0000  -0.0000
    -0.0000  -0.0000  -0.0000  -0.0000  -0.0000  -0.0000  -0.0000  -0.0000
    -0.0000  -0.0000  -0.0000  -0.0000  -0.0000  -0.0000

          k =-1.1861-0.7060 0.1688 (  9889 PWs)   bands (ev):

   -38.6103 -38.6093 -38.6087 -38.6078 -38.5990 -38.5990 -38.5987 -38.5983
   -38.5945 -38.5939 -38.5031 -38.4915 -38.4913 -38.4512 -38.4497 -14.3246
   -14.3208 -14.3053 -14.3010 -14.2964 -14.2921 -14.2860 -14.2859 -14.2852
   -14.2837  -3.7725  -3.6712  -3.6461  -1.9430  -1.4730   3.7795   4.8758
     5.1616   5.4614   6.2173   6.4980   7.3363   7.3910   7.5906  10.0826
    10.8402  11.0729  11.7103  12.3869  12.8436  13.6307  15.2433  16.7243
    17.8440  18.2397  19.0919  19.1761  19.4656  19.6030  20.4551  20.6618
    20.7048  21.1609  21.2796  21.6784  21.7678  22.5020

     occupation numbers 
     1.0000   1.0000   1.0000   1.0000   1.0000   1.0000   1.0000   1.0000
     1.0000   1.0000   1.0000   1.0000   1.0000   1.0000   1.0000   1.0000
     1.0000   1.0000   1.0000   1.0000   1.0000   1.0000   1.0000   1.0000
     1.0000   1.0000   1.0000   1.0000   1.0000   1.0000   1.0000   1.0000
     1.0000   1.0000   1.0000   1.0000   1.0000   1.0000   1.0000  -0.0000
    -0.0000  -0.0000  -0.0000  -0.0000  -0.0000  -0.0000  -0.0000  -0.0000
    -0.0000  -0.0000  -0.0000  -0.0000  -0.0000  -0.0000  -0.0000  -0.0000
    -0.0000  -0.0000  -0.0000  -0.0000  -0.0000  -0.0000

          k =-1.5576-0.9271 0.3362 (  9893 PWs)   bands (ev):

   -38.6101 -38.6093 -38.6091 -38.6086 -38.5989 -38.5989 -38.5984 -38.5983
   -38.5946 -38.5942 -38.5033 -38.4913 -38.4913 -38.4511 -38.4505 -14.3203
   -14.3173 -14.3026 -14.2986 -14.2960 -14.2938 -14.2910 -14.2899 -14.2888
   -14.2877  -4.4055  -4.2123  -3.4107  -1.4767  -1.0443   4.2887   4.8975
     5.7594   5.7610   6.2923   6.3980   7.5511   7.6065   8.1697   9.7738
    10.7904  10.8101  11.7319  12.3977  13.1764  13.3198  14.9219  16.1684
    16.8468  17.4434  17.7787  17.8055  18.7272  19.0228  19.9320  20.4502
    20.7107  21.1546  21.3612  21.4859  21.9648  22.7436

     occupation numbers 
     1.0000   1.0000   1.0000   1.0000   1.0000   1.0000   1.0000   1.0000
     1.0000   1.0000   1.0000   1.0000   1.0000   1.0000   1.0000   1.0000
     1.0000   1.0000   1.0000   1.0000   1.0000   1.0000   1.0000   1.0000
     1.0000   1.0000   1.0000   1.0000   1.0000   1.0000   1.0000   1.0000
     1.0000   1.0000   1.0000   1.0000   1.0000   1.0000   1.0000  -0.0000
    -0.0000  -0.0000  -0.0000  -0.0000  -0.0000  -0.0000  -0.0000  -0.0000
    -0.0000  -0.0000  -0.0000  -0.0000  -0.0000  -0.0000  -0.0000  -0.0000
    -0.0000  -0.0000  -0.0000  -0.0000  -0.0000  -0.0000

          k = 0.2997 0.1784-0.5005 (  9928 PWs)   bands (ev):

   -38.6105 -38.6101 -38.6097 -38.6096 -38.5990 -38.5988 -38.5984 -38.5981
   -38.5953 -38.5948 -38.5039 -38.4913 -38.4912 -38.4516 -38.4514 -14.3130
   -14.3113 -14.3047 -14.3035 -14.2988 -14.2968 -14.2946 -14.2922 -14.2920
   -14.2892  -5.0630  -4.7476  -3.5740  -1.1570  -0.1518   5.3545   6.0633
     6.3163   6.4699   6.6852   7.1211   7.6305   7.7044   8.3985   9.6792
    10.5610  10.7768  11.1372  11.6515  11.8840  14.1832  15.2707  15.5457
    15.9971  16.2165  16.9306  16.9441  17.7187  18.4668  18.5865  18.8689
    19.4558  19.7524  19.7534  20.3008  21.3160  21.7350

     occupation numbers 
     1.0000   1.0000   1.0000   1.0000   1.0000   1.0000   1.0000   1.0000
     1.0000   1.0000   1.0000   1.0000   1.0000   1.0000   1.0000   1.0000
     1.0000   1.0000   1.0000   1.0000   1.0000   1.0000   1.0000   1.0000
     1.0000   1.0000   1.0000   1.0000   1.0000   1.0000   1.0000   1.0000
     1.0000   1.0000   1.0000   1.0000   1.0000   1.0000   1.0000  -0.0000
    -0.0000  -0.0000  -0.0000  -0.0000  -0.0000  -0.0000  -0.0000  -0.0000
    -0.0000  -0.0000  -0.0000  -0.0000  -0.0000  -0.0000  -0.0000  -0.0000
    -0.0000  -0.0000  -0.0000  -0.0000  -0.0000  -0.0000

          k =-0.0717-0.0427-0.3332 (  9910 PWs)   bands (ev):

   -38.6100 -38.6100 -38.6092 -38.6092 -38.5991 -38.5991 -38.5982 -38.5982
   -38.5945 -38.5943 -38.5032 -38.4914 -38.4914 -38.4511 -38.4511 -14.3104
   -14.3104 -14.3092 -14.3092 -14.3019 -14.2999 -14.2911 -14.2911 -14.2890
   -14.2890  -5.3179  -4.9234  -3.7043  -1.0526   0.2012   6.3097   6.9045
     6.9045   7.1567   7.1772   7.1772   7.5127   7.5128   8.3583   9.2887
    10.3411  10.3411  10.7855  11.2085  11.2085  14.6761  15.5311  15.5636
    15.5636  16.4726  16.9516  17.2492  17.2492  17.5922  18.0331  18.0331
    18.7433  18.7433  18.8894  19.8119  19.8119  20.7673

     occupation numbers 
     1.0000   1.0000   1.0000   1.0000   1.0000   1.0000   1.0000   1.0000
     1.0000   1.0000   1.0000   1.0000   1.0000   1.0000   1.0000   1.0000
     1.0000   1.0000   1.0000   1.0000   1.0000   1.0000   1.0000   1.0000
     1.0000   1.0000   1.0000   1.0000   1.0000   1.0000   1.0000   1.0000
     1.0000   1.0000   1.0000   1.0000   1.0000   1.0000   1.0000  -0.0000
    -0.0000  -0.0000  -0.0000  -0.0000  -0.0000  -0.0000  -0.0000  -0.0000
    -0.0000  -0.0000  -0.0000  -0.0000  -0.0000  -0.0000  -0.0000  -0.0000
    -0.0000  -0.0000  -0.0000  -0.0000  -0.0000  -0.0000

          k =-0.4432-0.2638-0.1659 (  9919 PWs)   bands (ev):

   -38.6104 -38.6102 -38.6099 -38.6094 -38.5988 -38.5986 -38.5982 -38.5979
   -38.5951 -38.5945 -38.5037 -38.4912 -38.4910 -38.4516 -38.4514 -14.3130
   -14.3113 -14.3047 -14.3035 -14.2989 -14.2967 -14.2945 -14.2922 -14.2920
   -14.2892  -5.1075  -4.6635  -3.6400  -1.0644  -0.2255   5.3833   6.1933
     6.2780   6.3528   6.8021   6.9040   7.5822   7.9891   8.2543   9.7557
    10.4750  10.5327  11.2042  11.7470  12.0809  14.2954  14.8197  15.8241
    15.9552  16.3637  16.9413  17.6187  17.6960  17.8068  17.9463  18.8014
    19.2058  19.4387  20.4332  20.6386  21.3514  21.7828

     occupation numbers 
     1.0000   1.0000   1.0000   1.0000   1.0000   1.0000   1.0000   1.0000
     1.0000   1.0000   1.0000   1.0000   1.0000   1.0000   1.0000   1.0000
     1.0000   1.0000   1.0000   1.0000   1.0000   1.0000   1.0000   1.0000
     1.0000   1.0000   1.0000   1.0000   1.0000   1.0000   1.0000   1.0000
     1.0000   1.0000   1.0000   1.0000   1.0000   1.0000   1.0000  -0.0000
    -0.0000  -0.0000  -0.0000  -0.0000  -0.0000  -0.0000  -0.0000  -0.0000
    -0.0000  -0.0000  -0.0000  -0.0000  -0.0000  -0.0000  -0.0000  -0.0000
    -0.0000  -0.0000  -0.0000  -0.0000  -0.0000  -0.0000

          k =-0.8148-0.0214 0.0011 (  9901 PWs)   bands (ev):

   -38.6102 -38.6099 -38.6093 -38.6089 -38.5990 -38.5986 -38.5983 -38.5979
   -38.5948 -38.5944 -38.5035 -38.4912 -38.4911 -38.4515 -38.4506 -14.3150
   -14.3128 -14.3008 -14.3005 -14.2985 -14.2983 -14.2930 -14.2918 -14.2898
   -14.2880  -4.6979  -4.2012  -3.5419  -1.2650  -0.8619   4.7482   5.0054
     5.5518   6.0767   6.1451   6.5176   7.5528   8.0569   8.0887  10.1827
    10.4327  10.9842  11.7255  12.4608  12.6230  14.0739  14.1140  15.9867
    16.5632  17.1569  17.4795  17.8729  18.3548  18.7167  18.8142  19.6583
    20.3039  20.5845  21.0501  21.8216  22.2050  22.3897

     occupation numbers 
     1.0000   1.0000   1.0000   1.0000   1.0000   1.0000   1.0000   1.0000
     1.0000   1.0000   1.0000   1.0000   1.0000   1.0000   1.0000   1.0000
     1.0000   1.0000   1.0000   1.0000   1.0000   1.0000   1.0000   1.0000
     1.0000   1.0000   1.0000   1.0000   1.0000   1.0000   1.0000   1.0000
     1.0000   1.0000   1.0000   1.0000   1.0000   1.0000   1.0000  -0.0000
    -0.0000  -0.0000  -0.0000  -0.0000  -0.0000  -0.0000  -0.0000  -0.0000
    -0.0000  -0.0000  -0.0000  -0.0000  -0.0000  -0.0000  -0.0000  -0.0000
    -0.0000  -0.0000  -0.0000  -0.0000  -0.0000  -0.0000

          k =-1.1862-0.2424 0.1685 (  9868 PWs)   bands (ev):

   -38.6093 -38.6090 -38.6087 -38.6080 -38.5986 -38.5986 -38.5984 -38.5981
   -38.5943 -38.5938 -38.5029 -38.4911 -38.4910 -38.4507 -38.4498 -14.3184
   -14.3154 -14.3022 -14.2999 -14.2986 -14.2952 -14.2915 -14.2899 -14.2859
   -14.2840  -3.9675  -3.6393  -3.4733  -1.8304  -1.5661   3.8884   4.7693
     5.2448   5.5788   5.6789   6.1338   6.9477   7.8507   7.9989  10.4405
    10.5173  11.5556  12.3227  12.5844  12.9696  13.4772  15.6695  15.9427
    16.6548  17.4802  17.9097  19.1183  19.2934  19.4801  20.1172  20.5132
    20.8549  21.1670  21.8318  22.1983  22.5303  23.0238

     occupation numbers 
     1.0000   1.0000   1.0000   1.0000   1.0000   1.0000   1.0000   1.0000
     1.0000   1.0000   1.0000   1.0000   1.0000   1.0000   1.0000   1.0000
     1.0000   1.0000   1.0000   1.0000   1.0000   1.0000   1.0000   1.0000
     1.0000   1.0000   1.0000   1.0000   1.0000   1.0000   1.0000   1.0000
     1.0000   1.0000   1.0000   1.0000   1.0000   1.0000   1.0000  -0.0000
    -0.0000  -0.0000  -0.0000  -0.0000  -0.0000  -0.0000  -0.0000  -0.0000
    -0.0000  -0.0000  -0.0000  -0.0000  -0.0000  -0.0000  -0.0000  -0.0000
    -0.0000  -0.0000  -0.0000  -0.0000  -0.0000  -0.0000

          k =-1.5577-0.4635 0.3358 (  9895 PWs)   bands (ev):

   -38.6097 -38.6093 -38.6089 -38.6085 -38.5992 -38.5988 -38.5986 -38.5983
   -38.5947 -38.5943 -38.5033 -38.4914 -38.4914 -38.4510 -38.4502 -14.3184
   -14.3154 -14.3022 -14.2999 -14.2986 -14.2952 -14.2915 -14.2899 -14.2858
   -14.2840  -3.8907  -3.7876  -3.4036  -1.8004  -1.5941   4.0957   4.6823
     4.9500   5.1083   6.0300   6.5377   7.3140   7.4379   7.9560  10.3746
    10.9191  11.1716  12.0228  12.4147  13.4543  13.7708  14.8544  15.6920
    17.3461  17.8233  18.3474  19.2070  19.3346  19.6865  20.0245  20.5663
    20.6608  21.0986  21.2402  21.3864  22.1229  22.6991

     occupation numbers 
     1.0000   1.0000   1.0000   1.0000   1.0000   1.0000   1.0000   1.0000
     1.0000   1.0000   1.0000   1.0000   1.0000   1.0000   1.0000   1.0000
     1.0000   1.0000   1.0000   1.0000   1.0000   1.0000   1.0000   1.0000
     1.0000   1.0000   1.0000   1.0000   1.0000   1.0000   1.0000   1.0000
     1.0000   1.0000   1.0000   1.0000   1.0000   1.0000   1.0000  -0.0000
    -0.0000  -0.0000  -0.0000  -0.0000  -0.0000  -0.0000  -0.0000  -0.0000
    -0.0000  -0.0000  -0.0000  -0.0000  -0.0000  -0.0000  -0.0000  -0.0000
    -0.0000  -0.0000  -0.0000  -0.0000  -0.0000  -0.0000

          k = 0.2996 0.6419-0.5009 (  9898 PWs)   bands (ev):

   -38.6099 -38.6097 -38.6094 -38.6089 -38.5989 -38.5987 -38.5982 -38.5979
   -38.5950 -38.5944 -38.5035 -38.4912 -38.4910 -38.4513 -38.4507 -14.3150
   -14.3128 -14.3008 -14.3005 -14.2985 -14.2983 -14.2930 -14.2918 -14.2898
   -14.2880  -4.6449  -4.3164  -3.4592  -1.3232  -0.8239   4.6800   4.9457
     5.6001   6.0607   6.3398   6.7767   7.3485   7.8133   7.9360  10.4583
    10.6526  11.1876  11.5194  12.2446  12.4838  14.2312  14.3063  15.3529
    15.9827  17.4203  17.7177  18.2613  18.5499  19.0584  19.5760  19.8386
    19.9995  20.2292  20.7194  21.4316  22.1092  22.2518

     occupation numbers 
     1.0000   1.0000   1.0000   1.0000   1.0000   1.0000   1.0000   1.0000
     1.0000   1.0000   1.0000   1.0000   1.0000   1.0000   1.0000   1.0000
     1.0000   1.0000   1.0000   1.0000   1.0000   1.0000   1.0000   1.0000
     1.0000   1.0000   1.0000   1.0000   1.0000   1.0000   1.0000   1.0000
     1.0000   1.0000   1.0000   1.0000   1.0000   1.0000   1.0000  -0.0000
    -0.0000  -0.0000  -0.0000  -0.0000  -0.0000  -0.0000  -0.0000  -0.0000
    -0.0000  -0.0000  -0.0000  -0.0000  -0.0000  -0.0000  -0.0000  -0.0000
    -0.0000  -0.0000  -0.0000  -0.0000  -0.0000  -0.0000

          k =-0.0718 0.4208-0.3336 (  9919 PWs)   bands (ev):

   -38.6104 -38.6102 -38.6099 -38.6094 -38.5988 -38.5986 -38.5982 -38.5979
   -38.5951 -38.5945 -38.5037 -38.4912 -38.4910 -38.4516 -38.4514 -14.3130
   -14.3113 -14.3047 -14.3035 -14.2989 -14.2967 -14.2945 -14.2922 -14.2920
   -14.2892  -5.1075  -4.6635  -3.6400  -1.0644  -0.2255   5.3833   6.1933
     6.2780   6.3528   6.8021   6.9040   7.5822   7.9891   8.2543   9.7557
    10.4750  10.5327  11.2042  11.7470  12.0809  14.2954  14.8197  15.8241
    15.9552  16.3637  16.9413  17.6187  17.6960  17.8068  17.9463  18.8014
    19.2058  19.4387  20.4332  20.6386  21.3515  21.7828

     occupation numbers 
     1.0000   1.0000   1.0000   1.0000   1.0000   1.0000   1.0000   1.0000
     1.0000   1.0000   1.0000   1.0000   1.0000   1.0000   1.0000   1.0000
     1.0000   1.0000   1.0000   1.0000   1.0000   1.0000   1.0000   1.0000
     1.0000   1.0000   1.0000   1.0000   1.0000   1.0000   1.0000   1.0000
     1.0000   1.0000   1.0000   1.0000   1.0000   1.0000   1.0000  -0.0000
    -0.0000  -0.0000  -0.0000  -0.0000  -0.0000  -0.0000  -0.0000  -0.0000
    -0.0000  -0.0000  -0.0000  -0.0000  -0.0000  -0.0000  -0.0000  -0.0000
    -0.0000  -0.0000  -0.0000  -0.0000  -0.0000  -0.0000

          k =-0.4433 0.1997-0.1662 (  9930 PWs)   bands (ev):

   -38.6103 -38.6103 -38.6099 -38.6095 -38.5991 -38.5989 -38.5983 -38.5980
   -38.5951 -38.5948 -38.5038 -38.4914 -38.4912 -38.4516 -38.4514 -14.3130
   -14.3113 -14.3047 -14.3035 -14.2989 -14.2967 -14.2946 -14.2922 -14.2920
   -14.2892  -5.1252  -4.6255  -3.6691  -1.0531  -0.2214   5.4476   5.8408
     6.2906   6.4224   6.7714   7.4243   7.6406   7.6632   8.1557   9.9081
    10.7080  10.7924  10.8769  11.5074  11.9294  14.0357  15.1198  15.8044
    16.2684  16.2736  16.7999  17.0292  17.7833  18.5849  18.8065  18.9687
    19.2938  19.6549  19.6749  20.3684  20.6268  21.4905

     occupation numbers 
     1.0000   1.0000   1.0000   1.0000   1.0000   1.0000   1.0000   1.0000
     1.0000   1.0000   1.0000   1.0000   1.0000   1.0000   1.0000   1.0000
     1.0000   1.0000   1.0000   1.0000   1.0000   1.0000   1.0000   1.0000
     1.0000   1.0000   1.0000   1.0000   1.0000   1.0000   1.0000   1.0000
     1.0000   1.0000   1.0000   1.0000   1.0000   1.0000   1.0000  -0.0000
    -0.0000  -0.0000  -0.0000  -0.0000  -0.0000  -0.0000  -0.0000  -0.0000
    -0.0000  -0.0000  -0.0000  -0.0000  -0.0000  -0.0000  -0.0000  -0.0000
    -0.0000  -0.0000  -0.0000  -0.0000  -0.0000  -0.0000

          k =-0.4074 0.2211 0.0004 (  9920 PWs)   bands (ev):

   -38.6102 -38.6100 -38.6097 -38.6092 -38.5989 -38.5986 -38.5983 -38.5979
   -38.5951 -38.5947 -38.5038 -38.4911 -38.4911 -38.4514 -38.4512 -14.3130
   -14.3113 -14.3047 -14.3035 -14.2989 -14.2967 -14.2945 -14.2922 -14.2920
   -14.2892  -5.1616  -4.5265  -3.7607  -0.9371  -0.3125   5.5615   5.7315
     6.2282   6.3590   6.9173   7.5215   7.5361   7.7024   8.0838  10.0648
    10.5014  10.7685  10.9116  11.4802  12.0332  14.0095  14.8859  16.0995
    16.2415  16.6079  16.8005  17.0812  17.5414  18.4936  18.5988  18.9788
    19.4576  19.6338  19.6601  20.2340  20.5742  21.0637

     occupation numbers 
     1.0000   1.0000   1.0000   1.0000   1.0000   1.0000   1.0000   1.0000
     1.0000   1.0000   1.0000   1.0000   1.0000   1.0000   1.0000   1.0000
     1.0000   1.0000   1.0000   1.0000   1.0000   1.0000   1.0000   1.0000
     1.0000   1.0000   1.0000   1.0000   1.0000   1.0000   1.0000   1.0000
     1.0000   1.0000   1.0000   1.0000   1.0000   1.0000   1.0000  -0.0000
    -0.0000  -0.0000  -0.0000  -0.0000  -0.0000  -0.0000  -0.0000  -0.0000
    -0.0000  -0.0000  -0.0000  -0.0000  -0.0000  -0.0000  -0.0000  -0.0000
    -0.0000  -0.0000  -0.0000  -0.0000  -0.0000  -0.0000

          k =-0.7789 0.0000 0.1677 (  9885 PWs)   bands (ev):

   -38.6100 -38.6092 -38.6090 -38.6088 -38.5985 -38.5985 -38.5983 -38.5982
   -38.5945 -38.5942 -38.5032 -38.4910 -38.4910 -38.4510 -38.4504 -14.3150
   -14.3128 -14.3008 -14.3005 -14.2985 -14.2983 -14.2930 -14.2918 -14.2898
   -14.2880  -4.7181  -4.1418  -3.5911  -1.2320  -0.8853   4.8150   4.9760
     5.6730   5.8329   6.2257   6.3681   7.7120   8.1080   8.1552  10.0553
    10.3872  10.8462  11.8002  12.6216  12.6305  14.0206  14.0380  16.5355
    16.9127  17.0806  17.2259  17.4131  18.3140  18.4315  18.6873  19.3999
    20.4590  21.0606  21.3640  21.6296  22.1841  22.2846

     occupation numbers 
     1.0000   1.0000   1.0000   1.0000   1.0000   1.0000   1.0000   1.0000
     1.0000   1.0000   1.0000   1.0000   1.0000   1.0000   1.0000   1.0000
     1.0000   1.0000   1.0000   1.0000   1.0000   1.0000   1.0000   1.0000
     1.0000   1.0000   1.0000   1.0000   1.0000   1.0000   1.0000   1.0000
     1.0000   1.0000   1.0000   1.0000   1.0000   1.0000   1.0000  -0.0000
    -0.0000  -0.0000  -0.0000  -0.0000  -0.0000  -0.0000  -0.0000  -0.0000
    -0.0000  -0.0000  -0.0000  -0.0000  -0.0000  -0.0000  -0.0000  -0.0000
    -0.0000  -0.0000  -0.0000  -0.0000  -0.0000  -0.0000

          k =-1.1504-0.2211 0.3351 (  9870 PWs)   bands (ev):

   -38.6093 -38.6092 -38.6086 -38.6081 -38.5991 -38.5987 -38.5982 -38.5980
   -38.5941 -38.5938 -38.5028 -38.4914 -38.4909 -38.4508 -38.4499 -14.3184
   -14.3154 -14.3022 -14.2999 -14.2986 -14.2952 -14.2915 -14.2899 -14.2859
   -14.2839  -3.9625  -3.6653  -3.4499  -1.8349  -1.5636   3.8715   4.6697
     5.1527   5.6304   6.0335   6.3039   6.8772   7.5081   7.7495  10.7344
    10.8489  11.6369  12.1090  12.3961  12.8866  13.6450  15.2337  15.6487
    17.1597  17.8102  18.4559  18.8209  19.1920  19.4694  20.1729  20.4380
    20.6993  21.1576  21.5289  21.8568  22.1469  22.5378

     occupation numbers 
     1.0000   1.0000   1.0000   1.0000   1.0000   1.0000   1.0000   1.0000
     1.0000   1.0000   1.0000   1.0000   1.0000   1.0000   1.0000   1.0000
     1.0000   1.0000   1.0000   1.0000   1.0000   1.0000   1.0000   1.0000
     1.0000   1.0000   1.0000   1.0000   1.0000   1.0000   1.0000   1.0000
     1.0000   1.0000   1.0000   1.0000   1.0000   1.0000   1.0000  -0.0000
    -0.0000  -0.0000  -0.0000  -0.0000  -0.0000  -0.0000  -0.0000  -0.0000
    -0.0000  -0.0000  -0.0000  -0.0000  -0.0000  -0.0000  -0.0000  -0.0000
    -0.0000  -0.0000  -0.0000  -0.0000  -0.0000  -0.0000

          k = 0.7070 0.8844-0.5017 (  9884 PWs)   bands (ev):

   -38.6096 -38.6091 -38.6088 -38.6084 -38.5991 -38.5989 -38.5983 -38.5981
   -38.5943 -38.5942 -38.5031 -38.4916 -38.4910 -38.4508 -38.4500 -14.3184
   -14.3154 -14.3022 -14.2999 -14.2985 -14.2952 -14.2915 -14.2899 -14.2859
   -14.2840  -3.9316  -3.7311  -3.4159  -1.8212  -1.5764   3.9548   4.6331
     5.0837   5.3138   6.1924   6.6015   7.1349   7.1980   7.6920  10.7457
    11.1144  11.3449  11.9074  12.3060  13.1783  13.8555  14.7633  15.6267
    17.6099  17.8205  18.3964  19.1440  19.4249  19.6439  19.7281  20.4917
    20.7440  21.0886  21.2001  21.4799  21.7979  22.6352

     occupation numbers 
     1.0000   1.0000   1.0000   1.0000   1.0000   1.0000   1.0000   1.0000
     1.0000   1.0000   1.0000   1.0000   1.0000   1.0000   1.0000   1.0000
     1.0000   1.0000   1.0000   1.0000   1.0000   1.0000   1.0000   1.0000
     1.0000   1.0000   1.0000   1.0000   1.0000   1.0000   1.0000   1.0000
     1.0000   1.0000   1.0000   1.0000   1.0000   1.0000   1.0000  -0.0000
    -0.0000  -0.0000  -0.0000  -0.0000  -0.0000  -0.0000  -0.0000  -0.0000
    -0.0000  -0.0000  -0.0000  -0.0000  -0.0000  -0.0000  -0.0000  -0.0000
    -0.0000  -0.0000  -0.0000  -0.0000  -0.0000  -0.0000

          k = 0.3355 0.6633-0.3343 (  9901 PWs)   bands (ev):

   -38.6102 -38.6099 -38.6093 -38.6089 -38.5990 -38.5986 -38.5983 -38.5979
   -38.5948 -38.5944 -38.5035 -38.4912 -38.4911 -38.4515 -38.4506 -14.3150
   -14.3128 -14.3008 -14.3005 -14.2985 -14.2983 -14.2930 -14.2918 -14.2898
   -14.2880  -4.6979  -4.2012  -3.5419  -1.2650  -0.8619   4.7482   5.0054
     5.5518   6.0767   6.1451   6.5176   7.5528   8.0569   8.0887  10.1827
    10.4327  10.9842  11.7255  12.4608  12.6230  14.0739  14.1140  15.9867
    16.5632  17.1569  17.4795  17.8729  18.3549  18.7167  18.8142  19.6583
    20.3039  20.5845  21.0501  21.8216  22.2050  22.3897

     occupation numbers 
     1.0000   1.0000   1.0000   1.0000   1.0000   1.0000   1.0000   1.0000
     1.0000   1.0000   1.0000   1.0000   1.0000   1.0000   1.0000   1.0000
     1.0000   1.0000   1.0000   1.0000   1.0000   1.0000   1.0000   1.0000
     1.0000   1.0000   1.0000   1.0000   1.0000   1.0000   1.0000   1.0000
     1.0000   1.0000   1.0000   1.0000   1.0000   1.0000   1.0000  -0.0000
    -0.0000  -0.0000  -0.0000  -0.0000  -0.0000  -0.0000  -0.0000  -0.0000
    -0.0000  -0.0000  -0.0000  -0.0000  -0.0000  -0.0000  -0.0000  -0.0000
    -0.0000  -0.0000  -0.0000  -0.0000  -0.0000  -0.0000

          k =-0.0360 0.4422-0.1670 (  9921 PWs)   bands (ev):

   -38.6104 -38.6100 -38.6098 -38.6093 -38.5989 -38.5987 -38.5985 -38.5979
   -38.5954 -38.5942 -38.5036 -38.4913 -38.4911 -38.4514 -38.4513 -14.3130
   -14.3113 -14.3047 -14.3035 -14.2989 -14.2966 -14.2945 -14.2922 -14.2920
   -14.2892  -5.1549  -4.5461  -3.7436  -0.9429  -0.3141   5.4795   5.9366
     6.1955   6.3328   6.9869   7.1803   7.4949   7.9319   8.1440   9.9757
    10.3809  10.6612  11.0540  11.6196  12.1041  14.1271  14.7834  15.9724
    16.1480  16.5487  17.1443  17.2441  17.4392  18.2240  18.3439  18.6895
    19.0006  19.7143  19.9948  20.4200  20.9595  21.5334

     occupation numbers 
     1.0000   1.0000   1.0000   1.0000   1.0000   1.0000   1.0000   1.0000
     1.0000   1.0000   1.0000   1.0000   1.0000   1.0000   1.0000   1.0000
     1.0000   1.0000   1.0000   1.0000   1.0000   1.0000   1.0000   1.0000
     1.0000   1.0000   1.0000   1.0000   1.0000   1.0000   1.0000   1.0000
     1.0000   1.0000   1.0000   1.0000   1.0000   1.0000   1.0000  -0.0000
    -0.0000  -0.0000  -0.0000  -0.0000  -0.0000  -0.0000  -0.0000  -0.0000
    -0.0000  -0.0000  -0.0000  -0.0000  -0.0000  -0.0000  -0.0000  -0.0000
    -0.0000  -0.0000  -0.0000  -0.0000  -0.0000  -0.0000

          k =-0.4075 0.6846 0.0000 (  9885 PWs)   bands (ev):

   -38.6100 -38.6092 -38.6090 -38.6088 -38.5985 -38.5985 -38.5983 -38.5982
   -38.5945 -38.5942 -38.5032 -38.4910 -38.4910 -38.4510 -38.4504 -14.3150
   -14.3128 -14.3008 -14.3005 -14.2985 -14.2983 -14.2930 -14.2918 -14.2898
   -14.2880  -4.7181  -4.1418  -3.5911  -1.2320  -0.8853   4.8150   4.9760
     5.6730   5.8329   6.2257   6.3681   7.7120   8.1080   8.1552  10.0553
    10.3872  10.8462  11.8002  12.6216  12.6305  14.0206  14.0380  16.5355
    16.9127  17.0806  17.2259  17.4131  18.3140  18.4315  18.6873  19.3999
    20.4590  21.0606  21.3640  21.6296  22.1841  22.2846

     occupation numbers 
     1.0000   1.0000   1.0000   1.0000   1.0000   1.0000   1.0000   1.0000
     1.0000   1.0000   1.0000   1.0000   1.0000   1.0000   1.0000   1.0000
     1.0000   1.0000   1.0000   1.0000   1.0000   1.0000   1.0000   1.0000
     1.0000   1.0000   1.0000   1.0000   1.0000   1.0000   1.0000   1.0000
     1.0000   1.0000   1.0000   1.0000   1.0000   1.0000   1.0000  -0.0000
    -0.0000  -0.0000  -0.0000  -0.0000  -0.0000  -0.0000  -0.0000  -0.0000
    -0.0000  -0.0000  -0.0000  -0.0000  -0.0000  -0.0000  -0.0000  -0.0000
    -0.0000  -0.0000  -0.0000  -0.0000  -0.0000  -0.0000

          k =-0.7790 0.4635 0.1673 (  9895 PWs)   bands (ev):

   -38.6105 -38.6094 -38.6093 -38.6087 -38.5988 -38.5987 -38.5983 -38.5980
   -38.5947 -38.5943 -38.5034 -38.4912 -38.4911 -38.4514 -38.4505 -14.3203
   -14.3172 -14.3026 -14.2986 -14.2960 -14.2938 -14.2910 -14.2900 -14.2888
   -14.2877  -4.5122  -3.9899  -3.5496  -1.4586  -1.0332   4.0578   5.3383
     5.7234   5.7394   6.3883   6.6286   7.1257   7.4500   7.7704  10.1491
    11.0375  11.3708  11.7106  12.1153  12.7251  13.0644  15.5176  16.2174
    16.9259  17.4384  17.4898  17.9568  18.9470  19.1711  19.2208  19.8855
    20.0246  20.3716  21.1932  22.6472  22.9911  23.0511

     occupation numbers 
     1.0000   1.0000   1.0000   1.0000   1.0000   1.0000   1.0000   1.0000
     1.0000   1.0000   1.0000   1.0000   1.0000   1.0000   1.0000   1.0000
     1.0000   1.0000   1.0000   1.0000   1.0000   1.0000   1.0000   1.0000
     1.0000   1.0000   1.0000   1.0000   1.0000   1.0000   1.0000   1.0000
     1.0000   1.0000   1.0000   1.0000   1.0000   1.0000   1.0000  -0.0000
    -0.0000  -0.0000  -0.0000  -0.0000  -0.0000  -0.0000  -0.0000  -0.0000
    -0.0000  -0.0000  -0.0000  -0.0000  -0.0000  -0.0000  -0.0000  -0.0000
    -0.0000  -0.0000  -0.0000  -0.0000  -0.0000  -0.0000

          k =-1.1504 0.2425 0.3347 (  9868 PWs)   bands (ev):

   -38.6093 -38.6090 -38.6087 -38.6080 -38.5986 -38.5986 -38.5984 -38.5981
   -38.5943 -38.5938 -38.5029 -38.4911 -38.4910 -38.4507 -38.4498 -14.3184
   -14.3154 -14.3022 -14.2999 -14.2986 -14.2952 -14.2915 -14.2899 -14.2859
   -14.2840  -3.9675  -3.6393  -3.4733  -1.8304  -1.5661   3.8884   4.7693
     5.2448   5.5788   5.6789   6.1338   6.9477   7.8507   7.9989  10.4405
    10.5173  11.5556  12.3227  12.5844  12.9696  13.4772  15.6695  15.9427
    16.6548  17.4802  17.9097  19.1183  19.2934  19.4801  20.1172  20.5132
    20.8549  21.1670  21.8318  22.1983  22.5301  23.0236

     occupation numbers 
     1.0000   1.0000   1.0000   1.0000   1.0000   1.0000   1.0000   1.0000
     1.0000   1.0000   1.0000   1.0000   1.0000   1.0000   1.0000   1.0000
     1.0000   1.0000   1.0000   1.0000   1.0000   1.0000   1.0000   1.0000
     1.0000   1.0000   1.0000   1.0000   1.0000   1.0000   1.0000   1.0000
     1.0000   1.0000   1.0000   1.0000   1.0000   1.0000   1.0000  -0.0000
    -0.0000  -0.0000  -0.0000  -0.0000  -0.0000  -0.0000  -0.0000  -0.0000
    -0.0000  -0.0000  -0.0000  -0.0000  -0.0000  -0.0000  -0.0000  -0.0000
    -0.0000  -0.0000  -0.0000  -0.0000  -0.0000  -0.0000

          k = 0.7069 1.3479-0.5020 (  9892 PWs)   bands (ev):

   -38.6095 -38.6093 -38.6091 -38.6088 -38.5990 -38.5984 -38.5983 -38.5978
   -38.5948 -38.5945 -38.5035 -38.4911 -38.4910 -38.4508 -38.4506 -14.3109
   -14.3108 -14.3067 -14.2986 -14.2952 -14.2950 -14.2949 -14.2937 -14.2865
   -14.2863  -3.4706  -3.4680  -3.4615  -2.0233  -2.0053   4.0435   4.5529
     4.5857   5.0268   5.7682   6.1618   6.9404   7.7087   7.9917  10.4854
    11.0297  11.5235  12.4814  12.9861  13.0199  15.0594  15.6860  15.9065
    16.0329  16.4049  17.8064  18.4988  19.0381  19.9750  20.0997  20.5737
    20.7036  21.2626  22.3234  22.4173  23.2744  23.4249

     occupation numbers 
     1.0000   1.0000   1.0000   1.0000   1.0000   1.0000   1.0000   1.0000
     1.0000   1.0000   1.0000   1.0000   1.0000   1.0000   1.0000   1.0000
     1.0000   1.0000   1.0000   1.0000   1.0000   1.0000   1.0000   1.0000
     1.0000   1.0000   1.0000   1.0000   1.0000   1.0000   1.0000   1.0000
     1.0000   1.0000   1.0000   1.0000   1.0000   1.0000   1.0000  -0.0000
    -0.0000  -0.0000  -0.0000  -0.0000  -0.0000  -0.0000  -0.0000  -0.0000
    -0.0000  -0.0000  -0.0000  -0.0000  -0.0000  -0.0000  -0.0000  -0.0000
    -0.0000  -0.0000  -0.0000  -0.0000  -0.0000  -0.0000

          k = 0.3354 1.1268-0.3347 (  9868 PWs)   bands (ev):

   -38.6093 -38.6090 -38.6087 -38.6080 -38.5986 -38.5986 -38.5984 -38.5981
   -38.5943 -38.5938 -38.5029 -38.4911 -38.4910 -38.4507 -38.4498 -14.3184
   -14.3154 -14.3022 -14.2999 -14.2986 -14.2952 -14.2915 -14.2899 -14.2859
   -14.2840  -3.9675  -3.6393  -3.4733  -1.8304  -1.5661   3.8884   4.7693
     5.2448   5.5788   5.6789   6.1338   6.9477   7.8507   7.9989  10.4405
    10.5173  11.5556  12.3227  12.5844  12.9696  13.4772  15.6695  15.9427
    16.6548  17.4802  17.9097  19.1183  19.2934  19.4801  20.1172  20.5132
    20.8549  21.1670  21.8318  22.1983  22.5302  23.0238

     occupation numbers 
     1.0000   1.0000   1.0000   1.0000   1.0000   1.0000   1.0000   1.0000
     1.0000   1.0000   1.0000   1.0000   1.0000   1.0000   1.0000   1.0000
     1.0000   1.0000   1.0000   1.0000   1.0000   1.0000   1.0000   1.0000
     1.0000   1.0000   1.0000   1.0000   1.0000   1.0000   1.0000   1.0000
     1.0000   1.0000   1.0000   1.0000   1.0000   1.0000   1.0000  -0.0000
    -0.0000  -0.0000  -0.0000  -0.0000  -0.0000  -0.0000  -0.0000  -0.0000
    -0.0000  -0.0000  -0.0000  -0.0000  -0.0000  -0.0000  -0.0000  -0.0000
    -0.0000  -0.0000  -0.0000  -0.0000  -0.0000  -0.0000

          k =-0.0360 0.9057-0.1673 (  9895 PWs)   bands (ev):

   -38.6105 -38.6094 -38.6093 -38.6087 -38.5988 -38.5987 -38.5983 -38.5980
   -38.5947 -38.5943 -38.5034 -38.4912 -38.4911 -38.4514 -38.4505 -14.3203
   -14.3172 -14.3026 -14.2986 -14.2960 -14.2938 -14.2910 -14.2900 -14.2888
   -14.2877  -4.5122  -3.9899  -3.5496  -1.4586  -1.0332   4.0578   5.3383
     5.7234   5.7394   6.3883   6.6286   7.1257   7.4500   7.7704  10.1491
    11.0375  11.3708  11.7106  12.1153  12.7251  13.0644  15.5176  16.2174
    16.9259  17.4384  17.4898  17.9568  18.9470  19.1711  19.2208  19.8855
    20.0246  20.3716  21.1932  22.6472  22.9911  23.0511

     occupation numbers 
     1.0000   1.0000   1.0000   1.0000   1.0000   1.0000   1.0000   1.0000
     1.0000   1.0000   1.0000   1.0000   1.0000   1.0000   1.0000   1.0000
     1.0000   1.0000   1.0000   1.0000   1.0000   1.0000   1.0000   1.0000
     1.0000   1.0000   1.0000   1.0000   1.0000   1.0000   1.0000   1.0000
     1.0000   1.0000   1.0000   1.0000   1.0000   1.0000   1.0000  -0.0000
    -0.0000  -0.0000  -0.0000  -0.0000  -0.0000  -0.0000  -0.0000  -0.0000
    -0.0000  -0.0000  -0.0000  -0.0000  -0.0000  -0.0000  -0.0000  -0.0000
    -0.0000  -0.0000  -0.0000  -0.0000  -0.0000  -0.0000

          k =-0.4076 1.1482-0.0004 (  9870 PWs)   bands (ev):

   -38.6093 -38.6092 -38.6086 -38.6081 -38.5991 -38.5987 -38.5982 -38.5980
   -38.5941 -38.5938 -38.5028 -38.4914 -38.4909 -38.4508 -38.4499 -14.3184
   -14.3154 -14.3022 -14.2999 -14.2986 -14.2952 -14.2915 -14.2899 -14.2859
   -14.2839  -3.9625  -3.6653  -3.4499  -1.8349  -1.5636   3.8715   4.6697
     5.1527   5.6304   6.0335   6.3039   6.8772   7.5081   7.7495  10.7344
    10.8489  11.6369  12.1090  12.3961  12.8866  13.6450  15.2337  15.6487
    17.1597  17.8102  18.4559  18.8209  19.1920  19.4694  20.1729  20.4380
    20.6993  21.1576  21.5289  21.8568  22.1469  22.5378

     occupation numbers 
     1.0000   1.0000   1.0000   1.0000   1.0000   1.0000   1.0000   1.0000
     1.0000   1.0000   1.0000   1.0000   1.0000   1.0000   1.0000   1.0000
     1.0000   1.0000   1.0000   1.0000   1.0000   1.0000   1.0000   1.0000
     1.0000   1.0000   1.0000   1.0000   1.0000   1.0000   1.0000   1.0000
     1.0000   1.0000   1.0000   1.0000   1.0000   1.0000   1.0000  -0.0000
    -0.0000  -0.0000  -0.0000  -0.0000  -0.0000  -0.0000  -0.0000  -0.0000
    -0.0000  -0.0000  -0.0000  -0.0000  -0.0000  -0.0000  -0.0000  -0.0000
    -0.0000  -0.0000  -0.0000  -0.0000  -0.0000  -0.0000

          k =-0.7790 0.9271 0.1670 (  9868 PWs)   bands (ev):

   -38.6093 -38.6090 -38.6087 -38.6080 -38.5986 -38.5986 -38.5984 -38.5981
   -38.5943 -38.5938 -38.5029 -38.4911 -38.4910 -38.4507 -38.4498 -14.3184
   -14.3154 -14.3022 -14.2999 -14.2986 -14.2952 -14.2915 -14.2899 -14.2859
   -14.2840  -3.9675  -3.6393  -3.4733  -1.8304  -1.5661   3.8884   4.7693
     5.2448   5.5788   5.6789   6.1338   6.9477   7.8507   7.9989  10.4405
    10.5173  11.5556  12.3227  12.5844  12.9696  13.4772  15.6695  15.9427
    16.6548  17.4802  17.9097  19.1183  19.2934  19.4801  20.1172  20.5132
    20.8549  21.1670  21.8318  22.1983  22.5302  23.0248

     occupation numbers 
     1.0000   1.0000   1.0000   1.0000   1.0000   1.0000   1.0000   1.0000
     1.0000   1.0000   1.0000   1.0000   1.0000   1.0000   1.0000   1.0000
     1.0000   1.0000   1.0000   1.0000   1.0000   1.0000   1.0000   1.0000
     1.0000   1.0000   1.0000   1.0000   1.0000   1.0000   1.0000   1.0000
     1.0000   1.0000   1.0000   1.0000   1.0000   1.0000   1.0000  -0.0000
    -0.0000  -0.0000  -0.0000  -0.0000  -0.0000  -0.0000  -0.0000  -0.0000
    -0.0000  -0.0000  -0.0000  -0.0000  -0.0000  -0.0000  -0.0000  -0.0000
    -0.0000  -0.0000  -0.0000  -0.0000  -0.0000  -0.0000

          k =-1.1505 0.7060 0.3343 (  9889 PWs)   bands (ev):

   -38.6103 -38.6093 -38.6087 -38.6078 -38.5990 -38.5990 -38.5987 -38.5983
   -38.5945 -38.5939 -38.5031 -38.4915 -38.4913 -38.4512 -38.4497 -14.3246
   -14.3208 -14.3053 -14.3010 -14.2964 -14.2921 -14.2860 -14.2859 -14.2852
   -14.2837  -3.7725  -3.6712  -3.6461  -1.9430  -1.4730   3.7795   4.8758
     5.1617   5.4614   6.2173   6.4980   7.3363   7.3910   7.5906  10.0826
    10.8402  11.0729  11.7103  12.3869  12.8436  13.6307  15.2433  16.7243
    17.8440  18.2397  19.0919  19.1761  19.4656  19.6030  20.4551  20.6618
    20.7048  21.1609  21.2796  21.6784  21.7678  22.5020

     occupation numbers 
     1.0000   1.0000   1.0000   1.0000   1.0000   1.0000   1.0000   1.0000
     1.0000   1.0000   1.0000   1.0000   1.0000   1.0000   1.0000   1.0000
     1.0000   1.0000   1.0000   1.0000   1.0000   1.0000   1.0000   1.0000
     1.0000   1.0000   1.0000   1.0000   1.0000   1.0000   1.0000   1.0000
     1.0000   1.0000   1.0000   1.0000   1.0000   1.0000   1.0000  -0.0000
    -0.0000  -0.0000  -0.0000  -0.0000  -0.0000  -0.0000  -0.0000  -0.0000
    -0.0000  -0.0000  -0.0000  -0.0000  -0.0000  -0.0000  -0.0000  -0.0000
    -0.0000  -0.0000  -0.0000  -0.0000  -0.0000  -0.0000

          k = 0.7068 1.8115-0.5024 (  9872 PWs)   bands (ev):

   -38.6094 -38.6090 -38.6085 -38.6081 -38.5988 -38.5986 -38.5984 -38.5980
   -38.5944 -38.5939 -38.5030 -38.4913 -38.4910 -38.4507 -38.4498 -14.3183
   -14.3154 -14.3022 -14.3000 -14.2986 -14.2952 -14.2915 -14.2899 -14.2858
   -14.2840  -3.9059  -3.7609  -3.4175  -1.7949  -1.5976   4.1340   4.7827
     4.8703   5.1927   5.7646   6.2355   7.5278   7.7785   8.1322  10.1875
    10.5714  10.9728  12.2744  12.6397  13.4758  13.5537  15.2961  15.8659
    16.9998  17.5879  17.8493  19.1913  19.3469  19.7385  20.3161  20.7297
    20.7606  21.1913  21.2030  21.8735  22.4410  22.5587

     occupation numbers 
     1.0000   1.0000   1.0000   1.0000   1.0000   1.0000   1.0000   1.0000
     1.0000   1.0000   1.0000   1.0000   1.0000   1.0000   1.0000   1.0000
     1.0000   1.0000   1.0000   1.0000   1.0000   1.0000   1.0000   1.0000
     1.0000   1.0000   1.0000   1.0000   1.0000   1.0000   1.0000   1.0000
     1.0000   1.0000   1.0000   1.0000   1.0000   1.0000   1.0000  -0.0000
    -0.0000  -0.0000  -0.0000  -0.0000  -0.0000  -0.0000  -0.0000  -0.0000
    -0.0000  -0.0000  -0.0000  -0.0000  -0.0000  -0.0000  -0.0000  -0.0000
    -0.0000  -0.0000  -0.0000  -0.0000  -0.0000  -0.0000

          k = 0.3354 1.5904-0.3351 (  9895 PWs)   bands (ev):

   -38.6097 -38.6093 -38.6089 -38.6085 -38.5992 -38.5988 -38.5986 -38.5983
   -38.5947 -38.5943 -38.5033 -38.4914 -38.4914 -38.4510 -38.4502 -14.3184
   -14.3154 -14.3022 -14.2999 -14.2986 -14.2952 -14.2915 -14.2899 -14.2858
   -14.2840  -3.8907  -3.7876  -3.4036  -1.8004  -1.5941   4.0957   4.6823
     4.9500   5.1083   6.0300   6.5377   7.3140   7.4379   7.9560  10.3746
    10.9191  11.1716  12.0228  12.4147  13.4543  13.7708  14.8544  15.6920
    17.3461  17.8233  18.3474  19.2070  19.3346  19.6865  20.0245  20.5663
    20.6608  21.0986  21.2402  21.3864  22.1229  22.6989

     occupation numbers 
     1.0000   1.0000   1.0000   1.0000   1.0000   1.0000   1.0000   1.0000
     1.0000   1.0000   1.0000   1.0000   1.0000   1.0000   1.0000   1.0000
     1.0000   1.0000   1.0000   1.0000   1.0000   1.0000   1.0000   1.0000
     1.0000   1.0000   1.0000   1.0000   1.0000   1.0000   1.0000   1.0000
     1.0000   1.0000   1.0000   1.0000   1.0000   1.0000   1.0000  -0.0000
    -0.0000  -0.0000  -0.0000  -0.0000  -0.0000  -0.0000  -0.0000  -0.0000
    -0.0000  -0.0000  -0.0000  -0.0000  -0.0000  -0.0000  -0.0000  -0.0000
    -0.0000  -0.0000  -0.0000  -0.0000  -0.0000  -0.0000

          k =-0.0361 1.3693-0.1677 (  9866 PWs)   bands (ev):

   -38.6102 -38.6090 -38.6087 -38.6080 -38.5985 -38.5984 -38.5979 -38.5978
   -38.5942 -38.5938 -38.5029 -38.4909 -38.4907 -38.4511 -38.4498 -14.3246
   -14.3208 -14.3053 -14.3010 -14.2964 -14.2921 -14.2861 -14.2859 -14.2852
   -14.2836  -3.7647  -3.6695  -3.6596  -1.9054  -1.5089   3.6479   5.2072
     5.3222   5.5353   6.0420   6.1201   7.0400   7.5041   7.9427   9.8117
    10.8049  11.3283  11.7758  12.6428  12.9368  13.2172  14.9668  17.2441
    18.0987  18.2142  19.0043  19.1784  19.3963  19.5287  20.3112  20.4318
    20.5680  21.2835  21.2921  21.4955  21.8307  22.1558

     occupation numbers 
     1.0000   1.0000   1.0000   1.0000   1.0000   1.0000   1.0000   1.0000
     1.0000   1.0000   1.0000   1.0000   1.0000   1.0000   1.0000   1.0000
     1.0000   1.0000   1.0000   1.0000   1.0000   1.0000   1.0000   1.0000
     1.0000   1.0000   1.0000   1.0000   1.0000   1.0000   1.0000   1.0000
     1.0000   1.0000   1.0000   1.0000   1.0000   1.0000   1.0000  -0.0000
    -0.0000  -0.0000  -0.0000  -0.0000  -0.0000  -0.0000  -0.0000  -0.0000
    -0.0000  -0.0000  -0.0000  -0.0000  -0.0000  -0.0000  -0.0000  -0.0000
    -0.0000  -0.0000  -0.0000  -0.0000  -0.0000  -0.0000

          k =-0.4072-1.1695 0.0015 (  9884 PWs)   bands (ev):

   -38.6096 -38.6091 -38.6088 -38.6084 -38.5991 -38.5989 -38.5983 -38.5981
   -38.5943 -38.5942 -38.5031 -38.4916 -38.4910 -38.4508 -38.4500 -14.3184
   -14.3154 -14.3022 -14.2999 -14.2985 -14.2952 -14.2915 -14.2899 -14.2859
   -14.2840  -3.9316  -3.7311  -3.4159  -1.8212  -1.5764   3.9548   4.6331
     5.0837   5.3138   6.1924   6.6015   7.1349   7.1980   7.6920  10.7457
    11.1144  11.3449  11.9074  12.3060  13.1783  13.8555  14.7633  15.6267
    17.6099  17.8205  18.3964  19.1440  19.4249  19.6439  19.7281  20.4917
    20.7440  21.0886  21.2001  21.4799  21.7979  22.6352

     occupation numbers 
     1.0000   1.0000   1.0000   1.0000   1.0000   1.0000   1.0000   1.0000
     1.0000   1.0000   1.0000   1.0000   1.0000   1.0000   1.0000   1.0000
     1.0000   1.0000   1.0000   1.0000   1.0000   1.0000   1.0000   1.0000
     1.0000   1.0000   1.0000   1.0000   1.0000   1.0000   1.0000   1.0000
     1.0000   1.0000   1.0000   1.0000   1.0000   1.0000   1.0000  -0.0000
    -0.0000  -0.0000  -0.0000  -0.0000  -0.0000  -0.0000  -0.0000  -0.0000
    -0.0000  -0.0000  -0.0000  -0.0000  -0.0000  -0.0000  -0.0000  -0.0000
    -0.0000  -0.0000  -0.0000  -0.0000  -0.0000  -0.0000

          k =-0.7786-1.3906 0.1688 (  9892 PWs)   bands (ev):

   -38.6095 -38.6093 -38.6091 -38.6088 -38.5990 -38.5984 -38.5983 -38.5978
   -38.5948 -38.5945 -38.5035 -38.4911 -38.4910 -38.4508 -38.4506 -14.3109
   -14.3108 -14.3067 -14.2986 -14.2952 -14.2950 -14.2949 -14.2937 -14.2865
   -14.2863  -3.4706  -3.4680  -3.4615  -2.0233  -2.0053   4.0435   4.5529
     4.5857   5.0268   5.7682   6.1618   6.9404   7.7087   7.9917  10.4854
    11.0297  11.5235  12.4814  12.9861  13.0199  15.0594  15.6860  15.9065
    16.0329  16.4049  17.8064  18.4988  19.0381  19.9750  20.0997  20.5737
    20.7036  21.2626  22.3234  22.4173  23.2745  23.4254

     occupation numbers 
     1.0000   1.0000   1.0000   1.0000   1.0000   1.0000   1.0000   1.0000
     1.0000   1.0000   1.0000   1.0000   1.0000   1.0000   1.0000   1.0000
     1.0000   1.0000   1.0000   1.0000   1.0000   1.0000   1.0000   1.0000
     1.0000   1.0000   1.0000   1.0000   1.0000   1.0000   1.0000   1.0000
     1.0000   1.0000   1.0000   1.0000   1.0000   1.0000   1.0000  -0.0000
    -0.0000  -0.0000  -0.0000  -0.0000  -0.0000  -0.0000  -0.0000  -0.0000
    -0.0000  -0.0000  -0.0000  -0.0000  -0.0000  -0.0000  -0.0000  -0.0000
    -0.0000  -0.0000  -0.0000  -0.0000  -0.0000  -0.0000

          k =-1.1501-1.6117 0.3362 (  9872 PWs)   bands (ev):

   -38.6094 -38.6090 -38.6085 -38.6081 -38.5988 -38.5986 -38.5984 -38.5980
   -38.5944 -38.5939 -38.5030 -38.4913 -38.4910 -38.4507 -38.4498 -14.3183
   -14.3154 -14.3022 -14.3000 -14.2986 -14.2952 -14.2915 -14.2899 -14.2858
   -14.2840  -3.9059  -3.7609  -3.4175  -1.7949  -1.5976   4.1340   4.7827
     4.8703   5.1927   5.7646   6.2355   7.5278   7.7785   8.1322  10.1875
    10.5714  10.9728  12.2744  12.6397  13.4758  13.5537  15.2961  15.8659
    16.9998  17.5879  17.8493  19.1913  19.3469  19.7385  20.3161  20.7297
    20.7606  21.1913  21.2030  21.8735  22.4411  22.5587

     occupation numbers 
     1.0000   1.0000   1.0000   1.0000   1.0000   1.0000   1.0000   1.0000
     1.0000   1.0000   1.0000   1.0000   1.0000   1.0000   1.0000   1.0000
     1.0000   1.0000   1.0000   1.0000   1.0000   1.0000   1.0000   1.0000
     1.0000   1.0000   1.0000   1.0000   1.0000   1.0000   1.0000   1.0000
     1.0000   1.0000   1.0000   1.0000   1.0000   1.0000   1.0000  -0.0000
    -0.0000  -0.0000  -0.0000  -0.0000  -0.0000  -0.0000  -0.0000  -0.0000
    -0.0000  -0.0000  -0.0000  -0.0000  -0.0000  -0.0000  -0.0000  -0.0000
    -0.0000  -0.0000  -0.0000  -0.0000  -0.0000  -0.0000

          k = 0.7072-0.5063-0.5005 (  9880 PWs)   bands (ev):

   -38.6100 -38.6092 -38.6090 -38.6083 -38.5987 -38.5986 -38.5980 -38.5980
   -38.5948 -38.5943 -38.5034 -38.4910 -38.4910 -38.4511 -38.4502 -14.3203
   -14.3173 -14.3026 -14.2986 -14.2960 -14.2938 -14.2910 -14.2899 -14.2888
   -14.2877  -4.4363  -4.1594  -3.4441  -1.4271  -1.0815   4.1299   5.1138
     5.6972   5.7775   6.4573   6.7187   7.1920   7.3963   7.8427  10.1318
    11.0001  11.1592  11.6113  12.2095  12.9082  13.2412  15.0810  16.4096
    16.6951  17.5450  17.6001  17.8075  18.1240  18.9624  20.0660  20.4852
    20.9758  21.0493  21.2356  22.2201  22.4420  22.8935

     occupation numbers 
     1.0000   1.0000   1.0000   1.0000   1.0000   1.0000   1.0000   1.0000
     1.0000   1.0000   1.0000   1.0000   1.0000   1.0000   1.0000   1.0000
     1.0000   1.0000   1.0000   1.0000   1.0000   1.0000   1.0000   1.0000
     1.0000   1.0000   1.0000   1.0000   1.0000   1.0000   1.0000   1.0000
     1.0000   1.0000   1.0000   1.0000   1.0000   1.0000   1.0000  -0.0000
    -0.0000  -0.0000  -0.0000  -0.0000  -0.0000  -0.0000  -0.0000  -0.0000
    -0.0000  -0.0000  -0.0000  -0.0000  -0.0000  -0.0000  -0.0000  -0.0000
    -0.0000  -0.0000  -0.0000  -0.0000  -0.0000  -0.0000

          k = 0.3358-0.7274-0.3332 (  9898 PWs)   bands (ev):

   -38.6099 -38.6097 -38.6094 -38.6089 -38.5989 -38.5987 -38.5982 -38.5979
   -38.5950 -38.5944 -38.5035 -38.4912 -38.4910 -38.4513 -38.4507 -14.3150
   -14.3128 -14.3008 -14.3005 -14.2985 -14.2983 -14.2930 -14.2918 -14.2898
   -14.2880  -4.6449  -4.3164  -3.4592  -1.3232  -0.8239   4.6800   4.9457
     5.6001   6.0607   6.3398   6.7767   7.3485   7.8133   7.9360  10.4583
    10.6526  11.1876  11.5194  12.2446  12.4838  14.2312  14.3063  15.3529
    15.9827  17.4203  17.7177  18.2613  18.5499  19.0584  19.5760  19.8386
    19.9995  20.2292  20.7194  21.4316  22.1092  22.2519

     occupation numbers 
     1.0000   1.0000   1.0000   1.0000   1.0000   1.0000   1.0000   1.0000
     1.0000   1.0000   1.0000   1.0000   1.0000   1.0000   1.0000   1.0000
     1.0000   1.0000   1.0000   1.0000   1.0000   1.0000   1.0000   1.0000
     1.0000   1.0000   1.0000   1.0000   1.0000   1.0000   1.0000   1.0000
     1.0000   1.0000   1.0000   1.0000   1.0000   1.0000   1.0000  -0.0000
    -0.0000  -0.0000  -0.0000  -0.0000  -0.0000  -0.0000  -0.0000  -0.0000
    -0.0000  -0.0000  -0.0000  -0.0000  -0.0000  -0.0000  -0.0000  -0.0000
    -0.0000  -0.0000  -0.0000  -0.0000  -0.0000  -0.0000

          k =-0.0357-0.9484-0.1659 (  9894 PWs)   bands (ev):

   -38.6101 -38.6091 -38.6091 -38.6086 -38.5990 -38.5989 -38.5986 -38.5982
   -38.5945 -38.5943 -38.5033 -38.4914 -38.4913 -38.4511 -38.4504 -14.3203
   -14.3172 -14.3026 -14.2986 -14.2960 -14.2938 -14.2910 -14.2900 -14.2888
   -14.2876  -4.4517  -4.1415  -3.4357  -1.5101  -1.0086   4.3198   4.9031
     5.7165   5.8322   6.1650   6.2975   7.6417   7.6963   8.3278   9.5846
    10.7066  10.7665  11.7819  12.4393  13.2168  13.2923  15.0198  15.9920
    17.1686  17.5600  17.5786  18.1050  18.8162  19.2758  19.5453  20.0171
    20.3404  20.7568  21.3506  21.6192  21.9227  22.6119

     occupation numbers 
     1.0000   1.0000   1.0000   1.0000   1.0000   1.0000   1.0000   1.0000
     1.0000   1.0000   1.0000   1.0000   1.0000   1.0000   1.0000   1.0000
     1.0000   1.0000   1.0000   1.0000   1.0000   1.0000   1.0000   1.0000
     1.0000   1.0000   1.0000   1.0000   1.0000   1.0000   1.0000   1.0000
     1.0000   1.0000   1.0000   1.0000   1.0000   1.0000   1.0000  -0.0000
    -0.0000  -0.0000  -0.0000  -0.0000  -0.0000  -0.0000  -0.0000  -0.0000
    -0.0000  -0.0000  -0.0000  -0.0000  -0.0000  -0.0000  -0.0000  -0.0000
    -0.0000  -0.0000  -0.0000  -0.0000  -0.0000  -0.0000

          k =-0.4073-0.7060 0.0011 (  9901 PWs)   bands (ev):

   -38.6102 -38.6099 -38.6093 -38.6089 -38.5990 -38.5986 -38.5983 -38.5979
   -38.5948 -38.5944 -38.5035 -38.4912 -38.4911 -38.4515 -38.4506 -14.3150
   -14.3128 -14.3008 -14.3005 -14.2985 -14.2983 -14.2930 -14.2918 -14.2898
   -14.2880  -4.6979  -4.2012  -3.5419  -1.2650  -0.8619   4.7482   5.0054
     5.5518   6.0767   6.1451   6.5176   7.5528   8.0569   8.0887  10.1827
    10.4327  10.9842  11.7255  12.4608  12.6230  14.0739  14.1140  15.9867
    16.5632  17.1569  17.4795  17.8729  18.3548  18.7167  18.8142  19.6583
    20.3039  20.5845  21.0501  21.8217  22.2050  22.3897

     occupation numbers 
     1.0000   1.0000   1.0000   1.0000   1.0000   1.0000   1.0000   1.0000
     1.0000   1.0000   1.0000   1.0000   1.0000   1.0000   1.0000   1.0000
     1.0000   1.0000   1.0000   1.0000   1.0000   1.0000   1.0000   1.0000
     1.0000   1.0000   1.0000   1.0000   1.0000   1.0000   1.0000   1.0000
     1.0000   1.0000   1.0000   1.0000   1.0000   1.0000   1.0000  -0.0000
    -0.0000  -0.0000  -0.0000  -0.0000  -0.0000  -0.0000  -0.0000  -0.0000
    -0.0000  -0.0000  -0.0000  -0.0000  -0.0000  -0.0000  -0.0000  -0.0000
    -0.0000  -0.0000  -0.0000  -0.0000  -0.0000  -0.0000

          k =-0.7787-0.9271 0.1685 (  9868 PWs)   bands (ev):

   -38.6093 -38.6090 -38.6087 -38.6080 -38.5986 -38.5986 -38.5984 -38.5981
   -38.5943 -38.5938 -38.5029 -38.4911 -38.4910 -38.4507 -38.4498 -14.3184
   -14.3154 -14.3022 -14.2999 -14.2986 -14.2952 -14.2915 -14.2899 -14.2859
   -14.2840  -3.9675  -3.6393  -3.4733  -1.8304  -1.5661   3.8884   4.7693
     5.2448   5.5788   5.6789   6.1338   6.9477   7.8507   7.9989  10.4405
    10.5173  11.5556  12.3227  12.5844  12.9696  13.4772  15.6695  15.9427
    16.6548  17.4802  17.9097  19.1183  19.2934  19.4801  20.1172  20.5132
    20.8549  21.1670  21.8318  22.1983  22.5301  23.0235

     occupation numbers 
     1.0000   1.0000   1.0000   1.0000   1.0000   1.0000   1.0000   1.0000
     1.0000   1.0000   1.0000   1.0000   1.0000   1.0000   1.0000   1.0000
     1.0000   1.0000   1.0000   1.0000   1.0000   1.0000   1.0000   1.0000
     1.0000   1.0000   1.0000   1.0000   1.0000   1.0000   1.0000   1.0000
     1.0000   1.0000   1.0000   1.0000   1.0000   1.0000   1.0000  -0.0000
    -0.0000  -0.0000  -0.0000  -0.0000  -0.0000  -0.0000  -0.0000  -0.0000
    -0.0000  -0.0000  -0.0000  -0.0000  -0.0000  -0.0000  -0.0000  -0.0000
    -0.0000  -0.0000  -0.0000  -0.0000  -0.0000  -0.0000

          k =-1.1502-1.1482 0.3358 (  9895 PWs)   bands (ev):

   -38.6097 -38.6093 -38.6089 -38.6085 -38.5992 -38.5988 -38.5986 -38.5983
   -38.5947 -38.5943 -38.5033 -38.4914 -38.4914 -38.4510 -38.4502 -14.3184
   -14.3154 -14.3022 -14.2999 -14.2986 -14.2952 -14.2915 -14.2899 -14.2858
   -14.2840  -3.8907  -3.7876  -3.4036  -1.8004  -1.5941   4.0957   4.6823
     4.9500   5.1083   6.0300   6.5377   7.3140   7.4379   7.9560  10.3746
    10.9191  11.1716  12.0228  12.4147  13.4543  13.7708  14.8544  15.6920
    17.3461  17.8233  18.3474  19.2070  19.3346  19.6865  20.0245  20.5663
    20.6608  21.0986  21.2402  21.3864  22.1229  22.6989

     occupation numbers 
     1.0000   1.0000   1.0000   1.0000   1.0000   1.0000   1.0000   1.0000
     1.0000   1.0000   1.0000   1.0000   1.0000   1.0000   1.0000   1.0000
     1.0000   1.0000   1.0000   1.0000   1.0000   1.0000   1.0000   1.0000
     1.0000   1.0000   1.0000   1.0000   1.0000   1.0000   1.0000   1.0000
     1.0000   1.0000   1.0000   1.0000   1.0000   1.0000   1.0000  -0.0000
    -0.0000  -0.0000  -0.0000  -0.0000  -0.0000  -0.0000  -0.0000  -0.0000
    -0.0000  -0.0000  -0.0000  -0.0000  -0.0000  -0.0000  -0.0000  -0.0000
    -0.0000  -0.0000  -0.0000  -0.0000  -0.0000  -0.0000

          k = 0.7071-0.0427-0.5009 (  9898 PWs)   bands (ev):

   -38.6099 -38.6097 -38.6094 -38.6089 -38.5989 -38.5987 -38.5982 -38.5979
   -38.5950 -38.5944 -38.5035 -38.4912 -38.4910 -38.4513 -38.4507 -14.3150
   -14.3128 -14.3008 -14.3005 -14.2985 -14.2983 -14.2930 -14.2918 -14.2898
   -14.2880  -4.6449  -4.3164  -3.4592  -1.3232  -0.8239   4.6800   4.9457
     5.6001   6.0607   6.3398   6.7767   7.3485   7.8133   7.9360  10.4583
    10.6526  11.1876  11.5194  12.2446  12.4838  14.2312  14.3063  15.3529
    15.9827  17.4203  17.7177  18.2613  18.5499  19.0584  19.5760  19.8386
    19.9995  20.2292  20.7194  21.4316  22.1092  22.2518

     occupation numbers 
     1.0000   1.0000   1.0000   1.0000   1.0000   1.0000   1.0000   1.0000
     1.0000   1.0000   1.0000   1.0000   1.0000   1.0000   1.0000   1.0000
     1.0000   1.0000   1.0000   1.0000   1.0000   1.0000   1.0000   1.0000
     1.0000   1.0000   1.0000   1.0000   1.0000   1.0000   1.0000   1.0000
     1.0000   1.0000   1.0000   1.0000   1.0000   1.0000   1.0000  -0.0000
    -0.0000  -0.0000  -0.0000  -0.0000  -0.0000  -0.0000  -0.0000  -0.0000
    -0.0000  -0.0000  -0.0000  -0.0000  -0.0000  -0.0000  -0.0000  -0.0000
    -0.0000  -0.0000  -0.0000  -0.0000  -0.0000  -0.0000

          k = 0.3357-0.2638-0.3336 (  9919 PWs)   bands (ev):

   -38.6104 -38.6102 -38.6099 -38.6094 -38.5988 -38.5986 -38.5982 -38.5979
   -38.5951 -38.5945 -38.5037 -38.4912 -38.4910 -38.4516 -38.4514 -14.3130
   -14.3113 -14.3047 -14.3035 -14.2989 -14.2967 -14.2945 -14.2922 -14.2920
   -14.2892  -5.1075  -4.6635  -3.6400  -1.0644  -0.2255   5.3833   6.1933
     6.2780   6.3528   6.8021   6.9040   7.5822   7.9891   8.2543   9.7557
    10.4750  10.5327  11.2042  11.7470  12.0809  14.2954  14.8197  15.8241
    15.9552  16.3637  16.9413  17.6187  17.6960  17.8068  17.9463  18.8014
    19.2058  19.4387  20.4332  20.6386  21.3515  21.7829

     occupation numbers 
     1.0000   1.0000   1.0000   1.0000   1.0000   1.0000   1.0000   1.0000
     1.0000   1.0000   1.0000   1.0000   1.0000   1.0000   1.0000   1.0000
     1.0000   1.0000   1.0000   1.0000   1.0000   1.0000   1.0000   1.0000
     1.0000   1.0000   1.0000   1.0000   1.0000   1.0000   1.0000   1.0000
     1.0000   1.0000   1.0000   1.0000   1.0000   1.0000   1.0000  -0.0000
    -0.0000  -0.0000  -0.0000  -0.0000  -0.0000  -0.0000  -0.0000  -0.0000
    -0.0000  -0.0000  -0.0000  -0.0000  -0.0000  -0.0000  -0.0000  -0.0000
    -0.0000  -0.0000  -0.0000  -0.0000  -0.0000  -0.0000

          k =-0.0358-0.4849-0.1662 (  9930 PWs)   bands (ev):

   -38.6103 -38.6103 -38.6099 -38.6095 -38.5991 -38.5989 -38.5983 -38.5980
   -38.5951 -38.5948 -38.5038 -38.4914 -38.4912 -38.4516 -38.4514 -14.3130
   -14.3113 -14.3047 -14.3035 -14.2989 -14.2967 -14.2946 -14.2922 -14.2920
   -14.2892  -5.1252  -4.6255  -3.6691  -1.0531  -0.2214   5.4476   5.8408
     6.2906   6.4224   6.7714   7.4243   7.6406   7.6632   8.1557   9.9081
    10.7080  10.7924  10.8769  11.5074  11.9294  14.0357  15.1198  15.8044
    16.2684  16.2736  16.7999  17.0292  17.7833  18.5849  18.8065  18.9687
    19.2938  19.6549  19.6749  20.3684  20.6268  21.4913

     occupation numbers 
     1.0000   1.0000   1.0000   1.0000   1.0000   1.0000   1.0000   1.0000
     1.0000   1.0000   1.0000   1.0000   1.0000   1.0000   1.0000   1.0000
     1.0000   1.0000   1.0000   1.0000   1.0000   1.0000   1.0000   1.0000
     1.0000   1.0000   1.0000   1.0000   1.0000   1.0000   1.0000   1.0000
     1.0000   1.0000   1.0000   1.0000   1.0000   1.0000   1.0000  -0.0000
    -0.0000  -0.0000  -0.0000  -0.0000  -0.0000  -0.0000  -0.0000  -0.0000
    -0.0000  -0.0000  -0.0000  -0.0000  -0.0000  -0.0000  -0.0000  -0.0000
    -0.0000  -0.0000  -0.0000  -0.0000  -0.0000  -0.0000

          k =-0.4073-0.2425 0.0007 (  9921 PWs)   bands (ev):

   -38.6104 -38.6100 -38.6098 -38.6093 -38.5989 -38.5987 -38.5985 -38.5979
   -38.5954 -38.5942 -38.5036 -38.4913 -38.4911 -38.4514 -38.4513 -14.3130
   -14.3113 -14.3047 -14.3035 -14.2989 -14.2966 -14.2945 -14.2922 -14.2920
   -14.2892  -5.1549  -4.5461  -3.7436  -0.9429  -0.3141   5.4795   5.9366
     6.1955   6.3328   6.9869   7.1803   7.4949   7.9319   8.1440   9.9757
    10.3809  10.6612  11.0540  11.6196  12.1041  14.1271  14.7834  15.9724
    16.1480  16.5487  17.1443  17.2441  17.4392  18.2240  18.3439  18.6895
    19.0006  19.7143  19.9948  20.4200  20.9595  21.5334

     occupation numbers 
     1.0000   1.0000   1.0000   1.0000   1.0000   1.0000   1.0000   1.0000
     1.0000   1.0000   1.0000   1.0000   1.0000   1.0000   1.0000   1.0000
     1.0000   1.0000   1.0000   1.0000   1.0000   1.0000   1.0000   1.0000
     1.0000   1.0000   1.0000   1.0000   1.0000   1.0000   1.0000   1.0000
     1.0000   1.0000   1.0000   1.0000   1.0000   1.0000   1.0000  -0.0000
    -0.0000  -0.0000  -0.0000  -0.0000  -0.0000  -0.0000  -0.0000  -0.0000
    -0.0000  -0.0000  -0.0000  -0.0000  -0.0000  -0.0000  -0.0000  -0.0000
    -0.0000  -0.0000  -0.0000  -0.0000  -0.0000  -0.0000

          k =-0.7788-0.4635 0.1681 (  9895 PWs)   bands (ev):

   -38.6105 -38.6094 -38.6093 -38.6087 -38.5988 -38.5987 -38.5983 -38.5980
   -38.5947 -38.5943 -38.5034 -38.4912 -38.4911 -38.4514 -38.4505 -14.3203
   -14.3172 -14.3026 -14.2986 -14.2960 -14.2938 -14.2910 -14.2900 -14.2888
   -14.2877  -4.5122  -3.9899  -3.5496  -1.4586  -1.0332   4.0578   5.3383
     5.7234   5.7394   6.3883   6.6286   7.1257   7.4500   7.7704  10.1491
    11.0375  11.3708  11.7106  12.1153  12.7251  13.0644  15.5176  16.2174
    16.9259  17.4384  17.4898  17.9568  18.9470  19.1711  19.2208  19.8855
    20.0246  20.3716  21.1932  22.6472  22.9912  23.0512

     occupation numbers 
     1.0000   1.0000   1.0000   1.0000   1.0000   1.0000   1.0000   1.0000
     1.0000   1.0000   1.0000   1.0000   1.0000   1.0000   1.0000   1.0000
     1.0000   1.0000   1.0000   1.0000   1.0000   1.0000   1.0000   1.0000
     1.0000   1.0000   1.0000   1.0000   1.0000   1.0000   1.0000   1.0000
     1.0000   1.0000   1.0000   1.0000   1.0000   1.0000   1.0000  -0.0000
    -0.0000  -0.0000  -0.0000  -0.0000  -0.0000  -0.0000  -0.0000  -0.0000
    -0.0000  -0.0000  -0.0000  -0.0000  -0.0000  -0.0000  -0.0000  -0.0000
    -0.0000  -0.0000  -0.0000  -0.0000  -0.0000  -0.0000

          k =-1.1503-0.6846 0.3354 (  9866 PWs)   bands (ev):

   -38.6102 -38.6090 -38.6087 -38.6080 -38.5985 -38.5984 -38.5979 -38.5978
   -38.5942 -38.5938 -38.5029 -38.4909 -38.4907 -38.4511 -38.4498 -14.3246
   -14.3208 -14.3053 -14.3010 -14.2964 -14.2921 -14.2861 -14.2859 -14.2852
   -14.2836  -3.7647  -3.6695  -3.6596  -1.9054  -1.5089   3.6479   5.2072
     5.3222   5.5353   6.0420   6.1201   7.0400   7.5041   7.9427   9.8117
    10.8049  11.3283  11.7758  12.6428  12.9368  13.2172  14.9668  17.2441
    18.0987  18.2142  19.0043  19.1784  19.3963  19.5287  20.3112  20.4318
    20.5680  21.2835  21.2921  21.4954  21.8306  22.1558

     occupation numbers 
     1.0000   1.0000   1.0000   1.0000   1.0000   1.0000   1.0000   1.0000
     1.0000   1.0000   1.0000   1.0000   1.0000   1.0000   1.0000   1.0000
     1.0000   1.0000   1.0000   1.0000   1.0000   1.0000   1.0000   1.0000
     1.0000   1.0000   1.0000   1.0000   1.0000   1.0000   1.0000   1.0000
     1.0000   1.0000   1.0000   1.0000   1.0000   1.0000   1.0000  -0.0000
    -0.0000  -0.0000  -0.0000  -0.0000  -0.0000  -0.0000  -0.0000  -0.0000
    -0.0000  -0.0000  -0.0000  -0.0000  -0.0000  -0.0000  -0.0000  -0.0000
    -0.0000  -0.0000  -0.0000  -0.0000  -0.0000  -0.0000

          k = 0.7071 0.4208-0.5013 (  9894 PWs)   bands (ev):

   -38.6101 -38.6091 -38.6091 -38.6086 -38.5990 -38.5989 -38.5986 -38.5982
   -38.5945 -38.5943 -38.5033 -38.4914 -38.4913 -38.4511 -38.4504 -14.3203
   -14.3172 -14.3026 -14.2986 -14.2960 -14.2938 -14.2910 -14.2900 -14.2888
   -14.2876  -4.4517  -4.1415  -3.4357  -1.5101  -1.0086   4.3198   4.9031
     5.7165   5.8322   6.1650   6.2975   7.6417   7.6963   8.3278   9.5846
    10.7066  10.7665  11.7819  12.4393  13.2168  13.2923  15.0198  15.9920
    17.1686  17.5600  17.5786  18.1050  18.8162  19.2758  19.5453  20.0171
    20.3404  20.7568  21.3506  21.6192  21.9227  22.6119

     occupation numbers 
     1.0000   1.0000   1.0000   1.0000   1.0000   1.0000   1.0000   1.0000
     1.0000   1.0000   1.0000   1.0000   1.0000   1.0000   1.0000   1.0000
     1.0000   1.0000   1.0000   1.0000   1.0000   1.0000   1.0000   1.0000
     1.0000   1.0000   1.0000   1.0000   1.0000   1.0000   1.0000   1.0000
     1.0000   1.0000   1.0000   1.0000   1.0000   1.0000   1.0000  -0.0000
    -0.0000  -0.0000  -0.0000  -0.0000  -0.0000  -0.0000  -0.0000  -0.0000
    -0.0000  -0.0000  -0.0000  -0.0000  -0.0000  -0.0000  -0.0000  -0.0000
    -0.0000  -0.0000  -0.0000  -0.0000  -0.0000  -0.0000

          k = 0.3356 0.1997-0.3339 (  9930 PWs)   bands (ev):

   -38.6103 -38.6103 -38.6099 -38.6095 -38.5991 -38.5989 -38.5983 -38.5980
   -38.5951 -38.5948 -38.5038 -38.4914 -38.4912 -38.4516 -38.4514 -14.3130
   -14.3113 -14.3047 -14.3035 -14.2989 -14.2967 -14.2946 -14.2922 -14.2920
   -14.2892  -5.1252  -4.6255  -3.6691  -1.0531  -0.2214   5.4476   5.8408
     6.2906   6.4224   6.7714   7.4243   7.6406   7.6632   8.1557   9.9081
    10.7080  10.7924  10.8769  11.5074  11.9294  14.0357  15.1198  15.8044
    16.2684  16.2736  16.7999  17.0292  17.7833  18.5849  18.8065  18.9687
    19.2938  19.6549  19.6749  20.3684  20.6269  21.4902

     occupation numbers 
     1.0000   1.0000   1.0000   1.0000   1.0000   1.0000   1.0000   1.0000
     1.0000   1.0000   1.0000   1.0000   1.0000   1.0000   1.0000   1.0000
     1.0000   1.0000   1.0000   1.0000   1.0000   1.0000   1.0000   1.0000
     1.0000   1.0000   1.0000   1.0000   1.0000   1.0000   1.0000   1.0000
     1.0000   1.0000   1.0000   1.0000   1.0000   1.0000   1.0000  -0.0000
    -0.0000  -0.0000  -0.0000  -0.0000  -0.0000  -0.0000  -0.0000  -0.0000
    -0.0000  -0.0000  -0.0000  -0.0000  -0.0000  -0.0000  -0.0000  -0.0000
    -0.0000  -0.0000  -0.0000  -0.0000  -0.0000  -0.0000

          k =-0.0359-0.0214-0.1666 (  9892 PWs)   bands (ev):

   -38.6099 -38.6099 -38.6088 -38.6088 -38.5987 -38.5987 -38.5977 -38.5977
   -38.5947 -38.5937 -38.5030 -38.4909 -38.4909 -38.4509 -38.4509 -14.3104
   -14.3104 -14.3092 -14.3092 -14.3020 -14.2999 -14.2910 -14.2910 -14.2890
   -14.2890  -5.3769  -4.7928  -3.8221  -0.8835   0.0612   6.4746   6.9395
     6.9395   6.9504   7.0899   7.0899   7.5835   7.5835   8.5453   9.1109
    10.2173  10.2173  10.8368  11.3453  11.3453  14.7012  15.4620  15.6981
    15.6981  16.3088  16.8312  16.8312  17.0693  17.6289  17.6289  17.9008
    19.2887  19.4141  19.4141  19.9196  20.5756  20.5756

     occupation numbers 
     1.0000   1.0000   1.0000   1.0000   1.0000   1.0000   1.0000   1.0000
     1.0000   1.0000   1.0000   1.0000   1.0000   1.0000   1.0000   1.0000
     1.0000   1.0000   1.0000   1.0000   1.0000   1.0000   1.0000   1.0000
     1.0000   1.0000   1.0000   1.0000   1.0000   1.0000   1.0000   1.0000
     1.0000   1.0000   1.0000   1.0000   1.0000   1.0000   1.0063  -0.0060
    -0.0000  -0.0000  -0.0000  -0.0000  -0.0000  -0.0000  -0.0000  -0.0000
    -0.0000  -0.0000  -0.0000  -0.0000  -0.0000  -0.0000  -0.0000  -0.0000
    -0.0000  -0.0000  -0.0000  -0.0000  -0.0000  -0.0000

     the Fermi energy is     8.8271 ev

!    total energy              =   -1055.74394110 Ry
     estimated scf accuracy    <          8.5E-09 Ry
     smearing contrib. (-TS)   =       0.00001593 Ry
     internal energy E=F+TS    =   -1055.74395704 Ry

     The total energy is F=E-TS. E is the sum of the following terms:
     one-electron contribution =    -533.58903636 Ry
     hartree contribution      =     292.83241621 Ry
     xc contribution           =    -231.80965401 Ry
     ewald contribution        =    -583.17768287 Ry

     convergence has been achieved in  10 iterations

     Writing all to output data dir ./out_nosoc_nc_Bi2Se3/Bi2Se3_nosoc_nc.save/ :
     XML data file, charge density, pseudopotentials, collected wavefunctions

     init_run     :      3.30s CPU      3.50s WALL (       1 calls)
     electrons    :    177.60s CPU    183.66s WALL (       1 calls)

     Called by init_run:
     wfcinit      :      2.73s CPU      2.89s WALL (       1 calls)
     wfcinit:atom :      0.01s CPU      0.01s WALL (       9 calls)
     wfcinit:wfcr :      2.69s CPU      2.79s WALL (       9 calls)
     potinit      :      0.14s CPU      0.17s WALL (       1 calls)
     hinit0       :      0.41s CPU      0.42s WALL (       1 calls)

     Called by electrons:
     c_bands      :    138.73s CPU    143.33s WALL (      11 calls)
     sum_band     :     37.01s CPU     37.69s WALL (      11 calls)
     v_of_rho     :      1.14s CPU      1.38s WALL (      11 calls)
     v_h          :      0.05s CPU      0.08s WALL (      11 calls)
     v_xc         :      1.09s CPU      1.30s WALL (      11 calls)
     mix_rho      :      0.04s CPU      0.09s WALL (      11 calls)

     Called by c_bands:
     init_us_2    :      0.27s CPU      0.30s WALL (     207 calls)
     cegterg      :     61.34s CPU     63.64s WALL (      99 calls)

     Called by sum_band:
     sum_band:wei :      0.01s CPU      0.01s WALL (      11 calls)
     sum_band:loo :     13.33s CPU     13.82s WALL (      11 calls)
     sum_band:buf :      0.02s CPU      0.05s WALL (      99 calls)
     sum_band:ini :      0.11s CPU      0.13s WALL (      99 calls)

     Called by *egterg:
     cdiaghg      :      0.86s CPU      0.89s WALL (     378 calls)
     cegterg:over :      1.06s CPU      1.07s WALL (     288 calls)
     cegterg:upda :      0.55s CPU      0.62s WALL (     288 calls)
     cegterg:last :      0.85s CPU      0.86s WALL (     189 calls)
     h_psi        :     60.09s CPU     62.18s WALL (     396 calls)
     g_psi        :      0.03s CPU      0.03s WALL (     288 calls)

     Called by h_psi:
     h_psi:calbec :      0.98s CPU      1.00s WALL (     396 calls)
     vloc_psi     :     58.27s CPU     60.20s WALL (     396 calls)
                                        0.00s GPU  (     396 calls)
     add_vuspsi   :      0.76s CPU      0.77s WALL (     396 calls)

     General routines
     calbec       :      0.98s CPU      1.00s WALL (     396 calls)
     fft          :      0.65s CPU      0.69s WALL (     111 calls)
     ffts         :      0.03s CPU      0.04s WALL (      11 calls)
     fftw         :     62.86s CPU     64.87s WALL (   34450 calls)
     davcio       :      0.06s CPU      0.44s WALL (     421 calls)

     Parallel routines

     PWSCF        :    183.82s CPU    191.74s WALL


   This run was terminated on:  19:13:45  29Jul2026            

=------------------------------------------------------------------------------=
   JOB DONE.
=------------------------------------------------------------------------------=
