
     Program PWSCF v.7.5 starts on  7Jul2026 at 16:51:22 

     This program is part of the open-source Quantum ESPRESSO suite
     for quantum simulation of materials; please cite
         "P. Giannozzi et al., J. Phys.:Condens. Matter 21 395502 (2009);
         "P. Giannozzi et al., J. Phys.:Condens. Matter 29 465901 (2017);
         "P. Giannozzi et al., J. Chem. Phys. 152 154105 (2020);
          URL http://www.quantum-espresso.org", 
     in publications or presentations arising from this work. More details at
     http://www.quantum-espresso.org/quote

     Parallel version (MPI & OpenMP), running on       6 processor cores
     Number of MPI processes:                 1
     Threads/MPI process:                     6

     MPI processes distributed on     1 nodes
     0 MiB available memory on the printing compute node when the environment starts

     Reading input from Ba3BiSb.scf.soc.in

     Current dimensions of program PWSCF are:
     Max number of different atomic species (ntypx) = 10
     Max number of k-points (npk) =  40000
     Max angular momentum in pseudopotentials (lmaxx) =  4
     file Ba.rel-pbe-spn-kjpaw_psl.1.0.0.UPF: wavefunction(s)  5S 6S renormalized
     file Bi.rel-pbe-dn-kjpaw_psl.1.0.0.UPF: wavefunction(s)  6P 6P 5D 5D renormalized
     file Sb.rel-pbe-n-kjpaw_psl.1.0.0.UPF: wavefunction(s)  5S renormalized

     Subspace diagonalization in iterative solution of the eigenvalue problem:
     a serial algorithm will be used


     G-vector sticks info
     --------------------
     sticks:   dense  smooth     PW     G-vecs:    dense   smooth      PW
     Sum        5417    2145    609               301027    74653   11363

     Using Slab Decomposition



     bravais-lattice index     =            0
     lattice parameter (alat)  =      12.2377  a.u.
     unit-cell volume          =    1832.7237 (a.u.)^3
     number of atoms/cell      =            5
     number of atomic types    =            3
     number of electrons       =        50.00
     number of Kohn-Sham states=           80
     kinetic-energy cutoff     =      45.0000  Ry
     charge density cutoff     =     456.0000  Ry
     scf convergence threshold =      1.0E-08
     mixing beta               =       0.3000
     number of iterations used =            8  plain     mixing
     Exchange-correlation= SLA  PW   PBX  PBC
                           (   1   4   3   4   0   0   0)
     Non magnetic calculation with spin-orbit


     celldm(1)=  12.237677  celldm(2)=   0.000000  celldm(3)=   0.000000
     celldm(4)=   0.000000  celldm(5)=   0.000000  celldm(6)=   0.000000

     crystal axes: (cart. coord. in units of alat)
               a(1) = (   1.000000   0.000000   0.000000 )  
               a(2) = (   0.000000   1.000000   0.000000 )  
               a(3) = (   0.000000   0.000000   1.000000 )  

     reciprocal axes: (cart. coord. in units 2 pi/alat)
               b(1) = (  1.000000  0.000000  0.000000 )  
               b(2) = (  0.000000  1.000000  0.000000 )  
               b(3) = (  0.000000  0.000000  1.000000 )  


     PseudoPot. # 1 for Ba read from file:
     ./pseudo/Ba.rel-pbe-spn-kjpaw_psl.1.0.0.UPF
     MD5 check sum: e0a6704b63fd109dcd1beae34e497b38
     Pseudo is Projector augmented-wave + core cor, Zval = 10.0
     Generated using &quot;atomic&quot; code by A. Dal Corso  v.6.2.2
     Shape of augmentation charge: PSQ
     Using radial grid of 1251 points, 11 beta functions with: 
                l(1) =   0
                l(2) =   0
                l(3) =   0
                l(4) =   1
                l(5) =   1
                l(6) =   1
                l(7) =   1
                l(8) =   2
                l(9) =   2
               l(10) =   2
               l(11) =   2
     Q(r) pseudized with 0 coefficients 


     PseudoPot. # 2 for Bi read from file:
     ./pseudo/Bi.rel-pbe-dn-kjpaw_psl.1.0.0.UPF
     MD5 check sum: a2fd874d7f712db44af558c1e47d3b28
     Pseudo is Projector augmented-wave + core cor, Zval = 15.0
     Generated using &quot;atomic&quot; code by A. Dal Corso  v.6.2.2
     Shape of augmentation charge: PSQ
     Using radial grid of 1283 points, 10 beta functions with: 
                l(1) =   0
                l(2) =   0
                l(3) =   1
                l(4) =   1
                l(5) =   1
                l(6) =   1
                l(7) =   2
                l(8) =   2
                l(9) =   2
               l(10) =   2
     Q(r) pseudized with 0 coefficients 


     PseudoPot. # 3 for Sb read from file:
     ./pseudo/Sb.rel-pbe-n-kjpaw_psl.1.0.0.UPF
     MD5 check sum: fdb47162c1d03e2226be93e80d85f130
     Pseudo is Projector augmented-wave + core cor, Zval =  5.0
     Generated using &quot;atomic&quot; code by A. Dal Corso  v.6.2.2
     Shape of augmentation charge: PSQ
     Using radial grid of 1243 points, 10 beta functions with: 
                l(1) =   0
                l(2) =   0
                l(3) =   1
                l(4) =   1
                l(5) =   1
                l(6) =   1
                l(7) =   2
                l(8) =   2
                l(9) =   2
               l(10) =   2
     Q(r) pseudized with 0 coefficients 


     atomic species   valence    mass     pseudopotential
     Ba               10.00   137.32700     Ba( 1.00)
     Bi               15.00   208.98000     Bi( 1.00)
     Sb                5.00   121.76000     Sb( 1.00)

     No symmetry found


                                    s                        frac. trans.

      isym =  1     identity                                     

 cryst.   s( 1) = (     1          0          0      )
                  (     0          1          0      )
                  (     0          0          1      )

 cart.    s( 1) = (  1.0000000  0.0000000  0.0000000 )
                  (  0.0000000  1.0000000  0.0000000 )
                  (  0.0000000  0.0000000  1.0000000 )


   Cartesian axes

     site n.     atom                  positions (alat units)
         1        Ba     tau(   1) = (   0.0000000   0.5000000   0.5000000  )
         2        Ba     tau(   2) = (   0.5000000   0.0000000   0.5000000  )
         3        Ba     tau(   3) = (   0.5000000   0.5000000   0.0000000  )
         4        Bi     tau(   4) = (   0.0000000   0.0000000   0.0000000  )
         5        Sb     tau(   5) = (   0.5000000   0.5000000   0.5000000  )

   Crystallographic axes

     site n.     atom                  positions (cryst. coord.)
         1        Ba     tau(   1) = (  0.0000000  0.5000000  0.5000000  )
         2        Ba     tau(   2) = (  0.5000000  0.0000000  0.5000000  )
         3        Ba     tau(   3) = (  0.5000000  0.5000000  0.0000000  )
         4        Bi     tau(   4) = (  0.0000000  0.0000000  0.0000000  )
         5        Sb     tau(   5) = (  0.5000000  0.5000000  0.5000000  )

     number of k points=     8  Methfessel-Paxton smearing, width (Ry)=  0.0100
                       cart. coord. in units 2pi/alat
        k(    1) = (   0.0000000   0.0000000   0.0000000), wk =   0.1250000
        k(    2) = (   0.0000000   0.0000000  -0.5000000), wk =   0.1250000
        k(    3) = (   0.0000000  -0.5000000   0.0000000), wk =   0.1250000
        k(    4) = (   0.0000000  -0.5000000  -0.5000000), wk =   0.1250000
        k(    5) = (  -0.5000000   0.0000000   0.0000000), wk =   0.1250000
        k(    6) = (  -0.5000000   0.0000000  -0.5000000), wk =   0.1250000
        k(    7) = (  -0.5000000  -0.5000000   0.0000000), wk =   0.1250000
        k(    8) = (  -0.5000000  -0.5000000  -0.5000000), wk =   0.1250000

                       cryst. coord.
        k(    1) = (   0.0000000   0.0000000   0.0000000), wk =   0.1250000
        k(    2) = (   0.0000000   0.0000000  -0.5000000), wk =   0.1250000
        k(    3) = (   0.0000000  -0.5000000   0.0000000), wk =   0.1250000
        k(    4) = (   0.0000000  -0.5000000  -0.5000000), wk =   0.1250000
        k(    5) = (  -0.5000000   0.0000000   0.0000000), wk =   0.1250000
        k(    6) = (  -0.5000000   0.0000000  -0.5000000), wk =   0.1250000
        k(    7) = (  -0.5000000  -0.5000000   0.0000000), wk =   0.1250000
        k(    8) = (  -0.5000000  -0.5000000  -0.5000000), wk =   0.1250000

     Dense  grid:   301027 G-vectors     FFT dimensions: (  90,  90,  90)

     Smooth grid:    74653 G-vectors     FFT dimensions: (  54,  54,  54)

     Dynamical RAM for                 wfc:      22.81 MB

     Dynamical RAM for     wfc (w. buffer):      22.81 MB

     Dynamical RAM for           str. fact:      13.78 MB

     Dynamical RAM for           local pot:       0.00 MB

     Dynamical RAM for          nlocal pot:      24.66 MB

     Dynamical RAM for                qrad:      16.16 MB

     Dynamical RAM for          rho,v,vnew:     121.86 MB

     Dynamical RAM for               rhoin:      40.62 MB

     Dynamical RAM for           G-vectors:      17.79 MB

     Dynamical RAM for          h,s,v(r/c):       1.17 MB

     Dynamical RAM for          <psi|beta>:       0.42 MB

     Dynamical RAM for                 psi:      45.62 MB

     Dynamical RAM for                hpsi:      45.62 MB

     Dynamical RAM for                spsi:      45.62 MB

     Dynamical RAM for      wfcinit/wfcrot:      34.36 MB

     Dynamical RAM for           addusdens:    2976.46 MB

     Estimated static dynamical RAM per process >     320.55 MB

     Estimated max dynamical RAM per process >       3.22 GB

     Initial potential from superposition of free atoms

     starting charge      49.9474, renormalised to      50.0000
     Starting wfcs are   56 randomized atomic wfcs +   24 random wfcs
     Checking if some PAW data can be deallocated... 

     total cpu time spent up to now is       15.7 secs

     Self-consistent Calculation

     iteration #  1     ecut=    45.00 Ry     beta= 0.30
     Davidson diagonalization with overlap

---- Real-time Memory Report at c_bands before calling an iterative solver
             0 MiB given to the printing process from OS
             0 MiB allocation reported by mallinfo(arena+hblkhd)
             0 MiB available memory on the node where the printing process lives
------------------
     ethr =  1.00E-02,  avg # of iterations =  8.8

     Threshold (ethr) on eigenvalues was too large:
     Diagonalizing with lowered threshold

     Davidson diagonalization with overlap

---- Real-time Memory Report at c_bands before calling an iterative solver
             0 MiB given to the printing process from OS
             0 MiB allocation reported by mallinfo(arena+hblkhd)
             0 MiB available memory on the node where the printing process lives
------------------
     ethr =  8.35E-04,  avg # of iterations =  2.8

     negative rho (up, down):  1.783E-02 0.000E+00

     total cpu time spent up to now is       72.6 secs

     total energy              =   -2576.19177913 Ry
     estimated scf accuracy    <       0.72725015 Ry

     iteration #  2     ecut=    45.00 Ry     beta= 0.30
     Davidson diagonalization with overlap

---- Real-time Memory Report at c_bands before calling an iterative solver
             0 MiB given to the printing process from OS
             0 MiB allocation reported by mallinfo(arena+hblkhd)
             0 MiB available memory on the node where the printing process lives
------------------
     ethr =  1.45E-03,  avg # of iterations =  1.6

     negative rho (up, down):  1.093E-01 0.000E+00

     total cpu time spent up to now is       97.4 secs

     total energy              =   -2576.19077801 Ry
     estimated scf accuracy    <       0.16750979 Ry

     iteration #  3     ecut=    45.00 Ry     beta= 0.30
     Davidson diagonalization with overlap

---- Real-time Memory Report at c_bands before calling an iterative solver
             0 MiB given to the printing process from OS
             0 MiB allocation reported by mallinfo(arena+hblkhd)
             0 MiB available memory on the node where the printing process lives
------------------
     ethr =  3.35E-04,  avg # of iterations =  8.9

     negative rho (up, down):  1.051E-01 0.000E+00

     total cpu time spent up to now is      124.8 secs

     total energy              =   -2576.20943504 Ry
     estimated scf accuracy    <       0.01807184 Ry

     iteration #  4     ecut=    45.00 Ry     beta= 0.30
     Davidson diagonalization with overlap

---- Real-time Memory Report at c_bands before calling an iterative solver
             0 MiB given to the printing process from OS
             0 MiB allocation reported by mallinfo(arena+hblkhd)
             0 MiB available memory on the node where the printing process lives
------------------
     c_bands:  2 eigenvalues not converged
     c_bands:  1 eigenvalues not converged
     ethr =  3.61E-05,  avg # of iterations = 12.0

     negative rho (up, down):  8.729E-02 0.000E+00

     total cpu time spent up to now is      155.9 secs

     total energy              =   -2576.21618143 Ry
     estimated scf accuracy    <       0.04281132 Ry

     iteration #  5     ecut=    45.00 Ry     beta= 0.30
     Davidson diagonalization with overlap

---- Real-time Memory Report at c_bands before calling an iterative solver
             0 MiB given to the printing process from OS
             0 MiB allocation reported by mallinfo(arena+hblkhd)
             0 MiB available memory on the node where the printing process lives
------------------
     ethr =  3.61E-05,  avg # of iterations =  1.9

     total cpu time spent up to now is      180.9 secs

     total energy              =   -2576.22451881 Ry
     estimated scf accuracy    <       0.03392174 Ry

     iteration #  6     ecut=    45.00 Ry     beta= 0.30
     Davidson diagonalization with overlap

---- Real-time Memory Report at c_bands before calling an iterative solver
             0 MiB given to the printing process from OS
             0 MiB allocation reported by mallinfo(arena+hblkhd)
             0 MiB available memory on the node where the printing process lives
------------------
     ethr =  3.61E-05,  avg # of iterations =  4.0

     total cpu time spent up to now is      207.6 secs

     total energy              =   -2576.22769468 Ry
     estimated scf accuracy    <       0.00049180 Ry

     iteration #  7     ecut=    45.00 Ry     beta= 0.30
     Davidson diagonalization with overlap

---- Real-time Memory Report at c_bands before calling an iterative solver
             0 MiB given to the printing process from OS
             0 MiB allocation reported by mallinfo(arena+hblkhd)
             0 MiB available memory on the node where the printing process lives
------------------
     c_bands:  1 eigenvalues not converged
     ethr =  9.84E-07,  avg # of iterations = 10.8
     Minimization algorithm failed to find Fermi energy: reverting to bisection
     Possible cause: smearing is larger than the electronic band-gap.

     total cpu time spent up to now is      236.6 secs

     total energy              =   -2576.22787112 Ry
     estimated scf accuracy    <       0.00023623 Ry

     iteration #  8     ecut=    45.00 Ry     beta= 0.30
     Davidson diagonalization with overlap

---- Real-time Memory Report at c_bands before calling an iterative solver
             0 MiB given to the printing process from OS
             0 MiB allocation reported by mallinfo(arena+hblkhd)
             0 MiB available memory on the node where the printing process lives
------------------
     ethr =  4.72E-07,  avg # of iterations =  1.2
     Minimization algorithm failed to find Fermi energy: reverting to bisection
     Possible cause: smearing is larger than the electronic band-gap.

     total cpu time spent up to now is      261.7 secs

     total energy              =   -2576.22778551 Ry
     estimated scf accuracy    <       0.00048781 Ry

     iteration #  9     ecut=    45.00 Ry     beta= 0.30
     Davidson diagonalization with overlap

---- Real-time Memory Report at c_bands before calling an iterative solver
             0 MiB given to the printing process from OS
             0 MiB allocation reported by mallinfo(arena+hblkhd)
             0 MiB available memory on the node where the printing process lives
------------------
     ethr =  4.72E-07,  avg # of iterations =  2.0
     Minimization algorithm failed to find Fermi energy: reverting to bisection
     Possible cause: smearing is larger than the electronic band-gap.

     total cpu time spent up to now is      288.1 secs

     total energy              =   -2576.22780255 Ry
     estimated scf accuracy    <       0.00003134 Ry

     iteration # 10     ecut=    45.00 Ry     beta= 0.30
     Davidson diagonalization with overlap

---- Real-time Memory Report at c_bands before calling an iterative solver
             0 MiB given to the printing process from OS
             0 MiB allocation reported by mallinfo(arena+hblkhd)
             0 MiB available memory on the node where the printing process lives
------------------
     ethr =  6.27E-08,  avg # of iterations =  4.0
     Minimization algorithm failed to find Fermi energy: reverting to bisection
     Possible cause: smearing is larger than the electronic band-gap.

     total cpu time spent up to now is      316.7 secs

     total energy              =   -2576.22782094 Ry
     estimated scf accuracy    <       0.00010247 Ry

     iteration # 11     ecut=    45.00 Ry     beta= 0.30
     Davidson diagonalization with overlap

---- Real-time Memory Report at c_bands before calling an iterative solver
             0 MiB given to the printing process from OS
             0 MiB allocation reported by mallinfo(arena+hblkhd)
             0 MiB available memory on the node where the printing process lives
------------------
     ethr =  6.27E-08,  avg # of iterations =  1.0
     Minimization algorithm failed to find Fermi energy: reverting to bisection
     Possible cause: smearing is larger than the electronic band-gap.

     total cpu time spent up to now is      469.3 secs

     total energy              =   -2576.22782193 Ry
     estimated scf accuracy    <       0.00004125 Ry

     iteration # 12     ecut=    45.00 Ry     beta= 0.30
     Davidson diagonalization with overlap

---- Real-time Memory Report at c_bands before calling an iterative solver
             0 MiB given to the printing process from OS
             0 MiB allocation reported by mallinfo(arena+hblkhd)
             0 MiB available memory on the node where the printing process lives
------------------
     ethr =  6.27E-08,  avg # of iterations =  1.0
     Minimization algorithm failed to find Fermi energy: reverting to bisection
     Possible cause: smearing is larger than the electronic band-gap.

     total cpu time spent up to now is      508.9 secs

     total energy              =   -2576.22782258 Ry
     estimated scf accuracy    <       0.00000102 Ry

     iteration # 13     ecut=    45.00 Ry     beta= 0.30
     Davidson diagonalization with overlap

---- Real-time Memory Report at c_bands before calling an iterative solver
             0 MiB given to the printing process from OS
             0 MiB allocation reported by mallinfo(arena+hblkhd)
             0 MiB available memory on the node where the printing process lives
------------------
     ethr =  2.05E-09,  avg # of iterations =  2.5
     Minimization algorithm failed to find Fermi energy: reverting to bisection
     Possible cause: smearing is larger than the electronic band-gap.

     total cpu time spent up to now is     1120.4 secs

     total energy              =   -2576.22782290 Ry
     estimated scf accuracy    <       0.00000005 Ry

     iteration # 14     ecut=    45.00 Ry     beta= 0.30
     Davidson diagonalization with overlap

---- Real-time Memory Report at c_bands before calling an iterative solver
             0 MiB given to the printing process from OS
             0 MiB allocation reported by mallinfo(arena+hblkhd)
             0 MiB available memory on the node where the printing process lives
------------------
     ethr =  9.82E-11,  avg # of iterations =  4.0
     Minimization algorithm failed to find Fermi energy: reverting to bisection
     Possible cause: smearing is larger than the electronic band-gap.

     total cpu time spent up to now is     1147.2 secs

     total energy              =   -2576.22782298 Ry
     estimated scf accuracy    <       0.00000004 Ry

     iteration # 15     ecut=    45.00 Ry     beta= 0.30
     Davidson diagonalization with overlap

---- Real-time Memory Report at c_bands before calling an iterative solver
             0 MiB given to the printing process from OS
             0 MiB allocation reported by mallinfo(arena+hblkhd)
             0 MiB available memory on the node where the printing process lives
------------------
     ethr =  8.06E-11,  avg # of iterations =  1.2
     Minimization algorithm failed to find Fermi energy: reverting to bisection
     Possible cause: smearing is larger than the electronic band-gap.

     total cpu time spent up to now is     2075.5 secs

     End of self-consistent calculation

          k = 0.0000 0.0000 0.0000 (  9315 PWs)   bands (ev):

   -23.1346 -23.1346 -23.1002 -23.1002 -23.1002 -23.1002 -17.6171 -17.6171
   -17.6171 -17.6171 -14.6258 -14.6258 -14.6258 -14.6258 -14.6258 -14.6258
    -9.8152  -9.8152  -9.8152  -9.8152  -9.6826  -9.6826  -7.9312  -7.9312
    -7.8217  -7.8217  -7.8217  -7.8217  -7.7150  -7.7150  -7.6195  -7.6195
    -7.6195  -7.6195  -3.6953  -3.6953  -3.3323  -3.3323   4.0628   4.0628
     4.7944   4.7944   4.8782   4.8782   4.8782   4.8782   5.2058   5.2058
     5.9084   5.9084   5.9084   5.9084   5.9285   5.9285   5.9285   5.9285
     5.9363   5.9363   5.9608   5.9608   5.9608   5.9608   8.2719   8.2719
     8.2719   8.2719   8.3361   8.3361   8.6081   8.6081   8.6081   8.6081
    10.0633  10.0633  10.2926  10.2926  10.3716  10.3716  10.3716  10.3716

     occupation numbers 
     1.0000   1.0000   1.0000   1.0000   1.0000   1.0000   1.0000   1.0000
     1.0000   1.0000   1.0000   1.0000   1.0000   1.0000   1.0000   1.0000
     1.0000   1.0000   1.0000   1.0000   1.0000   1.0000   1.0000   1.0000
     1.0000   1.0000   1.0000   1.0000   1.0000   1.0000   1.0000   1.0000
     1.0000   1.0000   1.0000   1.0000   1.0000   1.0000   1.0000   1.0000
     1.0000   1.0000   1.0000   1.0000   1.0000   1.0000   1.0000   1.0000
     0.2528   0.2528   0.2528   0.2528   0.1552   0.1552   0.1552   0.1552
     0.1231   0.1231   0.0425   0.0425   0.0425   0.0425  -0.0000  -0.0000
    -0.0000  -0.0000  -0.0000  -0.0000  -0.0000  -0.0000  -0.0000  -0.0000
    -0.0000  -0.0000  -0.0000  -0.0000  -0.0000  -0.0000  -0.0000  -0.0000

          k = 0.0000 0.0000-0.5000 (  9322 PWs)   bands (ev):

   -23.1231 -23.1231 -23.1120 -23.1120 -23.1002 -23.1002 -17.6171 -17.6171
   -17.6171 -17.6171 -14.6258 -14.6258 -14.6258 -14.6258 -14.6258 -14.6258
    -9.8142  -9.8142  -9.7810  -9.7810  -9.7281  -9.7281  -7.8791  -7.8791
    -7.8385  -7.8385  -7.7714  -7.7714  -7.7398  -7.7398  -7.7340  -7.7340
    -7.6509  -7.6509  -3.6543  -3.6543  -2.8878  -2.8878   3.2306   3.2306
     3.6461   3.6461   4.4933   4.4933   4.6085   4.6085   4.6522   4.6522
     5.1869   5.1869   6.1383   6.1383   6.3302   6.3302   6.7935   6.7935
     7.1219   7.1219   7.4508   7.4508   7.5256   7.5256   7.6804   7.6804
     8.2028   8.2028   8.5658   8.5658   8.6683   8.6683   8.8329   8.8329
     9.0257   9.0257   9.2032   9.2032   9.2457   9.2457  10.1363  10.1364

     occupation numbers 
     1.0000   1.0000   1.0000   1.0000   1.0000   1.0000   1.0000   1.0000
     1.0000   1.0000   1.0000   1.0000   1.0000   1.0000   1.0000   1.0000
     1.0000   1.0000   1.0000   1.0000   1.0000   1.0000   1.0000   1.0000
     1.0000   1.0000   1.0000   1.0000   1.0000   1.0000   1.0000   1.0000
     1.0000   1.0000   1.0000   1.0000   1.0000   1.0000   1.0000   1.0000
     1.0000   1.0000   1.0000   1.0000   1.0000   1.0000   1.0000   1.0000
     1.0000   1.0000  -0.0081  -0.0081  -0.0000  -0.0000  -0.0000  -0.0000
    -0.0000  -0.0000  -0.0000  -0.0000  -0.0000  -0.0000  -0.0000  -0.0000
    -0.0000  -0.0000  -0.0000  -0.0000  -0.0000  -0.0000  -0.0000  -0.0000
    -0.0000  -0.0000  -0.0000  -0.0000  -0.0000  -0.0000  -0.0000  -0.0000

          k = 0.0000-0.5000 0.0000 (  9322 PWs)   bands (ev):

   -23.1231 -23.1231 -23.1120 -23.1120 -23.1002 -23.1002 -17.6171 -17.6171
   -17.6171 -17.6171 -14.6258 -14.6258 -14.6258 -14.6258 -14.6258 -14.6258
    -9.8142  -9.8142  -9.7810  -9.7810  -9.7281  -9.7281  -7.8791  -7.8791
    -7.8385  -7.8385  -7.7714  -7.7714  -7.7398  -7.7398  -7.7340  -7.7340
    -7.6509  -7.6509  -3.6543  -3.6543  -2.8878  -2.8878   3.2306   3.2306
     3.6461   3.6461   4.4933   4.4933   4.6085   4.6085   4.6522   4.6522
     5.1869   5.1869   6.1383   6.1383   6.3302   6.3302   6.7935   6.7935
     7.1218   7.1219   7.4508   7.4508   7.5256   7.5256   7.6804   7.6804
     8.2028   8.2028   8.5658   8.5658   8.6683   8.6683   8.8329   8.8329
     9.0257   9.0258   9.2032   9.2032   9.2457   9.2457  10.1366  10.1466

     occupation numbers 
     1.0000   1.0000   1.0000   1.0000   1.0000   1.0000   1.0000   1.0000
     1.0000   1.0000   1.0000   1.0000   1.0000   1.0000   1.0000   1.0000
     1.0000   1.0000   1.0000   1.0000   1.0000   1.0000   1.0000   1.0000
     1.0000   1.0000   1.0000   1.0000   1.0000   1.0000   1.0000   1.0000
     1.0000   1.0000   1.0000   1.0000   1.0000   1.0000   1.0000   1.0000
     1.0000   1.0000   1.0000   1.0000   1.0000   1.0000   1.0000   1.0000
     1.0000   1.0000  -0.0081  -0.0081  -0.0000  -0.0000  -0.0000  -0.0000
    -0.0000  -0.0000  -0.0000  -0.0000  -0.0000  -0.0000  -0.0000  -0.0000
    -0.0000  -0.0000  -0.0000  -0.0000  -0.0000  -0.0000  -0.0000  -0.0000
    -0.0000  -0.0000  -0.0000  -0.0000  -0.0000  -0.0000  -0.0000  -0.0000

          k = 0.0000-0.5000-0.5000 (  9348 PWs)   bands (ev):

   -23.1120 -23.1120 -23.1119 -23.1119 -23.1116 -23.1116 -17.6172 -17.6172
   -17.6171 -17.6171 -14.6258 -14.6258 -14.6258 -14.6258 -14.6257 -14.6257
    -9.8181  -9.8181  -9.7712  -9.7712  -9.7560  -9.7560  -7.9875  -7.9875
    -7.8073  -7.8073  -7.7778  -7.7778  -7.7466  -7.7466  -7.6775  -7.6775
    -7.6445  -7.6445  -3.6455  -3.6455  -2.4477  -2.4477   2.8516   2.8516
     3.0396   3.0396   3.8973   3.8973   4.2697   4.2697   4.7807   4.7807
     4.9858   4.9858   6.9087   6.9087   6.9362   6.9362   7.1019   7.1019
     7.1282   7.1282   7.3306   7.3306   7.4205   7.4205   8.1216   8.1216
     8.1487   8.1487   8.2653   8.2653   8.6011   8.6011   8.9229   8.9229
     8.9950   8.9950   9.1921   9.1921   9.3070   9.3070   9.4289   9.4289

     occupation numbers 
     1.0000   1.0000   1.0000   1.0000   1.0000   1.0000   1.0000   1.0000
     1.0000   1.0000   1.0000   1.0000   1.0000   1.0000   1.0000   1.0000
     1.0000   1.0000   1.0000   1.0000   1.0000   1.0000   1.0000   1.0000
     1.0000   1.0000   1.0000   1.0000   1.0000   1.0000   1.0000   1.0000
     1.0000   1.0000   1.0000   1.0000   1.0000   1.0000   1.0000   1.0000
     1.0000   1.0000   1.0000   1.0000   1.0000   1.0000   1.0000   1.0000
     1.0000   1.0000  -0.0000  -0.0000  -0.0000  -0.0000  -0.0000  -0.0000
    -0.0000  -0.0000  -0.0000  -0.0000  -0.0000  -0.0000  -0.0000  -0.0000
    -0.0000  -0.0000  -0.0000  -0.0000  -0.0000  -0.0000  -0.0000  -0.0000
    -0.0000  -0.0000  -0.0000  -0.0000  -0.0000  -0.0000  -0.0000  -0.0000

          k =-0.5000 0.0000 0.0000 (  9322 PWs)   bands (ev):

   -23.1231 -23.1231 -23.1120 -23.1120 -23.1002 -23.1002 -17.6171 -17.6171
   -17.6171 -17.6171 -14.6258 -14.6258 -14.6258 -14.6258 -14.6258 -14.6258
    -9.8142  -9.8142  -9.7810  -9.7810  -9.7281  -9.7281  -7.8791  -7.8791
    -7.8385  -7.8385  -7.7714  -7.7714  -7.7398  -7.7398  -7.7340  -7.7340
    -7.6509  -7.6509  -3.6543  -3.6543  -2.8878  -2.8878   3.2306   3.2306
     3.6461   3.6461   4.4933   4.4933   4.6085   4.6085   4.6522   4.6522
     5.1869   5.1869   6.1383   6.1383   6.3302   6.3302   6.7935   6.7935
     7.1219   7.1219   7.4508   7.4508   7.5256   7.5256   7.6804   7.6804
     8.2028   8.2028   8.5658   8.5658   8.6683   8.6683   8.8329   8.8329
     9.0257   9.0257   9.2032   9.2032   9.2457   9.2457  10.1364  10.1446

     occupation numbers 
     1.0000   1.0000   1.0000   1.0000   1.0000   1.0000   1.0000   1.0000
     1.0000   1.0000   1.0000   1.0000   1.0000   1.0000   1.0000   1.0000
     1.0000   1.0000   1.0000   1.0000   1.0000   1.0000   1.0000   1.0000
     1.0000   1.0000   1.0000   1.0000   1.0000   1.0000   1.0000   1.0000
     1.0000   1.0000   1.0000   1.0000   1.0000   1.0000   1.0000   1.0000
     1.0000   1.0000   1.0000   1.0000   1.0000   1.0000   1.0000   1.0000
     1.0000   1.0000  -0.0081  -0.0081  -0.0000  -0.0000  -0.0000  -0.0000
    -0.0000  -0.0000  -0.0000  -0.0000  -0.0000  -0.0000  -0.0000  -0.0000
    -0.0000  -0.0000  -0.0000  -0.0000  -0.0000  -0.0000  -0.0000  -0.0000
    -0.0000  -0.0000  -0.0000  -0.0000  -0.0000  -0.0000  -0.0000  -0.0000

          k =-0.5000 0.0000-0.5000 (  9348 PWs)   bands (ev):

   -23.1120 -23.1120 -23.1119 -23.1119 -23.1116 -23.1116 -17.6172 -17.6172
   -17.6171 -17.6171 -14.6258 -14.6258 -14.6258 -14.6258 -14.6257 -14.6257
    -9.8181  -9.8181  -9.7712  -9.7712  -9.7560  -9.7560  -7.9875  -7.9875
    -7.8073  -7.8073  -7.7778  -7.7778  -7.7466  -7.7466  -7.6775  -7.6775
    -7.6445  -7.6445  -3.6455  -3.6455  -2.4477  -2.4477   2.8516   2.8516
     3.0396   3.0396   3.8973   3.8973   4.2697   4.2697   4.7807   4.7807
     4.9858   4.9858   6.9087   6.9087   6.9362   6.9362   7.1019   7.1019
     7.1282   7.1282   7.3306   7.3306   7.4205   7.4205   8.1216   8.1216
     8.1487   8.1487   8.2653   8.2653   8.6011   8.6011   8.9229   8.9229
     8.9950   8.9950   9.1921   9.1921   9.3070   9.3070   9.4289   9.4289

     occupation numbers 
     1.0000   1.0000   1.0000   1.0000   1.0000   1.0000   1.0000   1.0000
     1.0000   1.0000   1.0000   1.0000   1.0000   1.0000   1.0000   1.0000
     1.0000   1.0000   1.0000   1.0000   1.0000   1.0000   1.0000   1.0000
     1.0000   1.0000   1.0000   1.0000   1.0000   1.0000   1.0000   1.0000
     1.0000   1.0000   1.0000   1.0000   1.0000   1.0000   1.0000   1.0000
     1.0000   1.0000   1.0000   1.0000   1.0000   1.0000   1.0000   1.0000
     1.0000   1.0000  -0.0000  -0.0000  -0.0000  -0.0000  -0.0000  -0.0000
    -0.0000  -0.0000  -0.0000  -0.0000  -0.0000  -0.0000  -0.0000  -0.0000
    -0.0000  -0.0000  -0.0000  -0.0000  -0.0000  -0.0000  -0.0000  -0.0000
    -0.0000  -0.0000  -0.0000  -0.0000  -0.0000  -0.0000  -0.0000  -0.0000

          k =-0.5000-0.5000 0.0000 (  9348 PWs)   bands (ev):

   -23.1120 -23.1120 -23.1119 -23.1119 -23.1116 -23.1116 -17.6172 -17.6172
   -17.6171 -17.6171 -14.6258 -14.6258 -14.6258 -14.6258 -14.6257 -14.6257
    -9.8181  -9.8181  -9.7712  -9.7712  -9.7560  -9.7560  -7.9875  -7.9875
    -7.8073  -7.8073  -7.7778  -7.7778  -7.7466  -7.7466  -7.6775  -7.6775
    -7.6445  -7.6445  -3.6455  -3.6455  -2.4477  -2.4477   2.8516   2.8516
     3.0396   3.0396   3.8973   3.8973   4.2697   4.2697   4.7807   4.7807
     4.9858   4.9858   6.9087   6.9087   6.9362   6.9362   7.1019   7.1019
     7.1282   7.1282   7.3306   7.3306   7.4205   7.4205   8.1216   8.1216
     8.1487   8.1487   8.2653   8.2653   8.6011   8.6011   8.9229   8.9229
     8.9950   8.9950   9.1921   9.1921   9.3070   9.3070   9.4289   9.4289

     occupation numbers 
     1.0000   1.0000   1.0000   1.0000   1.0000   1.0000   1.0000   1.0000
     1.0000   1.0000   1.0000   1.0000   1.0000   1.0000   1.0000   1.0000
     1.0000   1.0000   1.0000   1.0000   1.0000   1.0000   1.0000   1.0000
     1.0000   1.0000   1.0000   1.0000   1.0000   1.0000   1.0000   1.0000
     1.0000   1.0000   1.0000   1.0000   1.0000   1.0000   1.0000   1.0000
     1.0000   1.0000   1.0000   1.0000   1.0000   1.0000   1.0000   1.0000
     1.0000   1.0000  -0.0000  -0.0000  -0.0000  -0.0000  -0.0000  -0.0000
    -0.0000  -0.0000  -0.0000  -0.0000  -0.0000  -0.0000  -0.0000  -0.0000
    -0.0000  -0.0000  -0.0000  -0.0000  -0.0000  -0.0000  -0.0000  -0.0000
    -0.0000  -0.0000  -0.0000  -0.0000  -0.0000  -0.0000  -0.0000  -0.0000

          k =-0.5000-0.5000-0.5000 (  9328 PWs)   bands (ev):

   -23.1120 -23.1120 -23.1119 -23.1119 -23.1119 -23.1119 -17.6171 -17.6171
   -17.6171 -17.6171 -14.6258 -14.6258 -14.6257 -14.6257 -14.6257 -14.6257
    -9.8643  -9.8643  -9.7575  -9.7575  -9.7575  -9.7575  -8.0957  -8.0957
    -7.8588  -7.8588  -7.7240  -7.7240  -7.7240  -7.7240  -7.6088  -7.6088
    -7.6088  -7.6088  -3.6570  -3.6570  -2.0130  -2.0130   2.6238   2.6238
     2.9605   2.9605   2.9605   2.9605   3.9010   3.9010   5.0538   5.0538
     5.0538   5.0538   6.6959   6.6959   6.8369   6.8369   6.9547   6.9547
     6.9547   6.9547   7.4330   7.4330   7.4330   7.4330   7.5020   7.5020
     8.7736   8.7736   8.7736   8.7736   9.1137   9.1137   9.8509   9.8509
     9.8509   9.8509   9.9480   9.9481   9.9931   9.9931   9.9932   9.9933

     occupation numbers 
     1.0000   1.0000   1.0000   1.0000   1.0000   1.0000   1.0000   1.0000
     1.0000   1.0000   1.0000   1.0000   1.0000   1.0000   1.0000   1.0000
     1.0000   1.0000   1.0000   1.0000   1.0000   1.0000   1.0000   1.0000
     1.0000   1.0000   1.0000   1.0000   1.0000   1.0000   1.0000   1.0000
     1.0000   1.0000   1.0000   1.0000   1.0000   1.0000   1.0000   1.0000
     1.0000   1.0000   1.0000   1.0000   1.0000   1.0000   1.0000   1.0000
     1.0000   1.0000  -0.0000  -0.0000  -0.0000  -0.0000  -0.0000  -0.0000
    -0.0000  -0.0000  -0.0000  -0.0000  -0.0000  -0.0000  -0.0000  -0.0000
    -0.0000  -0.0000  -0.0000  -0.0000  -0.0000  -0.0000  -0.0000  -0.0000
    -0.0000  -0.0000  -0.0000  -0.0000  -0.0000  -0.0000  -0.0000  -0.0000

     the Fermi energy is     5.8665 ev

!    total energy              =   -2576.22782306 Ry
     total all-electron energy =   -104967.139877 Ry
     estimated scf accuracy    <          1.6E-09 Ry
     smearing contrib. (-TS)   =      -0.00086403 Ry
     internal energy E=F+TS    =   -2576.22695903 Ry

     The total energy is F=E-TS. E is the sum of the following terms:
     one-electron contribution =    -114.18063699 Ry
     hartree contribution      =      77.76999826 Ry
     xc contribution           =    -105.29402084 Ry
     ewald contribution        =    -211.09937052 Ry
     one-center paw contrib.   =   -2223.42292894 Ry
      -> PAW hartree energy AE =     208.18854905 Ry
      -> PAW hartree energy PS =    -207.54665387 Ry
      -> PAW xc energy AE      =   -2325.40594890 Ry
      -> PAW xc energy PS      =     101.34112478 Ry
      -> total E_H with PAW    =      78.41189344 Ry
      -> total E_XC with PAW   =   -2329.35884496 Ry

     convergence has been achieved in  15 iterations

     Writing all to output data dir ./out_soc/Ba3BiSb_soc.save/ :
     XML data file, charge density, pseudopotentials, collected wavefunctions

     init_run     :     50.43s CPU     14.95s WALL (       1 calls)
     electrons    :   1820.67s CPU   2059.87s WALL (       1 calls)

     Called by init_run:
     wfcinit      :     28.90s CPU      5.14s WALL (       1 calls)
     wfcinit:atom :      0.19s CPU      0.04s WALL (       8 calls)
     wfcinit:wfcr :     27.14s CPU      4.79s WALL (       8 calls)
     potinit      :      5.96s CPU      1.05s WALL (       1 calls)
     hinit0       :      4.82s CPU      2.08s WALL (       1 calls)

     Called by electrons:
     c_bands      :   1187.85s CPU    203.63s WALL (      16 calls)
     sum_band     :    400.27s CPU   1744.60s WALL (      16 calls)
     v_of_rho     :      7.19s CPU      1.34s WALL (      16 calls)
     v_h          :      0.35s CPU      0.06s WALL (      16 calls)
     v_xc         :      6.85s CPU      1.28s WALL (      16 calls)
     newd         :    177.04s CPU    106.34s WALL (      16 calls)
     PAW_pot      :     54.80s CPU      9.58s WALL (      16 calls)
     mix_rho      :      5.04s CPU      1.04s WALL (      16 calls)

     Called by c_bands:
     init_us_2    :      9.20s CPU      1.65s WALL (     264 calls)
     cegterg      :   1086.70s CPU    183.91s WALL (     128 calls)

     Called by sum_band:
     sum_band:wei :      0.10s CPU      0.02s WALL (      16 calls)
     sum_band:loo :    219.99s CPU    939.27s WALL (      16 calls)
     sum_band:buf :      1.87s CPU      0.39s WALL (     128 calls)
     sum_band:ini :      4.21s CPU      0.73s WALL (     128 calls)
     sum_band:cal :     15.68s CPU      2.62s WALL (     128 calls)
     sum_band:bec :      2.65s CPU      0.46s WALL (     128 calls)
     addusdens    :    178.63s CPU    804.89s WALL (      16 calls)
                                        0.00s GPU  (      16 calls)
     addusd:skk   :      0.43s CPU      0.15s WALL (      48 calls)
                                        0.00s GPU  (      48 calls)

     Called by *egterg:
     cdiaghg      :     24.53s CPU      4.23s WALL (     661 calls)
     cegterg:over :     39.89s CPU      6.54s WALL (     541 calls)
     cegterg:upda :     23.20s CPU      4.24s WALL (     541 calls)
     cegterg:last :     50.07s CPU      8.43s WALL (     239 calls)
     h_psi        :    911.16s CPU    154.34s WALL (     677 calls)
     s_psi        :     39.21s CPU      6.76s WALL (     677 calls)
     g_psi        :      4.27s CPU      0.63s WALL (     541 calls)

     Called by h_psi:
     h_psi:calbec :     38.56s CPU      6.58s WALL (     677 calls)
     vloc_psi     :    831.12s CPU    140.53s WALL (     677 calls)
                                        0.00s GPU  (     677 calls)
     add_vuspsi   :     39.19s CPU      6.73s WALL (     677 calls)

     General routines
     calbec       :     53.75s CPU      9.20s WALL (     805 calls)
     fft          :      5.37s CPU      0.98s WALL (     390 calls)
     ffts         :      1.73s CPU      0.30s WALL (     128 calls)
     fftw         :    710.47s CPU   1058.68s WALL (  121012 calls)
     interpolate  :      2.34s CPU      0.40s WALL (      64 calls)
     davcio       :      7.51s CPU      1.61s WALL (     606 calls)

     Parallel routines

     PAW routines
     PAW_pot      :     54.80s CPU      9.58s WALL (      16 calls)

     PWSCF        :  31m13.17s CPU  34m35.86s WALL


   This run was terminated on:  17:25:58   7Jul2026            

=------------------------------------------------------------------------------=
   JOB DONE.
=------------------------------------------------------------------------------=
Note: The following floating-point exceptions are signalling: IEEE_UNDERFLOW_FLAG IEEE_DENORMAL
