
     Program PWSCF v.7.5 starts on 29Jul2026 at 19:13:48 

     This program is part of the open-source Quantum ESPRESSO suite
     for quantum simulation of materials; please cite
         "P. Giannozzi et al., J. Phys.:Condens. Matter 21 395502 (2009);
         "P. Giannozzi et al., J. Phys.:Condens. Matter 29 465901 (2017);
         "P. Giannozzi et al., J. Chem. Phys. 152 154105 (2020);
          URL http://www.quantum-espresso.org", 
     in publications or presentations arising from this work. More details at
     http://www.quantum-espresso.org/quote

     Parallel version (MPI & OpenMP), running on      48 processor cores
     Number of MPI processes:                48
     Threads/MPI process:                     1

     MPI processes distributed on     1 nodes
     527233 MiB available memory on the printing compute node when the environment starts

     Reading input from Bi2Se3.scf.soc.nc.in

     Current dimensions of program PWSCF are:
     Max number of different atomic species (ntypx) = 10
     Max number of k-points (npk) =  40000
     Max angular momentum in pseudopotentials (lmaxx) =  4

     K-points division:     npool     =      24
     R & G space division:  proc/nbgrp/npool/nimage =       2
     Subspace diagonalization in iterative solution of the eigenvalue problem:
     a serial algorithm will be used


     Parallelization info
     --------------------
     sticks:   dense  smooth     PW     G-vecs:    dense   smooth      PW
     Min        1637    1637    487                39531    39531    6434
     Max        1638    1638    488                39532    39532    6435
     Sum        3275    3275    975                79063    79063   12869

     Using Slab Decomposition



     bravais-lattice index     =            0
     lattice parameter (alat)  =      18.9447  a.u.
     unit-cell volume          =    1000.1458 (a.u.)^3
     number of atoms/cell      =            5
     number of atomic types    =            2
     number of electrons       =        78.00
     number of Kohn-Sham states=          124
     kinetic-energy cutoff     =      70.0000  Ry
     charge density cutoff     =     280.0000  Ry
     scf convergence threshold =      1.0E-08
     mixing beta               =       0.3000
     number of iterations used =            8  plain     mixing
     Exchange-correlation= PBE
                           (   1   4   3   4   0   0   0)
     Non magnetic calculation with spin-orbit


     celldm(1)=  18.944708  celldm(2)=   0.000000  celldm(3)=   0.000000
     celldm(4)=   0.000000  celldm(5)=   0.000000  celldm(6)=   0.000000

     crystal axes: (cart. coord. in units of alat)
               a(1) = (   0.410349   0.000805   0.911928 )  
               a(2) = (   0.196369   0.360314   0.911928 )  
               a(3) = (   0.001353   0.000805   0.999999 )  

     reciprocal axes: (cart. coord. in units 2 pi/alat)
               b(1) = (  2.444529 -1.326585 -0.002239 )  
               b(2) = ( -0.000482  2.781285 -0.002239 )  
               b(3) = ( -2.228798 -1.326584  1.004084 )  


     PseudoPot. # 1 for Bi read from file:
     ./pseudo_nc/Bi_FR.upf
     MD5 check sum: 260977096fd1df4b879f04c556a28fcb
     Pseudo is Norm-conserving + core correction, Zval = 15.0
     Generated using ONCVPSP code by D. R. Hamann
     Using radial grid of 1562 points, 10 beta functions with: 
                l(1) =   0
                l(2) =   0
                l(3) =   1
                l(4) =   1
                l(5) =   1
                l(6) =   1
                l(7) =   2
                l(8) =   2
                l(9) =   2
               l(10) =   2

     PseudoPot. # 2 for Se read from file:
     ./pseudo_nc/Se_FR.upf
     MD5 check sum: cb2cefba1335ec1a0ef320de5a6fd81a
     Pseudo is Norm-conserving + core correction, Zval = 16.0
     Generated using ONCVPSP code by D. R. Hamann
     Using radial grid of 1214 points, 10 beta functions with: 
                l(1) =   0
                l(2) =   0
                l(3) =   1
                l(4) =   1
                l(5) =   1
                l(6) =   1
                l(7) =   2
                l(8) =   2
                l(9) =   2
               l(10) =   2

     atomic species   valence    mass     pseudopotential
     Bi               15.00   208.98040     Bi( 1.00)
     Se               16.00    78.97100     Se( 1.00)

     No symmetry found


                                    s                        frac. trans.

      isym =  1     identity                                     

 cryst.   s( 1) = (     1          0          0      )
                  (     0          1          0      )
                  (     0          0          1      )

 cart.    s( 1) = (  1.0000000 -0.0000000  0.0000000 )
                  ( -0.0000000  1.0000000  0.0000000 )
                  ( -0.0000000  0.0000000  1.0000000 )


   Cartesian axes

     site n.     atom                  positions (alat units)
         1        Bi     tau(   1) = (   0.2432254   0.1447681   1.1295295  )
         2        Bi     tau(   2) = (   0.3648449   0.2171563   1.6943258  )
         3        Se     tau(   3) = (   0.0000000   0.0000000   0.0000000  )
         4        Se     tau(   4) = (   0.1293806   0.0770076   0.6008387  )
         5        Se     tau(   5) = (   0.4786897   0.2849168   2.2230166  )

   Crystallographic axes

     site n.     atom                  positions (cryst. coord.)
         1        Bi     tau(   1) = (  0.3999955  0.3999955  0.3999955  )
         2        Bi     tau(   2) = (  0.6000045  0.6000045  0.6000045  )
         3        Se     tau(   3) = (  0.0000000  0.0000000  0.0000000  )
         4        Se     tau(   4) = (  0.2127725  0.2127725  0.2127725  )
         5        Se     tau(   5) = (  0.7872275  0.7872275  0.7872275  )

     number of k points=   216  Methfessel-Paxton smearing, width (Ry)=  0.0100
                       cart. coord. in units 2pi/alat
        k(    1) = (   0.0000000   0.0000000   0.0000000), wk =   0.0046296
        k(    2) = (  -0.3714664  -0.2210974   0.1673474), wk =   0.0046296
        k(    3) = (  -0.7429327  -0.4421947   0.3346948), wk =   0.0046296
        k(    4) = (   1.1143991   0.6632921  -0.5020422), wk =   0.0046296
        k(    5) = (   0.7429327   0.4421947  -0.3346948), wk =   0.0046296
        k(    6) = (   0.3714664   0.2210974  -0.1673474), wk =   0.0046296
        k(    7) = (  -0.0000803   0.4635476  -0.0003731), wk =   0.0046296
        k(    8) = (  -0.3715467   0.2424502   0.1669743), wk =   0.0046296
        k(    9) = (  -0.7430130   0.0213529   0.3343217), wk =   0.0046296
        k(   10) = (   1.1143187   1.1268396  -0.5024153), wk =   0.0046296
        k(   11) = (   0.7428524   0.9057423  -0.3350679), wk =   0.0046296
        k(   12) = (   0.3713860   0.6846449  -0.1677205), wk =   0.0046296
        k(   13) = (  -0.0001607   0.9270951  -0.0007463), wk =   0.0046296
        k(   14) = (  -0.3716270   0.7059978   0.1666012), wk =   0.0046296
        k(   15) = (  -0.7430934   0.4849004   0.3339486), wk =   0.0046296
        k(   16) = (   1.1142384   1.5903872  -0.5027885), wk =   0.0046296
        k(   17) = (   0.7427720   1.3692898  -0.3354411), wk =   0.0046296
        k(   18) = (   0.3713057   1.1481925  -0.1680937), wk =   0.0046296
        k(   19) = (   0.0002410  -1.3906427   0.0011194), wk =   0.0046296
        k(   20) = (  -0.3712253  -1.6117401   0.1684668), wk =   0.0046296
        k(   21) = (  -0.7426917  -1.8328374   0.3358142), wk =   0.0046296
        k(   22) = (   1.1146401  -0.7273507  -0.5009228), wk =   0.0046296
        k(   23) = (   0.7431737  -0.9484480  -0.3335754), wk =   0.0046296
        k(   24) = (   0.3717074  -1.1695454  -0.1662280), wk =   0.0046296
        k(   25) = (   0.0001607  -0.9270951   0.0007463), wk =   0.0046296
        k(   26) = (  -0.3713057  -1.1481925   0.1680937), wk =   0.0046296
        k(   27) = (  -0.7427720  -1.3692898   0.3354411), wk =   0.0046296
        k(   28) = (   1.1145597  -0.2638031  -0.5012960), wk =   0.0046296
        k(   29) = (   0.7430934  -0.4849004  -0.3339486), wk =   0.0046296
        k(   30) = (   0.3716270  -0.7059978  -0.1666012), wk =   0.0046296
        k(   31) = (   0.0000803  -0.4635476   0.0003731), wk =   0.0046296
        k(   32) = (  -0.3713860  -0.6846449   0.1677205), wk =   0.0046296
        k(   33) = (  -0.7428524  -0.9057423   0.3350679), wk =   0.0046296
        k(   34) = (   1.1144794   0.1997445  -0.5016691), wk =   0.0046296
        k(   35) = (   0.7430130  -0.0213529  -0.3343217), wk =   0.0046296
        k(   36) = (   0.3715467  -0.2424502  -0.1669743), wk =   0.0046296
        k(   37) = (   0.4074215  -0.2210975  -0.0003731), wk =   0.0046296
        k(   38) = (   0.0359551  -0.4421948   0.1669743), wk =   0.0046296
        k(   39) = (  -0.3355112  -0.6632922   0.3343217), wk =   0.0046296
        k(   40) = (   1.5218205   0.4421946  -0.5024153), wk =   0.0046296
        k(   41) = (   1.1503542   0.2210972  -0.3350679), wk =   0.0046296
        k(   42) = (   0.7788878  -0.0000001  -0.1677205), wk =   0.0046296
        k(   43) = (   0.4073411   0.2424501  -0.0007463), wk =   0.0046296
        k(   44) = (   0.0358748   0.0213527   0.1666012), wk =   0.0046296
        k(   45) = (  -0.3355916  -0.1997446   0.3339486), wk =   0.0046296
        k(   46) = (   1.5217402   0.9057421  -0.5027885), wk =   0.0046296
        k(   47) = (   1.1502738   0.6846448  -0.3354411), wk =   0.0046296
        k(   48) = (   0.7788075   0.4635474  -0.1680937), wk =   0.0046296
        k(   49) = (   0.4072608   0.7059976  -0.0011194), wk =   0.0046296
        k(   50) = (   0.0357944   0.4849003   0.1662280), wk =   0.0046296
        k(   51) = (  -0.3356719   0.2638029   0.3335754), wk =   0.0046296
        k(   52) = (   1.5216598   1.3692897  -0.5031616), wk =   0.0046296
        k(   53) = (   1.1501935   1.1481923  -0.3358142), wk =   0.0046296
        k(   54) = (   0.7787271   0.9270950  -0.1684668), wk =   0.0046296
        k(   55) = (   0.4076625  -1.6117402   0.0007463), wk =   0.0046296
        k(   56) = (   0.0361962  -1.8328375   0.1680937), wk =   0.0046296
        k(   57) = (  -0.3352702  -2.0539349   0.3354411), wk =   0.0046296
        k(   58) = (   1.5220616  -0.9484481  -0.5012960), wk =   0.0046296
        k(   59) = (   1.1505952  -1.1695455  -0.3339486), wk =   0.0046296
        k(   60) = (   0.7791289  -1.3906428  -0.1666012), wk =   0.0046296
        k(   61) = (   0.4075822  -1.1481926   0.0003731), wk =   0.0046296
        k(   62) = (   0.0361158  -1.3692900   0.1677205), wk =   0.0046296
        k(   63) = (  -0.3353505  -1.5903873   0.3350679), wk =   0.0046296
        k(   64) = (   1.5219812  -0.4849006  -0.5016691), wk =   0.0046296
        k(   65) = (   1.1505149  -0.7059979  -0.3343217), wk =   0.0046296
        k(   66) = (   0.7790485  -0.9270953  -0.1669743), wk =   0.0046296
        k(   67) = (   0.4075018  -0.6846451  -0.0000000), wk =   0.0046296
        k(   68) = (   0.0360355  -0.9057424   0.1673474), wk =   0.0046296
        k(   69) = (  -0.3354309  -1.1268398   0.3346948), wk =   0.0046296
        k(   70) = (   1.5219009  -0.0213530  -0.5020422), wk =   0.0046296
        k(   71) = (   1.1504345  -0.2424504  -0.3346948), wk =   0.0046296
        k(   72) = (   0.7789682  -0.4635477  -0.1673474), wk =   0.0046296
        k(   73) = (   0.8148430  -0.4421950  -0.0007463), wk =   0.0046296
        k(   74) = (   0.4433766  -0.6632923   0.1666011), wk =   0.0046296
        k(   75) = (   0.0719103  -0.8843897   0.3339486), wk =   0.0046296
        k(   76) = (   1.9292420   0.2210971  -0.5027885), wk =   0.0046296
        k(   77) = (   1.5577757  -0.0000003  -0.3354411), wk =   0.0046296
        k(   78) = (   1.1863093  -0.2210976  -0.1680937), wk =   0.0046296
        k(   79) = (   0.8147626   0.0213526  -0.0011194), wk =   0.0046296
        k(   80) = (   0.4432963  -0.1997448   0.1662280), wk =   0.0046296
        k(   81) = (   0.0718299  -0.4208421   0.3335754), wk =   0.0046296
        k(   82) = (   1.9291617   0.6846446  -0.5031616), wk =   0.0046296
        k(   83) = (   1.5576953   0.4635473  -0.3358142), wk =   0.0046296
        k(   84) = (   1.1862290   0.2424499  -0.1684668), wk =   0.0046296
        k(   85) = (   0.8146823   0.4849002  -0.0014925), wk =   0.0046296
        k(   86) = (   0.4432159   0.2638028   0.1658549), wk =   0.0046296
        k(   87) = (   0.0717496   0.0427055   0.3332023), wk =   0.0046296
        k(   88) = (   1.9290813   1.1481922  -0.5035347), wk =   0.0046296
        k(   89) = (   1.5576150   0.9270949  -0.3361873), wk =   0.0046296
        k(   90) = (   1.1861486   0.7059975  -0.1688399), wk =   0.0046296
        k(   91) = (   0.8150840  -1.8328377   0.0003731), wk =   0.0046296
        k(   92) = (   0.4436177  -2.0539350   0.1677205), wk =   0.0046296
        k(   93) = (   0.0721513  -2.2750324   0.3350679), wk =   0.0046296
        k(   94) = (   1.9294831  -1.1695456  -0.5016691), wk =   0.0046296
        k(   95) = (   1.5580167  -1.3906430  -0.3343217), wk =   0.0046296
        k(   96) = (   1.1865504  -1.6117403  -0.1669743), wk =   0.0046296
        k(   97) = (   0.8150037  -1.3692901  -0.0000000), wk =   0.0046296
        k(   98) = (   0.4435373  -1.5903875   0.1673474), wk =   0.0046296
        k(   99) = (   0.0720710  -1.8114848   0.3346948), wk =   0.0046296
        k(  100) = (   1.9294027  -0.7059981  -0.5020422), wk =   0.0046296
        k(  101) = (   1.5579364  -0.9270954  -0.3346948), wk =   0.0046296
        k(  102) = (   1.1864700  -1.1481928  -0.1673474), wk =   0.0046296
        k(  103) = (   0.8149233  -0.9057425  -0.0003731), wk =   0.0046296
        k(  104) = (   0.4434570  -1.1268399   0.1669743), wk =   0.0046296
        k(  105) = (   0.0719906  -1.3479372   0.3343217), wk =   0.0046296
        k(  106) = (   1.9293224  -0.2424505  -0.5024153), wk =   0.0046296
        k(  107) = (   1.5578560  -0.4635478  -0.3350679), wk =   0.0046296
        k(  108) = (   1.1863897  -0.6846452  -0.1677205), wk =   0.0046296
        k(  109) = (  -1.2222644   0.6632925   0.0011194), wk =   0.0046296
        k(  110) = (  -1.5937308   0.4421951   0.1684668), wk =   0.0046296
        k(  111) = (  -1.9651971   0.2210978   0.3358142), wk =   0.0046296
        k(  112) = (  -0.1078654   1.3265845  -0.5009228), wk =   0.0046296
        k(  113) = (  -0.4793317   1.1054872  -0.3335754), wk =   0.0046296
        k(  114) = (  -0.8507981   0.8843898  -0.1662280), wk =   0.0046296
        k(  115) = (  -1.2223448   1.1268400   0.0007463), wk =   0.0046296
        k(  116) = (  -1.5938111   0.9057427   0.1680937), wk =   0.0046296
        k(  117) = (  -1.9652775   0.6846453   0.3354411), wk =   0.0046296
        k(  118) = (  -0.1079457   1.7901321  -0.5012960), wk =   0.0046296
        k(  119) = (  -0.4794121   1.5690347  -0.3339486), wk =   0.0046296
        k(  120) = (  -0.8508784   1.3479374  -0.1666011), wk =   0.0046296
        k(  121) = (  -1.2224251   1.5903876   0.0003731), wk =   0.0046296
        k(  122) = (  -1.5938915   1.3692903   0.1677205), wk =   0.0046296
        k(  123) = (  -1.9653578   1.1481929   0.3350679), wk =   0.0046296
        k(  124) = (  -0.1080261   2.2536797  -0.5016691), wk =   0.0046296
        k(  125) = (  -0.4794924   2.0325823  -0.3343217), wk =   0.0046296
        k(  126) = (  -0.8509588   1.8114850  -0.1669743), wk =   0.0046296
        k(  127) = (  -1.2220234  -0.7273502   0.0022388), wk =   0.0046296
        k(  128) = (  -1.5934898  -0.9484476   0.1695862), wk =   0.0046296
        k(  129) = (  -1.9649561  -1.1695449   0.3369336), wk =   0.0046296
        k(  130) = (  -0.1076244  -0.0640582  -0.4998035), wk =   0.0046296
        k(  131) = (  -0.4790907  -0.2851555  -0.3324560), wk =   0.0046296
        k(  132) = (  -0.8505571  -0.5062529  -0.1651086), wk =   0.0046296
        k(  133) = (  -1.2221038  -0.2638027   0.0018656), wk =   0.0046296
        k(  134) = (  -1.5935701  -0.4849000   0.1692130), wk =   0.0046296
        k(  135) = (  -1.9650365  -0.7059974   0.3365604), wk =   0.0046296
        k(  136) = (  -0.1077047   0.3994894  -0.5001766), wk =   0.0046296
        k(  137) = (  -0.4791711   0.1783920  -0.3328292), wk =   0.0046296
        k(  138) = (  -0.8506374  -0.0427053  -0.1654818), wk =   0.0046296
        k(  139) = (  -1.2221841   0.1997449   0.0014925), wk =   0.0046296
        k(  140) = (  -1.5936504  -0.0213524   0.1688399), wk =   0.0046296
        k(  141) = (  -1.9651168  -0.2424498   0.3361873), wk =   0.0046296
        k(  142) = (  -0.1077850   0.8630370  -0.5005497), wk =   0.0046296
        k(  143) = (  -0.4792514   0.6419396  -0.3332023), wk =   0.0046296
        k(  144) = (  -0.8507177   0.4208423  -0.1658549), wk =   0.0046296
        k(  145) = (  -0.8148430   0.4421950   0.0007463), wk =   0.0046296
        k(  146) = (  -1.1863093   0.2210976   0.1680937), wk =   0.0046296
        k(  147) = (  -1.5577757   0.0000003   0.3354411), wk =   0.0046296
        k(  148) = (   0.2995561   1.1054870  -0.5012960), wk =   0.0046296
        k(  149) = (  -0.0719103   0.8843897  -0.3339486), wk =   0.0046296
        k(  150) = (  -0.4433766   0.6632923  -0.1666011), wk =   0.0046296
        k(  151) = (  -0.8149233   0.9057425   0.0003731), wk =   0.0046296
        k(  152) = (  -1.1863897   0.6846452   0.1677205), wk =   0.0046296
        k(  153) = (  -1.5578560   0.4635478   0.3350679), wk =   0.0046296
        k(  154) = (   0.2994757   1.5690346  -0.5016691), wk =   0.0046296
        k(  155) = (  -0.0719906   1.3479372  -0.3343217), wk =   0.0046296
        k(  156) = (  -0.4434570   1.1268399  -0.1669743), wk =   0.0046296
        k(  157) = (  -0.8150037   1.3692901   0.0000000), wk =   0.0046296
        k(  158) = (  -1.1864700   1.1481928   0.1673474), wk =   0.0046296
        k(  159) = (  -1.5579364   0.9270954   0.3346948), wk =   0.0046296
        k(  160) = (   0.2993954   2.0325822  -0.5020422), wk =   0.0046296
        k(  161) = (  -0.0720710   1.8114848  -0.3346948), wk =   0.0046296
        k(  162) = (  -0.4435373   1.5903875  -0.1673474), wk =   0.0046296
        k(  163) = (  -0.8146019  -0.9484477   0.0018656), wk =   0.0046296
        k(  164) = (  -1.1860683  -1.1695451   0.1692130), wk =   0.0046296
        k(  165) = (  -1.5575346  -1.3906424   0.3365604), wk =   0.0046296
        k(  166) = (   0.2997971  -0.2851557  -0.5001766), wk =   0.0046296
        k(  167) = (  -0.0716692  -0.5062530  -0.3328292), wk =   0.0046296
        k(  168) = (  -0.4431356  -0.7273504  -0.1654818), wk =   0.0046296
        k(  169) = (  -0.8146823  -0.4849002   0.0014925), wk =   0.0046296
        k(  170) = (  -1.1861486  -0.7059975   0.1688399), wk =   0.0046296
        k(  171) = (  -1.5576150  -0.9270949   0.3361873), wk =   0.0046296
        k(  172) = (   0.2997168   0.1783919  -0.5005497), wk =   0.0046296
        k(  173) = (  -0.0717496  -0.0427055  -0.3332023), wk =   0.0046296
        k(  174) = (  -0.4432159  -0.2638028  -0.1658549), wk =   0.0046296
        k(  175) = (  -0.8147626  -0.0213526   0.0011194), wk =   0.0046296
        k(  176) = (  -1.1862290  -0.2424499   0.1684668), wk =   0.0046296
        k(  177) = (  -1.5576953  -0.4635473   0.3358142), wk =   0.0046296
        k(  178) = (   0.2996364   0.6419395  -0.5009228), wk =   0.0046296
        k(  179) = (  -0.0718299   0.4208421  -0.3335754), wk =   0.0046296
        k(  180) = (  -0.4432963   0.1997448  -0.1662280), wk =   0.0046296
        k(  181) = (  -0.4074215   0.2210975   0.0003731), wk =   0.0046296
        k(  182) = (  -0.7788878   0.0000001   0.1677205), wk =   0.0046296
        k(  183) = (  -1.1503542  -0.2210972   0.3350679), wk =   0.0046296
        k(  184) = (   0.7069776   0.8843895  -0.5016691), wk =   0.0046296
        k(  185) = (   0.3355112   0.6632922  -0.3343217), wk =   0.0046296
        k(  186) = (  -0.0359551   0.4421948  -0.1669743), wk =   0.0046296
        k(  187) = (  -0.4075018   0.6846451   0.0000000), wk =   0.0046296
        k(  188) = (  -0.7789682   0.4635477   0.1673474), wk =   0.0046296
        k(  189) = (  -1.1504345   0.2424504   0.3346948), wk =   0.0046296
        k(  190) = (   0.7068972   1.3479371  -0.5020422), wk =   0.0046296
        k(  191) = (   0.3354309   1.1268398  -0.3346948), wk =   0.0046296
        k(  192) = (  -0.0360355   0.9057424  -0.1673474), wk =   0.0046296
        k(  193) = (  -0.4075822   1.1481926  -0.0003731), wk =   0.0046296
        k(  194) = (  -0.7790485   0.9270953   0.1669743), wk =   0.0046296
        k(  195) = (  -1.1505149   0.7059979   0.3343217), wk =   0.0046296
        k(  196) = (   0.7068169   1.8114847  -0.5024153), wk =   0.0046296
        k(  197) = (   0.3353505   1.5903873  -0.3350679), wk =   0.0046296
        k(  198) = (  -0.0361158   1.3692900  -0.1677205), wk =   0.0046296
        k(  199) = (  -0.4071804  -1.1695452   0.0014925), wk =   0.0046296
        k(  200) = (  -0.7786468  -1.3906426   0.1688399), wk =   0.0046296
        k(  201) = (  -1.1501131  -1.6117399   0.3361873), wk =   0.0046296
        k(  202) = (   0.7072186  -0.5062532  -0.5005497), wk =   0.0046296
        k(  203) = (   0.3357523  -0.7273505  -0.3332023), wk =   0.0046296
        k(  204) = (  -0.0357141  -0.9484479  -0.1658549), wk =   0.0046296
        k(  205) = (  -0.4072608  -0.7059976   0.0011194), wk =   0.0046296
        k(  206) = (  -0.7787271  -0.9270950   0.1684668), wk =   0.0046296
        k(  207) = (  -1.1501935  -1.1481923   0.3358142), wk =   0.0046296
        k(  208) = (   0.7071383  -0.0427056  -0.5009228), wk =   0.0046296
        k(  209) = (   0.3356719  -0.2638029  -0.3335754), wk =   0.0046296
        k(  210) = (  -0.0357944  -0.4849003  -0.1662280), wk =   0.0046296
        k(  211) = (  -0.4073411  -0.2424501   0.0007463), wk =   0.0046296
        k(  212) = (  -0.7788075  -0.4635474   0.1680937), wk =   0.0046296
        k(  213) = (  -1.1502738  -0.6846448   0.3354411), wk =   0.0046296
        k(  214) = (   0.7070579   0.4208420  -0.5012960), wk =   0.0046296
        k(  215) = (   0.3355916   0.1997446  -0.3339486), wk =   0.0046296
        k(  216) = (  -0.0358748  -0.0213527  -0.1666012), wk =   0.0046296

                       cryst. coord.
        k(    1) = (   0.0000000   0.0000000   0.0000000), wk =   0.0046296
        k(    2) = (  -0.0000000  -0.0000000   0.1666667), wk =   0.0046296
        k(    3) = (  -0.0000000  -0.0000000   0.3333333), wk =   0.0046296
        k(    4) = (  -0.0000000  -0.0000000  -0.5000000), wk =   0.0046296
        k(    5) = (   0.0000000   0.0000000  -0.3333333), wk =   0.0046296
        k(    6) = (  -0.0000000  -0.0000000  -0.1666667), wk =   0.0046296
        k(    7) = (   0.0000000   0.1666667   0.0000000), wk =   0.0046296
        k(    8) = (   0.0000000   0.1666667   0.1666667), wk =   0.0046296
        k(    9) = (   0.0000000   0.1666667   0.3333333), wk =   0.0046296
        k(   10) = (  -0.0000000   0.1666667  -0.5000000), wk =   0.0046296
        k(   11) = (  -0.0000000   0.1666667  -0.3333333), wk =   0.0046296
        k(   12) = (   0.0000000   0.1666667  -0.1666667), wk =   0.0046296
        k(   13) = (   0.0000000   0.3333333   0.0000000), wk =   0.0046296
        k(   14) = (   0.0000000   0.3333333   0.1666667), wk =   0.0046296
        k(   15) = (   0.0000000   0.3333333   0.3333333), wk =   0.0046296
        k(   16) = (  -0.0000000   0.3333333  -0.5000000), wk =   0.0046296
        k(   17) = (  -0.0000000   0.3333333  -0.3333333), wk =   0.0046296
        k(   18) = (  -0.0000000   0.3333333  -0.1666667), wk =   0.0046296
        k(   19) = (  -0.0000000  -0.5000000   0.0000000), wk =   0.0046296
        k(   20) = (   0.0000000  -0.5000000   0.1666667), wk =   0.0046296
        k(   21) = (   0.0000000  -0.5000000   0.3333333), wk =   0.0046296
        k(   22) = (  -0.0000000  -0.5000000  -0.5000000), wk =   0.0046296
        k(   23) = (  -0.0000000  -0.5000000  -0.3333333), wk =   0.0046296
        k(   24) = (  -0.0000000  -0.5000000  -0.1666667), wk =   0.0046296
        k(   25) = (  -0.0000000  -0.3333333  -0.0000000), wk =   0.0046296
        k(   26) = (  -0.0000000  -0.3333333   0.1666667), wk =   0.0046296
        k(   27) = (   0.0000000  -0.3333333   0.3333333), wk =   0.0046296
        k(   28) = (  -0.0000000  -0.3333333  -0.5000000), wk =   0.0046296
        k(   29) = (  -0.0000000  -0.3333333  -0.3333333), wk =   0.0046296
        k(   30) = (  -0.0000000  -0.3333333  -0.1666667), wk =   0.0046296
        k(   31) = (  -0.0000000  -0.1666667  -0.0000000), wk =   0.0046296
        k(   32) = (   0.0000000  -0.1666667   0.1666667), wk =   0.0046296
        k(   33) = (  -0.0000000  -0.1666667   0.3333333), wk =   0.0046296
        k(   34) = (  -0.0000000  -0.1666667  -0.5000000), wk =   0.0046296
        k(   35) = (  -0.0000000  -0.1666667  -0.3333333), wk =   0.0046296
        k(   36) = (  -0.0000000  -0.1666667  -0.1666667), wk =   0.0046296
        k(   37) = (   0.1666667  -0.0000000  -0.0000000), wk =   0.0046296
        k(   38) = (   0.1666667   0.0000000   0.1666667), wk =   0.0046296
        k(   39) = (   0.1666667   0.0000000   0.3333333), wk =   0.0046296
        k(   40) = (   0.1666667  -0.0000000  -0.5000000), wk =   0.0046296
        k(   41) = (   0.1666667  -0.0000000  -0.3333333), wk =   0.0046296
        k(   42) = (   0.1666667  -0.0000000  -0.1666667), wk =   0.0046296
        k(   43) = (   0.1666667   0.1666667  -0.0000000), wk =   0.0046296
        k(   44) = (   0.1666667   0.1666667   0.1666667), wk =   0.0046296
        k(   45) = (   0.1666667   0.1666667   0.3333333), wk =   0.0046296
        k(   46) = (   0.1666667   0.1666667  -0.5000000), wk =   0.0046296
        k(   47) = (   0.1666667   0.1666667  -0.3333333), wk =   0.0046296
        k(   48) = (   0.1666667   0.1666667  -0.1666667), wk =   0.0046296
        k(   49) = (   0.1666667   0.3333333  -0.0000000), wk =   0.0046296
        k(   50) = (   0.1666667   0.3333333   0.1666667), wk =   0.0046296
        k(   51) = (   0.1666667   0.3333333   0.3333333), wk =   0.0046296
        k(   52) = (   0.1666667   0.3333333  -0.5000000), wk =   0.0046296
        k(   53) = (   0.1666667   0.3333333  -0.3333333), wk =   0.0046296
        k(   54) = (   0.1666667   0.3333333  -0.1666667), wk =   0.0046296
        k(   55) = (   0.1666667  -0.5000000  -0.0000000), wk =   0.0046296
        k(   56) = (   0.1666667  -0.5000000   0.1666667), wk =   0.0046296
        k(   57) = (   0.1666667  -0.5000000   0.3333333), wk =   0.0046296
        k(   58) = (   0.1666667  -0.5000000  -0.5000000), wk =   0.0046296
        k(   59) = (   0.1666667  -0.5000000  -0.3333333), wk =   0.0046296
        k(   60) = (   0.1666667  -0.5000000  -0.1666667), wk =   0.0046296
        k(   61) = (   0.1666667  -0.3333333  -0.0000000), wk =   0.0046296
        k(   62) = (   0.1666667  -0.3333333   0.1666667), wk =   0.0046296
        k(   63) = (   0.1666667  -0.3333333   0.3333333), wk =   0.0046296
        k(   64) = (   0.1666667  -0.3333333  -0.5000000), wk =   0.0046296
        k(   65) = (   0.1666667  -0.3333333  -0.3333333), wk =   0.0046296
        k(   66) = (   0.1666667  -0.3333333  -0.1666667), wk =   0.0046296
        k(   67) = (   0.1666667  -0.1666667  -0.0000000), wk =   0.0046296
        k(   68) = (   0.1666667  -0.1666667   0.1666667), wk =   0.0046296
        k(   69) = (   0.1666667  -0.1666667   0.3333333), wk =   0.0046296
        k(   70) = (   0.1666667  -0.1666667  -0.5000000), wk =   0.0046296
        k(   71) = (   0.1666667  -0.1666667  -0.3333333), wk =   0.0046296
        k(   72) = (   0.1666667  -0.1666667  -0.1666667), wk =   0.0046296
        k(   73) = (   0.3333333  -0.0000000  -0.0000000), wk =   0.0046296
        k(   74) = (   0.3333333   0.0000000   0.1666667), wk =   0.0046296
        k(   75) = (   0.3333333   0.0000000   0.3333333), wk =   0.0046296
        k(   76) = (   0.3333333  -0.0000000  -0.5000000), wk =   0.0046296
        k(   77) = (   0.3333333  -0.0000000  -0.3333333), wk =   0.0046296
        k(   78) = (   0.3333333  -0.0000000  -0.1666667), wk =   0.0046296
        k(   79) = (   0.3333333   0.1666667  -0.0000000), wk =   0.0046296
        k(   80) = (   0.3333333   0.1666667   0.1666667), wk =   0.0046296
        k(   81) = (   0.3333333   0.1666667   0.3333333), wk =   0.0046296
        k(   82) = (   0.3333333   0.1666667  -0.5000000), wk =   0.0046296
        k(   83) = (   0.3333333   0.1666667  -0.3333333), wk =   0.0046296
        k(   84) = (   0.3333333   0.1666667  -0.1666667), wk =   0.0046296
        k(   85) = (   0.3333333   0.3333333  -0.0000000), wk =   0.0046296
        k(   86) = (   0.3333333   0.3333333   0.1666667), wk =   0.0046296
        k(   87) = (   0.3333333   0.3333333   0.3333333), wk =   0.0046296
        k(   88) = (   0.3333333   0.3333333  -0.5000000), wk =   0.0046296
        k(   89) = (   0.3333333   0.3333333  -0.3333333), wk =   0.0046296
        k(   90) = (   0.3333333   0.3333333  -0.1666667), wk =   0.0046296
        k(   91) = (   0.3333333  -0.5000000  -0.0000000), wk =   0.0046296
        k(   92) = (   0.3333333  -0.5000000   0.1666667), wk =   0.0046296
        k(   93) = (   0.3333333  -0.5000000   0.3333333), wk =   0.0046296
        k(   94) = (   0.3333333  -0.5000000  -0.5000000), wk =   0.0046296
        k(   95) = (   0.3333333  -0.5000000  -0.3333333), wk =   0.0046296
        k(   96) = (   0.3333333  -0.5000000  -0.1666667), wk =   0.0046296
        k(   97) = (   0.3333333  -0.3333333  -0.0000000), wk =   0.0046296
        k(   98) = (   0.3333333  -0.3333333   0.1666667), wk =   0.0046296
        k(   99) = (   0.3333333  -0.3333333   0.3333333), wk =   0.0046296
        k(  100) = (   0.3333333  -0.3333333  -0.5000000), wk =   0.0046296
        k(  101) = (   0.3333333  -0.3333333  -0.3333333), wk =   0.0046296
        k(  102) = (   0.3333333  -0.3333333  -0.1666667), wk =   0.0046296
        k(  103) = (   0.3333333  -0.1666667  -0.0000000), wk =   0.0046296
        k(  104) = (   0.3333333  -0.1666667   0.1666667), wk =   0.0046296
        k(  105) = (   0.3333333  -0.1666667   0.3333333), wk =   0.0046296
        k(  106) = (   0.3333333  -0.1666667  -0.5000000), wk =   0.0046296
        k(  107) = (   0.3333333  -0.1666667  -0.3333333), wk =   0.0046296
        k(  108) = (   0.3333333  -0.1666667  -0.1666667), wk =   0.0046296
        k(  109) = (  -0.5000000   0.0000000   0.0000000), wk =   0.0046296
        k(  110) = (  -0.5000000   0.0000000   0.1666667), wk =   0.0046296
        k(  111) = (  -0.5000000   0.0000000   0.3333333), wk =   0.0046296
        k(  112) = (  -0.5000000  -0.0000000  -0.5000000), wk =   0.0046296
        k(  113) = (  -0.5000000   0.0000000  -0.3333333), wk =   0.0046296
        k(  114) = (  -0.5000000  -0.0000000  -0.1666667), wk =   0.0046296
        k(  115) = (  -0.5000000   0.1666667   0.0000000), wk =   0.0046296
        k(  116) = (  -0.5000000   0.1666667   0.1666667), wk =   0.0046296
        k(  117) = (  -0.5000000   0.1666667   0.3333333), wk =   0.0046296
        k(  118) = (  -0.5000000   0.1666667  -0.5000000), wk =   0.0046296
        k(  119) = (  -0.5000000   0.1666667  -0.3333333), wk =   0.0046296
        k(  120) = (  -0.5000000   0.1666667  -0.1666667), wk =   0.0046296
        k(  121) = (  -0.5000000   0.3333333   0.0000000), wk =   0.0046296
        k(  122) = (  -0.5000000   0.3333333   0.1666667), wk =   0.0046296
        k(  123) = (  -0.5000000   0.3333333   0.3333333), wk =   0.0046296
        k(  124) = (  -0.5000000   0.3333333  -0.5000000), wk =   0.0046296
        k(  125) = (  -0.5000000   0.3333333  -0.3333333), wk =   0.0046296
        k(  126) = (  -0.5000000   0.3333333  -0.1666667), wk =   0.0046296
        k(  127) = (  -0.5000000  -0.5000000   0.0000000), wk =   0.0046296
        k(  128) = (  -0.5000000  -0.5000000   0.1666667), wk =   0.0046296
        k(  129) = (  -0.5000000  -0.5000000   0.3333333), wk =   0.0046296
        k(  130) = (  -0.5000000  -0.5000000  -0.5000000), wk =   0.0046296
        k(  131) = (  -0.5000000  -0.5000000  -0.3333333), wk =   0.0046296
        k(  132) = (  -0.5000000  -0.5000000  -0.1666667), wk =   0.0046296
        k(  133) = (  -0.5000000  -0.3333333   0.0000000), wk =   0.0046296
        k(  134) = (  -0.5000000  -0.3333333   0.1666667), wk =   0.0046296
        k(  135) = (  -0.5000000  -0.3333333   0.3333333), wk =   0.0046296
        k(  136) = (  -0.5000000  -0.3333333  -0.5000000), wk =   0.0046296
        k(  137) = (  -0.5000000  -0.3333333  -0.3333333), wk =   0.0046296
        k(  138) = (  -0.5000000  -0.3333333  -0.1666667), wk =   0.0046296
        k(  139) = (  -0.5000000  -0.1666667  -0.0000000), wk =   0.0046296
        k(  140) = (  -0.5000000  -0.1666667   0.1666667), wk =   0.0046296
        k(  141) = (  -0.5000000  -0.1666667   0.3333333), wk =   0.0046296
        k(  142) = (  -0.5000000  -0.1666667  -0.5000000), wk =   0.0046296
        k(  143) = (  -0.5000000  -0.1666667  -0.3333333), wk =   0.0046296
        k(  144) = (  -0.5000000  -0.1666667  -0.1666667), wk =   0.0046296
        k(  145) = (  -0.3333333   0.0000000   0.0000000), wk =   0.0046296
        k(  146) = (  -0.3333333   0.0000000   0.1666667), wk =   0.0046296
        k(  147) = (  -0.3333333   0.0000000   0.3333333), wk =   0.0046296
        k(  148) = (  -0.3333333   0.0000000  -0.5000000), wk =   0.0046296
        k(  149) = (  -0.3333333   0.0000000  -0.3333333), wk =   0.0046296
        k(  150) = (  -0.3333333   0.0000000  -0.1666667), wk =   0.0046296
        k(  151) = (  -0.3333333   0.1666667   0.0000000), wk =   0.0046296
        k(  152) = (  -0.3333333   0.1666667   0.1666667), wk =   0.0046296
        k(  153) = (  -0.3333333   0.1666667   0.3333333), wk =   0.0046296
        k(  154) = (  -0.3333333   0.1666667  -0.5000000), wk =   0.0046296
        k(  155) = (  -0.3333333   0.1666667  -0.3333333), wk =   0.0046296
        k(  156) = (  -0.3333333   0.1666667  -0.1666667), wk =   0.0046296
        k(  157) = (  -0.3333333   0.3333333   0.0000000), wk =   0.0046296
        k(  158) = (  -0.3333333   0.3333333   0.1666667), wk =   0.0046296
        k(  159) = (  -0.3333333   0.3333333   0.3333333), wk =   0.0046296
        k(  160) = (  -0.3333333   0.3333333  -0.5000000), wk =   0.0046296
        k(  161) = (  -0.3333333   0.3333333  -0.3333333), wk =   0.0046296
        k(  162) = (  -0.3333333   0.3333333  -0.1666667), wk =   0.0046296
        k(  163) = (  -0.3333333  -0.5000000   0.0000000), wk =   0.0046296
        k(  164) = (  -0.3333333  -0.5000000   0.1666667), wk =   0.0046296
        k(  165) = (  -0.3333333  -0.5000000   0.3333333), wk =   0.0046296
        k(  166) = (  -0.3333333  -0.5000000  -0.5000000), wk =   0.0046296
        k(  167) = (  -0.3333333  -0.5000000  -0.3333333), wk =   0.0046296
        k(  168) = (  -0.3333333  -0.5000000  -0.1666667), wk =   0.0046296
        k(  169) = (  -0.3333333  -0.3333333   0.0000000), wk =   0.0046296
        k(  170) = (  -0.3333333  -0.3333333   0.1666667), wk =   0.0046296
        k(  171) = (  -0.3333333  -0.3333333   0.3333333), wk =   0.0046296
        k(  172) = (  -0.3333333  -0.3333333  -0.5000000), wk =   0.0046296
        k(  173) = (  -0.3333333  -0.3333333  -0.3333333), wk =   0.0046296
        k(  174) = (  -0.3333333  -0.3333333  -0.1666667), wk =   0.0046296
        k(  175) = (  -0.3333333  -0.1666667   0.0000000), wk =   0.0046296
        k(  176) = (  -0.3333333  -0.1666667   0.1666667), wk =   0.0046296
        k(  177) = (  -0.3333333  -0.1666667   0.3333333), wk =   0.0046296
        k(  178) = (  -0.3333333  -0.1666667  -0.5000000), wk =   0.0046296
        k(  179) = (  -0.3333333  -0.1666667  -0.3333333), wk =   0.0046296
        k(  180) = (  -0.3333333  -0.1666667  -0.1666667), wk =   0.0046296
        k(  181) = (  -0.1666667   0.0000000   0.0000000), wk =   0.0046296
        k(  182) = (  -0.1666667   0.0000000   0.1666667), wk =   0.0046296
        k(  183) = (  -0.1666667   0.0000000   0.3333333), wk =   0.0046296
        k(  184) = (  -0.1666667  -0.0000000  -0.5000000), wk =   0.0046296
        k(  185) = (  -0.1666667  -0.0000000  -0.3333333), wk =   0.0046296
        k(  186) = (  -0.1666667  -0.0000000  -0.1666667), wk =   0.0046296
        k(  187) = (  -0.1666667   0.1666667   0.0000000), wk =   0.0046296
        k(  188) = (  -0.1666667   0.1666667   0.1666667), wk =   0.0046296
        k(  189) = (  -0.1666667   0.1666667   0.3333333), wk =   0.0046296
        k(  190) = (  -0.1666667   0.1666667  -0.5000000), wk =   0.0046296
        k(  191) = (  -0.1666667   0.1666667  -0.3333333), wk =   0.0046296
        k(  192) = (  -0.1666667   0.1666667  -0.1666667), wk =   0.0046296
        k(  193) = (  -0.1666667   0.3333333   0.0000000), wk =   0.0046296
        k(  194) = (  -0.1666667   0.3333333   0.1666667), wk =   0.0046296
        k(  195) = (  -0.1666667   0.3333333   0.3333333), wk =   0.0046296
        k(  196) = (  -0.1666667   0.3333333  -0.5000000), wk =   0.0046296
        k(  197) = (  -0.1666667   0.3333333  -0.3333333), wk =   0.0046296
        k(  198) = (  -0.1666667   0.3333333  -0.1666667), wk =   0.0046296
        k(  199) = (  -0.1666667  -0.5000000   0.0000000), wk =   0.0046296
        k(  200) = (  -0.1666667  -0.5000000   0.1666667), wk =   0.0046296
        k(  201) = (  -0.1666667  -0.5000000   0.3333333), wk =   0.0046296
        k(  202) = (  -0.1666667  -0.5000000  -0.5000000), wk =   0.0046296
        k(  203) = (  -0.1666667  -0.5000000  -0.3333333), wk =   0.0046296
        k(  204) = (  -0.1666667  -0.5000000  -0.1666667), wk =   0.0046296
        k(  205) = (  -0.1666667  -0.3333333   0.0000000), wk =   0.0046296
        k(  206) = (  -0.1666667  -0.3333333   0.1666667), wk =   0.0046296
        k(  207) = (  -0.1666667  -0.3333333   0.3333333), wk =   0.0046296
        k(  208) = (  -0.1666667  -0.3333333  -0.5000000), wk =   0.0046296
        k(  209) = (  -0.1666667  -0.3333333  -0.3333333), wk =   0.0046296
        k(  210) = (  -0.1666667  -0.3333333  -0.1666667), wk =   0.0046296
        k(  211) = (  -0.1666667  -0.1666667  -0.0000000), wk =   0.0046296
        k(  212) = (  -0.1666667  -0.1666667   0.1666667), wk =   0.0046296
        k(  213) = (  -0.1666667  -0.1666667   0.3333333), wk =   0.0046296
        k(  214) = (  -0.1666667  -0.1666667  -0.5000000), wk =   0.0046296
        k(  215) = (  -0.1666667  -0.1666667  -0.3333333), wk =   0.0046296
        k(  216) = (  -0.1666667  -0.1666667  -0.1666667), wk =   0.0046296

     Dense  grid:    79063 G-vectors     FFT dimensions: ( 108, 108, 108)

     Dynamical RAM for                 wfc:      18.71 MB

     Dynamical RAM for     wfc (w. buffer):      18.71 MB

     Dynamical RAM for           str. fact:       1.21 MB

     Dynamical RAM for           local pot:       0.00 MB

     Dynamical RAM for          nlocal pot:      12.83 MB

     Dynamical RAM for                qrad:       7.04 MB

     Dynamical RAM for          rho,v,vnew:      64.90 MB

     Dynamical RAM for               rhoin:      21.63 MB

     Dynamical RAM for           G-vectors:       2.56 MB

     Dynamical RAM for          h,s,v(r/c):       2.82 MB

     Dynamical RAM for          <psi|beta>:       0.64 MB

     Dynamical RAM for                 psi:      37.43 MB

     Dynamical RAM for                hpsi:      37.43 MB

     Dynamical RAM for      wfcinit/wfcrot:      28.42 MB

     Estimated static dynamical RAM per process >     169.14 MB

     Estimated max dynamical RAM per process >     247.45 MB

     Estimated total dynamical RAM >      11.60 GB

     Initial potential from superposition of free atoms

     starting charge      77.9976, renormalised to      78.0000
     Starting wfcs are   90 randomized atomic wfcs +   34 random wfcs

     total cpu time spent up to now is       28.3 secs

     per-process dynamical memory:   295.6 Mb

     Self-consistent Calculation

     iteration #  1     ecut=    70.00 Ry     beta= 0.30
     Davidson diagonalization with overlap

---- Real-time Memory Report at c_bands before calling an iterative solver
           331 MiB given to the printing process from OS
           288 MiB allocation reported by mallinfo(arena+hblkhd)
        512623 MiB available memory on the node where the printing process lives
------------------
     ethr =  1.00E-02,  avg # of iterations =  7.3

     Threshold (ethr) on eigenvalues was too large:
     Diagonalizing with lowered threshold

     Davidson diagonalization with overlap

---- Real-time Memory Report at c_bands before calling an iterative solver
           407 MiB given to the printing process from OS
           288 MiB allocation reported by mallinfo(arena+hblkhd)
        531331 MiB available memory on the node where the printing process lives
------------------
     ethr =  2.76E-04,  avg # of iterations =  7.7

     total cpu time spent up to now is      216.0 secs

     total energy              =   -1054.93361353 Ry
     estimated scf accuracy    <       0.21272662 Ry

     iteration #  2     ecut=    70.00 Ry     beta= 0.30
     Davidson diagonalization with overlap

---- Real-time Memory Report at c_bands before calling an iterative solver
           428 MiB given to the printing process from OS
           279 MiB allocation reported by mallinfo(arena+hblkhd)
        528260 MiB available memory on the node where the printing process lives
------------------
     ethr =  2.73E-04,  avg # of iterations =  2.3

     total cpu time spent up to now is      291.5 secs

     WARNING: integrated charge=    78.00024821, expected=    78.00000000

     total energy              =   -1054.94654963 Ry
     estimated scf accuracy    <       0.10843818 Ry

     iteration #  3     ecut=    70.00 Ry     beta= 0.30
     Davidson diagonalization with overlap

---- Real-time Memory Report at c_bands before calling an iterative solver
           428 MiB given to the printing process from OS
           279 MiB allocation reported by mallinfo(arena+hblkhd)
        541569 MiB available memory on the node where the printing process lives
------------------
     ethr =  1.39E-04,  avg # of iterations =  2.5

     total cpu time spent up to now is      369.2 secs

     WARNING: integrated charge=    78.00028433, expected=    78.00000000

     total energy              =   -1054.96423599 Ry
     estimated scf accuracy    <       0.05596190 Ry

     iteration #  4     ecut=    70.00 Ry     beta= 0.30
     Davidson diagonalization with overlap

---- Real-time Memory Report at c_bands before calling an iterative solver
           428 MiB given to the printing process from OS
           279 MiB allocation reported by mallinfo(arena+hblkhd)
        508252 MiB available memory on the node where the printing process lives
------------------
     ethr =  7.17E-05,  avg # of iterations =  1.2

     total cpu time spent up to now is      442.9 secs

     WARNING: integrated charge=    78.00323019, expected=    78.00000000

     total energy              =   -1054.96638706 Ry
     estimated scf accuracy    <       0.00297889 Ry

     iteration #  5     ecut=    70.00 Ry     beta= 0.30
     Davidson diagonalization with overlap

---- Real-time Memory Report at c_bands before calling an iterative solver
           428 MiB given to the printing process from OS
           279 MiB allocation reported by mallinfo(arena+hblkhd)
        507264 MiB available memory on the node where the printing process lives
------------------
     ethr =  3.82E-06,  avg # of iterations =  7.0

     total cpu time spent up to now is      525.1 secs

     WARNING: integrated charge=    78.00403519, expected=    78.00000000

     total energy              =   -1054.96673544 Ry
     estimated scf accuracy    <       0.00019627 Ry

     iteration #  6     ecut=    70.00 Ry     beta= 0.30
     Davidson diagonalization with overlap

---- Real-time Memory Report at c_bands before calling an iterative solver
           428 MiB given to the printing process from OS
           279 MiB allocation reported by mallinfo(arena+hblkhd)
        496944 MiB available memory on the node where the printing process lives
------------------
     ethr =  2.52E-07,  avg # of iterations =  1.9

     total cpu time spent up to now is      599.8 secs

     WARNING: integrated charge=    78.00447573, expected=    78.00000000

     total energy              =   -1054.96666763 Ry
     estimated scf accuracy    <       0.00002637 Ry

     iteration #  7     ecut=    70.00 Ry     beta= 0.30
     Davidson diagonalization with overlap

---- Real-time Memory Report at c_bands before calling an iterative solver
           428 MiB given to the printing process from OS
           279 MiB allocation reported by mallinfo(arena+hblkhd)
        493061 MiB available memory on the node where the printing process lives
------------------
     ethr =  3.38E-08,  avg # of iterations =  2.0

     total cpu time spent up to now is      677.8 secs

     WARNING: integrated charge=    78.00453056, expected=    78.00000000

     total energy              =   -1054.96668041 Ry
     estimated scf accuracy    <       0.00000400 Ry

     iteration #  8     ecut=    70.00 Ry     beta= 0.30
     Davidson diagonalization with overlap

---- Real-time Memory Report at c_bands before calling an iterative solver
           428 MiB given to the printing process from OS
           279 MiB allocation reported by mallinfo(arena+hblkhd)
        517743 MiB available memory on the node where the printing process lives
------------------
     ethr =  5.13E-09,  avg # of iterations =  2.0

     total cpu time spent up to now is      757.0 secs

     WARNING: integrated charge=    78.00454140, expected=    78.00000000

     total energy              =   -1054.96667667 Ry
     estimated scf accuracy    <       0.00000014 Ry

     iteration #  9     ecut=    70.00 Ry     beta= 0.30
     Davidson diagonalization with overlap

---- Real-time Memory Report at c_bands before calling an iterative solver
           428 MiB given to the printing process from OS
           279 MiB allocation reported by mallinfo(arena+hblkhd)
        519937 MiB available memory on the node where the printing process lives
------------------
     ethr =  1.85E-10,  avg # of iterations =  2.0

     total cpu time spent up to now is      838.4 secs

     WARNING: integrated charge=    78.00454309, expected=    78.00000000

     total energy              =   -1054.96667734 Ry
     estimated scf accuracy    <       0.00000005 Ry

     iteration # 10     ecut=    70.00 Ry     beta= 0.30
     Davidson diagonalization with overlap

---- Real-time Memory Report at c_bands before calling an iterative solver
           428 MiB given to the printing process from OS
           279 MiB allocation reported by mallinfo(arena+hblkhd)
        516916 MiB available memory on the node where the printing process lives
------------------
     ethr =  5.91E-11,  avg # of iterations =  1.2

     total cpu time spent up to now is      911.6 secs

     WARNING: integrated charge=    78.00454278, expected=    78.00000000

     total energy              =   -1054.96667786 Ry
     estimated scf accuracy    <       0.00000001 Ry

     iteration # 11     ecut=    70.00 Ry     beta= 0.30
     Davidson diagonalization with overlap

---- Real-time Memory Report at c_bands before calling an iterative solver
           428 MiB given to the printing process from OS
           279 MiB allocation reported by mallinfo(arena+hblkhd)
        548283 MiB available memory on the node where the printing process lives
------------------
     ethr =  1.46E-11,  avg # of iterations =  2.0

     total cpu time spent up to now is      990.2 secs

     End of self-consistent calculation

          k = 0.0000 0.0000 0.0000 (  9943 PWs)   bands (ev):

   -39.2444 -39.2444 -39.2442 -39.2442 -39.2417 -39.2417 -39.2408 -39.2408
   -39.0330 -39.0330 -38.9933 -38.9933 -38.3509 -38.3509 -38.3509 -38.3509
   -38.3484 -38.3484 -38.3478 -38.3478 -38.3474 -38.3474 -38.3464 -38.3464
   -38.1416 -38.1416 -38.1244 -38.1244 -38.0903 -38.0903 -15.7568 -15.7568
   -15.7566 -15.7566 -15.7439 -15.7439 -15.7425 -15.7425 -12.7820 -12.7820
   -12.7806 -12.7806 -12.7612 -12.7612 -12.7607 -12.7607 -12.7594 -12.7594
   -12.7584 -12.7584  -5.3715  -5.3715  -4.7196  -4.7196  -3.9258  -3.9258
    -0.6942  -0.6942   0.0773   0.0773   6.1384   6.1384   6.3349   6.3349
     6.8421   6.8421   7.0577   7.0577   7.1920   7.1920   7.2473   7.2473
     7.4508   7.4508   7.7062   7.7062   8.3989   8.3989   8.6715   8.6715
     9.9039   9.9039  10.0373  10.0373  10.8111  10.8111  11.5816  11.5816
    12.0843  12.0843  14.7465  14.7465  15.6448  15.6448  15.8106  15.8106
    15.8872  15.8872  15.8894  15.8894  16.6504  16.6504  16.6582  16.6582
    17.4180  17.4180  17.4843  17.4843  17.4844  17.4844  18.3287  18.3287
    18.7149  18.7149  19.5494  19.5494  19.9691  19.9691  20.1828  20.1828
    20.7542  20.7542  20.7635  20.7636

     occupation numbers 
     1.0000   1.0000   1.0000   1.0000   1.0000   1.0000   1.0000   1.0000
     1.0000   1.0000   1.0000   1.0000   1.0000   1.0000   1.0000   1.0000
     1.0000   1.0000   1.0000   1.0000   1.0000   1.0000   1.0000   1.0000
     1.0000   1.0000   1.0000   1.0000   1.0000   1.0000   1.0000   1.0000
     1.0000   1.0000   1.0000   1.0000   1.0000   1.0000   1.0000   1.0000
     1.0000   1.0000   1.0000   1.0000   1.0000   1.0000   1.0000   1.0000
     1.0000   1.0000   1.0000   1.0000   1.0000   1.0000   1.0000   1.0000
     1.0000   1.0000   1.0000   1.0000   1.0000   1.0000   1.0000   1.0000
     1.0000   1.0000   1.0000   1.0000   1.0000   1.0000   1.0000   1.0000
     1.0000   1.0000   1.0000   1.0000   1.0281   1.0281   0.1220   0.1220
    -0.0000  -0.0000  -0.0000  -0.0000  -0.0000  -0.0000  -0.0000  -0.0000
    -0.0000  -0.0000  -0.0000  -0.0000  -0.0000  -0.0000  -0.0000  -0.0000
    -0.0000  -0.0000  -0.0000  -0.0000  -0.0000  -0.0000  -0.0000  -0.0000
    -0.0000  -0.0000  -0.0000  -0.0000  -0.0000  -0.0000  -0.0000  -0.0000
    -0.0000  -0.0000  -0.0000  -0.0000  -0.0000  -0.0000  -0.0000  -0.0000
    -0.0000  -0.0000  -0.0000  -0.0000

          k =-0.3715-0.2211 0.1673 (  9920 PWs)   bands (ev):

   -39.2444 -39.2444 -39.2438 -39.2438 -39.2411 -39.2411 -39.2406 -39.2406
   -39.0327 -39.0327 -38.9931 -38.9931 -38.3511 -38.3511 -38.3505 -38.3505
   -38.3482 -38.3482 -38.3476 -38.3476 -38.3467 -38.3467 -38.3463 -38.3463
   -38.1413 -38.1413 -38.1241 -38.1241 -38.0901 -38.0901 -15.7557 -15.7557
   -15.7555 -15.7555 -15.7441 -15.7441 -15.7426 -15.7426 -12.7804 -12.7804
   -12.7786 -12.7785 -12.7628 -12.7628 -12.7624 -12.7624 -12.7588 -12.7588
   -12.7568 -12.7568  -5.1384  -5.1384  -4.5264  -4.5264  -3.7979  -3.7979
    -0.8405  -0.8405  -0.1998  -0.1998   5.3179   5.3179   5.5562   5.5562
     6.0055   6.0055   6.5021   6.5021   6.7613   6.7613   7.3920   7.3920
     7.5966   7.5966   7.7105   7.7105   8.0782   8.0782   9.5318   9.5318
     9.8340   9.8340  10.9629  10.9629  11.2120  11.2120  11.7854  11.7854
    12.2861  12.2861  14.0457  14.0457  14.9051  14.9051  16.1258  16.1258
    16.2489  16.2489  16.6187  16.6187  16.8137  16.8137  17.0892  17.0892
    17.5216  17.5216  18.5075  18.5075  18.6343  18.6343  18.9716  18.9716
    19.4621  19.4621  19.6165  19.6165  19.7210  19.7210  20.2593  20.2593
    20.5735  20.5735  21.0665  21.0666

     occupation numbers 
     1.0000   1.0000   1.0000   1.0000   1.0000   1.0000   1.0000   1.0000
     1.0000   1.0000   1.0000   1.0000   1.0000   1.0000   1.0000   1.0000
     1.0000   1.0000   1.0000   1.0000   1.0000   1.0000   1.0000   1.0000
     1.0000   1.0000   1.0000   1.0000   1.0000   1.0000   1.0000   1.0000
     1.0000   1.0000   1.0000   1.0000   1.0000   1.0000   1.0000   1.0000
     1.0000   1.0000   1.0000   1.0000   1.0000   1.0000   1.0000   1.0000
     1.0000   1.0000   1.0000   1.0000   1.0000   1.0000   1.0000   1.0000
     1.0000   1.0000   1.0000   1.0000   1.0000   1.0000   1.0000   1.0000
     1.0000   1.0000   1.0000   1.0000   1.0000   1.0000   1.0000   1.0000
     1.0000   1.0000   1.0000   1.0000   1.0000   1.0000  -0.0000  -0.0000
    -0.0000  -0.0000  -0.0000  -0.0000  -0.0000  -0.0000  -0.0000  -0.0000
    -0.0000  -0.0000  -0.0000  -0.0000  -0.0000  -0.0000  -0.0000  -0.0000
    -0.0000  -0.0000  -0.0000  -0.0000  -0.0000  -0.0000  -0.0000  -0.0000
    -0.0000  -0.0000  -0.0000  -0.0000  -0.0000  -0.0000  -0.0000  -0.0000
    -0.0000  -0.0000  -0.0000  -0.0000  -0.0000  -0.0000  -0.0000  -0.0000
    -0.0000  -0.0000  -0.0000  -0.0000

          k =-0.7429-0.4422 0.3347 (  9889 PWs)   bands (ev):

   -39.2442 -39.2442 -39.2433 -39.2433 -39.2410 -39.2410 -39.2404 -39.2404
   -39.0324 -39.0324 -38.9928 -38.9928 -38.3508 -38.3508 -38.3499 -38.3499
   -38.3481 -38.3481 -38.3475 -38.3475 -38.3465 -38.3465 -38.3459 -38.3459
   -38.1410 -38.1410 -38.1240 -38.1240 -38.0897 -38.0897 -15.7537 -15.7537
   -15.7535 -15.7535 -15.7440 -15.7439 -15.7429 -15.7429 -12.7810 -12.7810
   -12.7786 -12.7786 -12.7649 -12.7649 -12.7631 -12.7631 -12.7549 -12.7549
   -12.7521 -12.7521  -4.4943  -4.4943  -4.0606  -4.0606  -3.5415  -3.5415
    -1.3684  -1.3684  -0.8753  -0.8753   4.0512   4.0512   5.0315   5.0315
     5.3207   5.3207   5.9358   5.9358   6.0417   6.0417   6.5515   6.5515
     7.2978   7.2978   7.5756   7.5756   8.1619   8.1619   9.4224   9.4224
    10.6641  10.6641  11.0360  11.0360  11.6239  11.6239  12.5333  12.5333
    13.1496  13.1496  13.2656  13.2656  15.2988  15.2988  15.9637  15.9637
    17.3943  17.3943  17.4700  17.4700  17.7146  17.7146  18.0189  18.0189
    18.5449  18.5449  19.4325  19.4325  19.5829  19.5829  19.6698  19.6698
    20.0003  20.0003  20.2541  20.2541  21.2021  21.2021  22.2180  22.2180
    22.4231  22.4231  22.7869  22.7869

     occupation numbers 
     1.0000   1.0000   1.0000   1.0000   1.0000   1.0000   1.0000   1.0000
     1.0000   1.0000   1.0000   1.0000   1.0000   1.0000   1.0000   1.0000
     1.0000   1.0000   1.0000   1.0000   1.0000   1.0000   1.0000   1.0000
     1.0000   1.0000   1.0000   1.0000   1.0000   1.0000   1.0000   1.0000
     1.0000   1.0000   1.0000   1.0000   1.0000   1.0000   1.0000   1.0000
     1.0000   1.0000   1.0000   1.0000   1.0000   1.0000   1.0000   1.0000
     1.0000   1.0000   1.0000   1.0000   1.0000   1.0000   1.0000   1.0000
     1.0000   1.0000   1.0000   1.0000   1.0000   1.0000   1.0000   1.0000
     1.0000   1.0000   1.0000   1.0000   1.0000   1.0000   1.0000   1.0000
     1.0000   1.0000   1.0000   1.0000   1.0000   1.0000  -0.0000  -0.0000
    -0.0000  -0.0000  -0.0000  -0.0000  -0.0000  -0.0000  -0.0000  -0.0000
    -0.0000  -0.0000  -0.0000  -0.0000  -0.0000  -0.0000  -0.0000  -0.0000
    -0.0000  -0.0000  -0.0000  -0.0000  -0.0000  -0.0000  -0.0000  -0.0000
    -0.0000  -0.0000  -0.0000  -0.0000  -0.0000  -0.0000  -0.0000  -0.0000
    -0.0000  -0.0000  -0.0000  -0.0000  -0.0000  -0.0000  -0.0000  -0.0000
    -0.0000  -0.0000  -0.0000  -0.0000

          k = 1.1144 0.6633-0.5020 (  9850 PWs)   bands (ev):

   -39.2431 -39.2431 -39.2431 -39.2431 -39.2404 -39.2404 -39.2401 -39.2401
   -39.0321 -39.0321 -38.9921 -38.9921 -38.3497 -38.3497 -38.3497 -38.3497
   -38.3473 -38.3473 -38.3471 -38.3471 -38.3459 -38.3459 -38.3457 -38.3457
   -38.1407 -38.1407 -38.1235 -38.1235 -38.0889 -38.0889 -15.7527 -15.7527
   -15.7527 -15.7527 -15.7434 -15.7434 -15.7433 -15.7433 -12.7826 -12.7826
   -12.7807 -12.7807 -12.7650 -12.7650 -12.7624 -12.7624 -12.7521 -12.7521
   -12.7490 -12.7490  -3.8340  -3.8340  -3.7218  -3.7218  -3.6424  -3.6424
    -1.7308  -1.7308  -1.3735  -1.3735   3.4970   3.4970   5.1215   5.1215
     5.1490   5.1490   5.7409   5.7409   5.7839   5.7839   6.1221   6.1221
     6.7241   6.7241   7.5482   7.5482   8.1679   8.1679   9.3043   9.3043
    10.7889  10.7889  11.2773  11.2773  11.8769  11.8769  12.5502  12.5502
    13.0049  13.0049  13.3014  13.3014  14.9731  14.9731  17.3584  17.3584
    17.9899  17.9899  18.5758  18.5758  18.8070  18.8070  19.0222  19.0222
    19.4564  19.4564  19.6392  19.6392  20.2305  20.2305  20.3494  20.3494
    20.4900  20.4900  20.9071  20.9071  21.4608  21.4608  21.5413  21.5413
    21.9032  21.9032  22.0707  22.0708

     occupation numbers 
     1.0000   1.0000   1.0000   1.0000   1.0000   1.0000   1.0000   1.0000
     1.0000   1.0000   1.0000   1.0000   1.0000   1.0000   1.0000   1.0000
     1.0000   1.0000   1.0000   1.0000   1.0000   1.0000   1.0000   1.0000
     1.0000   1.0000   1.0000   1.0000   1.0000   1.0000   1.0000   1.0000
     1.0000   1.0000   1.0000   1.0000   1.0000   1.0000   1.0000   1.0000
     1.0000   1.0000   1.0000   1.0000   1.0000   1.0000   1.0000   1.0000
     1.0000   1.0000   1.0000   1.0000   1.0000   1.0000   1.0000   1.0000
     1.0000   1.0000   1.0000   1.0000   1.0000   1.0000   1.0000   1.0000
     1.0000   1.0000   1.0000   1.0000   1.0000   1.0000   1.0000   1.0000
     1.0000   1.0000   1.0000   1.0000   1.0000   1.0000  -0.0000  -0.0000
    -0.0000  -0.0000  -0.0000  -0.0000  -0.0000  -0.0000  -0.0000  -0.0000
    -0.0000  -0.0000  -0.0000  -0.0000  -0.0000  -0.0000  -0.0000  -0.0000
    -0.0000  -0.0000  -0.0000  -0.0000  -0.0000  -0.0000  -0.0000  -0.0000
    -0.0000  -0.0000  -0.0000  -0.0000  -0.0000  -0.0000  -0.0000  -0.0000
    -0.0000  -0.0000  -0.0000  -0.0000  -0.0000  -0.0000  -0.0000  -0.0000
    -0.0000  -0.0000  -0.0000  -0.0000

          k = 0.7429 0.4422-0.3347 (  9889 PWs)   bands (ev):

   -39.2442 -39.2442 -39.2433 -39.2433 -39.2410 -39.2410 -39.2404 -39.2404
   -39.0324 -39.0324 -38.9928 -38.9928 -38.3508 -38.3508 -38.3499 -38.3499
   -38.3481 -38.3481 -38.3475 -38.3475 -38.3465 -38.3465 -38.3459 -38.3459
   -38.1410 -38.1410 -38.1240 -38.1240 -38.0897 -38.0897 -15.7537 -15.7537
   -15.7535 -15.7535 -15.7440 -15.7439 -15.7429 -15.7429 -12.7810 -12.7810
   -12.7786 -12.7786 -12.7649 -12.7649 -12.7631 -12.7631 -12.7549 -12.7549
   -12.7521 -12.7521  -4.4943  -4.4943  -4.0606  -4.0606  -3.5415  -3.5415
    -1.3684  -1.3684  -0.8753  -0.8753   4.0512   4.0512   5.0315   5.0315
     5.3207   5.3207   5.9358   5.9358   6.0417   6.0417   6.5515   6.5515
     7.2978   7.2978   7.5756   7.5756   8.1619   8.1619   9.4224   9.4224
    10.6641  10.6641  11.0360  11.0360  11.6239  11.6239  12.5333  12.5333
    13.1496  13.1496  13.2656  13.2656  15.2988  15.2988  15.9637  15.9637
    17.3943  17.3943  17.4700  17.4700  17.7146  17.7146  18.0189  18.0189
    18.5449  18.5449  19.4325  19.4325  19.5829  19.5829  19.6698  19.6698
    20.0003  20.0003  20.2541  20.2541  21.2021  21.2021  22.2180  22.2180
    22.4231  22.4231  22.7869  22.7869

     occupation numbers 
     1.0000   1.0000   1.0000   1.0000   1.0000   1.0000   1.0000   1.0000
     1.0000   1.0000   1.0000   1.0000   1.0000   1.0000   1.0000   1.0000
     1.0000   1.0000   1.0000   1.0000   1.0000   1.0000   1.0000   1.0000
     1.0000   1.0000   1.0000   1.0000   1.0000   1.0000   1.0000   1.0000
     1.0000   1.0000   1.0000   1.0000   1.0000   1.0000   1.0000   1.0000
     1.0000   1.0000   1.0000   1.0000   1.0000   1.0000   1.0000   1.0000
     1.0000   1.0000   1.0000   1.0000   1.0000   1.0000   1.0000   1.0000
     1.0000   1.0000   1.0000   1.0000   1.0000   1.0000   1.0000   1.0000
     1.0000   1.0000   1.0000   1.0000   1.0000   1.0000   1.0000   1.0000
     1.0000   1.0000   1.0000   1.0000   1.0000   1.0000  -0.0000  -0.0000
    -0.0000  -0.0000  -0.0000  -0.0000  -0.0000  -0.0000  -0.0000  -0.0000
    -0.0000  -0.0000  -0.0000  -0.0000  -0.0000  -0.0000  -0.0000  -0.0000
    -0.0000  -0.0000  -0.0000  -0.0000  -0.0000  -0.0000  -0.0000  -0.0000
    -0.0000  -0.0000  -0.0000  -0.0000  -0.0000  -0.0000  -0.0000  -0.0000
    -0.0000  -0.0000  -0.0000  -0.0000  -0.0000  -0.0000  -0.0000  -0.0000
    -0.0000  -0.0000  -0.0000  -0.0000

          k = 0.3715 0.2211-0.1673 (  9920 PWs)   bands (ev):

   -39.2444 -39.2444 -39.2438 -39.2438 -39.2411 -39.2411 -39.2406 -39.2406
   -39.0327 -39.0327 -38.9931 -38.9931 -38.3511 -38.3511 -38.3505 -38.3505
   -38.3482 -38.3482 -38.3476 -38.3476 -38.3467 -38.3467 -38.3463 -38.3463
   -38.1413 -38.1413 -38.1241 -38.1241 -38.0901 -38.0901 -15.7557 -15.7557
   -15.7555 -15.7555 -15.7441 -15.7441 -15.7426 -15.7426 -12.7804 -12.7804
   -12.7786 -12.7785 -12.7628 -12.7628 -12.7624 -12.7624 -12.7588 -12.7588
   -12.7568 -12.7568  -5.1384  -5.1384  -4.5264  -4.5264  -3.7979  -3.7979
    -0.8405  -0.8405  -0.1998  -0.1998   5.3179   5.3179   5.5562   5.5562
     6.0055   6.0055   6.5021   6.5021   6.7613   6.7613   7.3920   7.3920
     7.5966   7.5966   7.7105   7.7105   8.0782   8.0782   9.5318   9.5318
     9.8340   9.8340  10.9629  10.9629  11.2120  11.2120  11.7854  11.7854
    12.2861  12.2861  14.0457  14.0457  14.9051  14.9051  16.1258  16.1258
    16.2489  16.2489  16.6187  16.6187  16.8137  16.8137  17.0892  17.0892
    17.5216  17.5216  18.5075  18.5075  18.6343  18.6343  18.9716  18.9716
    19.4621  19.4621  19.6165  19.6165  19.7210  19.7210  20.2593  20.2593
    20.5735  20.5735  21.0670  21.0670

     occupation numbers 
     1.0000   1.0000   1.0000   1.0000   1.0000   1.0000   1.0000   1.0000
     1.0000   1.0000   1.0000   1.0000   1.0000   1.0000   1.0000   1.0000
     1.0000   1.0000   1.0000   1.0000   1.0000   1.0000   1.0000   1.0000
     1.0000   1.0000   1.0000   1.0000   1.0000   1.0000   1.0000   1.0000
     1.0000   1.0000   1.0000   1.0000   1.0000   1.0000   1.0000   1.0000
     1.0000   1.0000   1.0000   1.0000   1.0000   1.0000   1.0000   1.0000
     1.0000   1.0000   1.0000   1.0000   1.0000   1.0000   1.0000   1.0000
     1.0000   1.0000   1.0000   1.0000   1.0000   1.0000   1.0000   1.0000
     1.0000   1.0000   1.0000   1.0000   1.0000   1.0000   1.0000   1.0000
     1.0000   1.0000   1.0000   1.0000   1.0000   1.0000  -0.0000  -0.0000
    -0.0000  -0.0000  -0.0000  -0.0000  -0.0000  -0.0000  -0.0000  -0.0000
    -0.0000  -0.0000  -0.0000  -0.0000  -0.0000  -0.0000  -0.0000  -0.0000
    -0.0000  -0.0000  -0.0000  -0.0000  -0.0000  -0.0000  -0.0000  -0.0000
    -0.0000  -0.0000  -0.0000  -0.0000  -0.0000  -0.0000  -0.0000  -0.0000
    -0.0000  -0.0000  -0.0000  -0.0000  -0.0000  -0.0000  -0.0000  -0.0000
    -0.0000  -0.0000  -0.0000  -0.0000

          k =-0.0001 0.4635-0.0004 (  9920 PWs)   bands (ev):

   -39.2444 -39.2444 -39.2438 -39.2438 -39.2411 -39.2411 -39.2406 -39.2406
   -39.0327 -39.0327 -38.9931 -38.9931 -38.3511 -38.3511 -38.3505 -38.3505
   -38.3482 -38.3482 -38.3476 -38.3476 -38.3467 -38.3467 -38.3463 -38.3463
   -38.1413 -38.1413 -38.1241 -38.1241 -38.0901 -38.0901 -15.7557 -15.7557
   -15.7555 -15.7555 -15.7441 -15.7441 -15.7426 -15.7426 -12.7804 -12.7804
   -12.7786 -12.7785 -12.7628 -12.7628 -12.7624 -12.7624 -12.7588 -12.7588
   -12.7568 -12.7568  -5.1384  -5.1384  -4.5264  -4.5264  -3.7979  -3.7979
    -0.8405  -0.8405  -0.1998  -0.1998   5.3179   5.3179   5.5562   5.5562
     6.0055   6.0055   6.5021   6.5021   6.7613   6.7613   7.3920   7.3920
     7.5966   7.5966   7.7105   7.7105   8.0782   8.0782   9.5318   9.5318
     9.8340   9.8340  10.9629  10.9629  11.2120  11.2120  11.7854  11.7854
    12.2861  12.2861  14.0457  14.0457  14.9051  14.9051  16.1258  16.1258
    16.2489  16.2489  16.6187  16.6187  16.8137  16.8137  17.0892  17.0892
    17.5216  17.5216  18.5075  18.5075  18.6343  18.6343  18.9716  18.9716
    19.4621  19.4621  19.6165  19.6165  19.7210  19.7210  20.2593  20.2593
    20.5735  20.5735  21.0665  21.0670

     occupation numbers 
     1.0000   1.0000   1.0000   1.0000   1.0000   1.0000   1.0000   1.0000
     1.0000   1.0000   1.0000   1.0000   1.0000   1.0000   1.0000   1.0000
     1.0000   1.0000   1.0000   1.0000   1.0000   1.0000   1.0000   1.0000
     1.0000   1.0000   1.0000   1.0000   1.0000   1.0000   1.0000   1.0000
     1.0000   1.0000   1.0000   1.0000   1.0000   1.0000   1.0000   1.0000
     1.0000   1.0000   1.0000   1.0000   1.0000   1.0000   1.0000   1.0000
     1.0000   1.0000   1.0000   1.0000   1.0000   1.0000   1.0000   1.0000
     1.0000   1.0000   1.0000   1.0000   1.0000   1.0000   1.0000   1.0000
     1.0000   1.0000   1.0000   1.0000   1.0000   1.0000   1.0000   1.0000
     1.0000   1.0000   1.0000   1.0000   1.0000   1.0000  -0.0000  -0.0000
    -0.0000  -0.0000  -0.0000  -0.0000  -0.0000  -0.0000  -0.0000  -0.0000
    -0.0000  -0.0000  -0.0000  -0.0000  -0.0000  -0.0000  -0.0000  -0.0000
    -0.0000  -0.0000  -0.0000  -0.0000  -0.0000  -0.0000  -0.0000  -0.0000
    -0.0000  -0.0000  -0.0000  -0.0000  -0.0000  -0.0000  -0.0000  -0.0000
    -0.0000  -0.0000  -0.0000  -0.0000  -0.0000  -0.0000  -0.0000  -0.0000
    -0.0000  -0.0000  -0.0000  -0.0000

          k =-0.3715 0.2425 0.1670 (  9921 PWs)   bands (ev):

   -39.2445 -39.2445 -39.2439 -39.2439 -39.2412 -39.2412 -39.2405 -39.2405
   -39.0327 -39.0327 -38.9932 -38.9932 -38.3511 -38.3511 -38.3506 -38.3506
   -38.3482 -38.3482 -38.3477 -38.3477 -38.3469 -38.3469 -38.3461 -38.3461
   -38.1413 -38.1413 -38.1242 -38.1242 -38.0902 -38.0902 -15.7557 -15.7557
   -15.7555 -15.7555 -15.7441 -15.7441 -15.7426 -15.7426 -12.7804 -12.7804
   -12.7785 -12.7785 -12.7628 -12.7628 -12.7625 -12.7625 -12.7588 -12.7588
   -12.7569 -12.7569  -5.1312  -5.1312  -4.5470  -4.5470  -3.7805  -3.7805
    -0.8456  -0.8456  -0.2021  -0.2021   5.2718   5.2718   5.6924   5.6924
     5.9785   5.9785   6.4728   6.4728   6.8006   6.8006   7.2219   7.2219
     7.4953   7.4953   7.9047   7.9047   8.1100   8.1100   9.5141   9.5141
     9.7765   9.7765  10.8767  10.8767  11.2223  11.2223  11.9240  11.9240
    12.3418  12.3418  14.1733  14.1733  14.8006  14.8006  15.9963  15.9963
    16.1542  16.1542  16.5591  16.5591  17.1327  17.1327  17.2529  17.2529
    17.4613  17.4613  18.2386  18.2386  18.3655  18.3655  18.7051  18.7051
    18.9963  18.9963  19.7444  19.7444  20.0025  20.0025  20.4338  20.4338
    20.9650  20.9651  21.5090  21.5102

     occupation numbers 
     1.0000   1.0000   1.0000   1.0000   1.0000   1.0000   1.0000   1.0000
     1.0000   1.0000   1.0000   1.0000   1.0000   1.0000   1.0000   1.0000
     1.0000   1.0000   1.0000   1.0000   1.0000   1.0000   1.0000   1.0000
     1.0000   1.0000   1.0000   1.0000   1.0000   1.0000   1.0000   1.0000
     1.0000   1.0000   1.0000   1.0000   1.0000   1.0000   1.0000   1.0000
     1.0000   1.0000   1.0000   1.0000   1.0000   1.0000   1.0000   1.0000
     1.0000   1.0000   1.0000   1.0000   1.0000   1.0000   1.0000   1.0000
     1.0000   1.0000   1.0000   1.0000   1.0000   1.0000   1.0000   1.0000
     1.0000   1.0000   1.0000   1.0000   1.0000   1.0000   1.0000   1.0000
     1.0000   1.0000   1.0000   1.0000   1.0000   1.0000  -0.0000  -0.0000
    -0.0000  -0.0000  -0.0000  -0.0000  -0.0000  -0.0000  -0.0000  -0.0000
    -0.0000  -0.0000  -0.0000  -0.0000  -0.0000  -0.0000  -0.0000  -0.0000
    -0.0000  -0.0000  -0.0000  -0.0000  -0.0000  -0.0000  -0.0000  -0.0000
    -0.0000  -0.0000  -0.0000  -0.0000  -0.0000  -0.0000  -0.0000  -0.0000
    -0.0000  -0.0000  -0.0000  -0.0000  -0.0000  -0.0000  -0.0000  -0.0000
    -0.0000  -0.0000  -0.0000  -0.0000

          k =-0.7430 0.0214 0.3343 (  9901 PWs)   bands (ev):

   -39.2441 -39.2441 -39.2438 -39.2438 -39.2411 -39.2411 -39.2405 -39.2405
   -39.0326 -39.0326 -38.9930 -38.9930 -38.3506 -38.3506 -38.3505 -38.3505
   -38.3481 -38.3481 -38.3476 -38.3476 -38.3466 -38.3466 -38.3461 -38.3461
   -38.1412 -38.1412 -38.1241 -38.1241 -38.0899 -38.0899 -15.7546 -15.7546
   -15.7533 -15.7533 -15.7441 -15.7441 -15.7429 -15.7429 -12.7802 -12.7802
   -12.7765 -12.7765 -12.7647 -12.7647 -12.7636 -12.7636 -12.7564 -12.7564
   -12.7546 -12.7546  -4.6853  -4.6853  -4.2181  -4.2181  -3.5783  -3.5783
    -1.1447  -1.1447  -0.7390  -0.7390   4.5284   4.5284   4.9959   4.9959
     5.3056   5.3056   5.8756   5.8756   6.2916   6.2916   6.5050   6.5050
     7.4877   7.4877   8.0150   8.0150   8.0764   8.0764   9.7826   9.7826
    10.0663  10.0663  11.0788  11.0788  11.9561  11.9561  12.3893  12.3893
    12.8948  12.8948  14.1047  14.1047  14.1476  14.1476  15.9893  15.9893
    16.5645  16.5645  17.1382  17.1382  17.4797  17.4797  17.8700  17.8700
    18.3783  18.3783  18.7345  18.7345  18.8130  18.8130  19.6971  19.6971
    20.2932  20.2932  20.5801  20.5801  21.0431  21.0431  21.8286  21.8286
    22.2177  22.2178  22.4272  22.4273

     occupation numbers 
     1.0000   1.0000   1.0000   1.0000   1.0000   1.0000   1.0000   1.0000
     1.0000   1.0000   1.0000   1.0000   1.0000   1.0000   1.0000   1.0000
     1.0000   1.0000   1.0000   1.0000   1.0000   1.0000   1.0000   1.0000
     1.0000   1.0000   1.0000   1.0000   1.0000   1.0000   1.0000   1.0000
     1.0000   1.0000   1.0000   1.0000   1.0000   1.0000   1.0000   1.0000
     1.0000   1.0000   1.0000   1.0000   1.0000   1.0000   1.0000   1.0000
     1.0000   1.0000   1.0000   1.0000   1.0000   1.0000   1.0000   1.0000
     1.0000   1.0000   1.0000   1.0000   1.0000   1.0000   1.0000   1.0000
     1.0000   1.0000   1.0000   1.0000   1.0000   1.0000   1.0000   1.0000
     1.0000   1.0000   1.0000   1.0000   1.0000   1.0000  -0.0000  -0.0000
    -0.0000  -0.0000  -0.0000  -0.0000  -0.0000  -0.0000  -0.0000  -0.0000
    -0.0000  -0.0000  -0.0000  -0.0000  -0.0000  -0.0000  -0.0000  -0.0000
    -0.0000  -0.0000  -0.0000  -0.0000  -0.0000  -0.0000  -0.0000  -0.0000
    -0.0000  -0.0000  -0.0000  -0.0000  -0.0000  -0.0000  -0.0000  -0.0000
    -0.0000  -0.0000  -0.0000  -0.0000  -0.0000  -0.0000  -0.0000  -0.0000
    -0.0000  -0.0000  -0.0000  -0.0000

          k = 1.1143 1.1268-0.5024 (  9884 PWs)   bands (ev):

   -39.2437 -39.2437 -39.2433 -39.2433 -39.2408 -39.2408 -39.2407 -39.2407
   -39.0325 -39.0325 -38.9925 -38.9925 -38.3502 -38.3502 -38.3498 -38.3498
   -38.3480 -38.3480 -38.3478 -38.3478 -38.3462 -38.3462 -38.3461 -38.3461
   -38.1410 -38.1410 -38.1241 -38.1241 -38.0893 -38.0893 -15.7536 -15.7536
   -15.7512 -15.7512 -15.7442 -15.7442 -15.7432 -15.7432 -12.7805 -12.7805
   -12.7769 -12.7769 -12.7658 -12.7658 -12.7638 -12.7638 -12.7535 -12.7535
   -12.7515 -12.7515  -3.9566  -3.9566  -3.7768  -3.7768  -3.4538  -3.4538
    -1.6588  -1.6588  -1.4218  -1.4218   3.8160   3.8160   4.5480   4.5480
     4.9034   4.9034   5.2566   5.2566   6.1601   6.1601   6.5694   6.5694
     7.0585   7.0585   7.1979   7.1979   7.6886   7.6886  10.3162  10.3162
    10.7486  10.7486  11.4326  11.4326  12.0039  12.0039  12.4730  12.4730
    13.2642  13.2642  13.9447  13.9447  14.7728  14.7728  15.6354  15.6354
    17.5737  17.5737  17.8177  17.8177  18.3960  18.3960  19.1057  19.1057
    19.4170  19.4170  19.6330  19.6331  19.7563  19.7563  20.4918  20.4918
    20.7834  20.7834  21.0687  21.0687  21.2298  21.2298  21.5067  21.5067
    21.8311  21.8311  22.6189  22.6189

     occupation numbers 
     1.0000   1.0000   1.0000   1.0000   1.0000   1.0000   1.0000   1.0000
     1.0000   1.0000   1.0000   1.0000   1.0000   1.0000   1.0000   1.0000
     1.0000   1.0000   1.0000   1.0000   1.0000   1.0000   1.0000   1.0000
     1.0000   1.0000   1.0000   1.0000   1.0000   1.0000   1.0000   1.0000
     1.0000   1.0000   1.0000   1.0000   1.0000   1.0000   1.0000   1.0000
     1.0000   1.0000   1.0000   1.0000   1.0000   1.0000   1.0000   1.0000
     1.0000   1.0000   1.0000   1.0000   1.0000   1.0000   1.0000   1.0000
     1.0000   1.0000   1.0000   1.0000   1.0000   1.0000   1.0000   1.0000
     1.0000   1.0000   1.0000   1.0000   1.0000   1.0000   1.0000   1.0000
     1.0000   1.0000   1.0000   1.0000   1.0000   1.0000  -0.0000  -0.0000
    -0.0000  -0.0000  -0.0000  -0.0000  -0.0000  -0.0000  -0.0000  -0.0000
    -0.0000  -0.0000  -0.0000  -0.0000  -0.0000  -0.0000  -0.0000  -0.0000
    -0.0000  -0.0000  -0.0000  -0.0000  -0.0000  -0.0000  -0.0000  -0.0000
    -0.0000  -0.0000  -0.0000  -0.0000  -0.0000  -0.0000  -0.0000  -0.0000
    -0.0000  -0.0000  -0.0000  -0.0000  -0.0000  -0.0000  -0.0000  -0.0000
    -0.0000  -0.0000  -0.0000  -0.0000

          k = 0.7429 0.9057-0.3351 (  9870 PWs)   bands (ev):

   -39.2435 -39.2435 -39.2432 -39.2432 -39.2407 -39.2407 -39.2404 -39.2404
   -39.0323 -39.0323 -38.9924 -38.9924 -38.3499 -38.3499 -38.3497 -38.3497
   -38.3479 -38.3479 -38.3476 -38.3476 -38.3461 -38.3461 -38.3458 -38.3458
   -38.1408 -38.1408 -38.1240 -38.1240 -38.0891 -38.0891 -15.7536 -15.7536
   -15.7512 -15.7512 -15.7442 -15.7442 -15.7432 -15.7432 -12.7805 -12.7805
   -12.7769 -12.7769 -12.7658 -12.7658 -12.7638 -12.7638 -12.7535 -12.7535
   -12.7515 -12.7515  -3.9877  -3.9877  -3.7159  -3.7159  -3.4827  -3.4827
    -1.6720  -1.6720  -1.4095  -1.4095   3.7420   3.7420   4.5821   4.5821
     4.9718   4.9718   5.4945   5.4945   6.0512   6.0512   6.3038   6.3038
     6.8347   6.8347   7.4769   7.4769   7.7371   7.7371  10.3003  10.3003
    10.6284  10.6284  11.5865  11.5865  12.1670  12.1670  12.5182  12.5182
    13.0651  13.0651  13.7143  13.7143  15.2443  15.2443  15.6550  15.6550
    17.1565  17.1565  17.7904  17.7904  18.4634  18.4634  18.7684  18.7684
    19.2110  19.2110  19.4675  19.4675  20.1693  20.1693  20.4511  20.4511
    20.7203  20.7203  21.1766  21.1766  21.5249  21.5249  21.8720  21.8720
    22.1707  22.1707  22.5371  22.5372

     occupation numbers 
     1.0000   1.0000   1.0000   1.0000   1.0000   1.0000   1.0000   1.0000
     1.0000   1.0000   1.0000   1.0000   1.0000   1.0000   1.0000   1.0000
     1.0000   1.0000   1.0000   1.0000   1.0000   1.0000   1.0000   1.0000
     1.0000   1.0000   1.0000   1.0000   1.0000   1.0000   1.0000   1.0000
     1.0000   1.0000   1.0000   1.0000   1.0000   1.0000   1.0000   1.0000
     1.0000   1.0000   1.0000   1.0000   1.0000   1.0000   1.0000   1.0000
     1.0000   1.0000   1.0000   1.0000   1.0000   1.0000   1.0000   1.0000
     1.0000   1.0000   1.0000   1.0000   1.0000   1.0000   1.0000   1.0000
     1.0000   1.0000   1.0000   1.0000   1.0000   1.0000   1.0000   1.0000
     1.0000   1.0000   1.0000   1.0000   1.0000   1.0000  -0.0000  -0.0000
    -0.0000  -0.0000  -0.0000  -0.0000  -0.0000  -0.0000  -0.0000  -0.0000
    -0.0000  -0.0000  -0.0000  -0.0000  -0.0000  -0.0000  -0.0000  -0.0000
    -0.0000  -0.0000  -0.0000  -0.0000  -0.0000  -0.0000  -0.0000  -0.0000
    -0.0000  -0.0000  -0.0000  -0.0000  -0.0000  -0.0000  -0.0000  -0.0000
    -0.0000  -0.0000  -0.0000  -0.0000  -0.0000  -0.0000  -0.0000  -0.0000
    -0.0000  -0.0000  -0.0000  -0.0000

          k = 0.3714 0.6846-0.1677 (  9885 PWs)   bands (ev):

   -39.2439 -39.2439 -39.2435 -39.2435 -39.2407 -39.2407 -39.2406 -39.2406
   -39.0324 -39.0324 -38.9927 -38.9927 -38.3505 -38.3505 -38.3500 -38.3500
   -38.3478 -38.3478 -38.3476 -38.3476 -38.3463 -38.3463 -38.3461 -38.3461
   -38.1410 -38.1410 -38.1240 -38.1240 -38.0896 -38.0896 -15.7546 -15.7546
   -15.7533 -15.7533 -15.7442 -15.7441 -15.7429 -15.7429 -12.7802 -12.7802
   -12.7765 -12.7765 -12.7647 -12.7647 -12.7636 -12.7636 -12.7564 -12.7564
   -12.7546 -12.7546  -4.7066  -4.7066  -4.1580  -4.1580  -3.6257  -3.6257
    -1.1155  -1.1155  -0.7598  -0.7598   4.5699   4.5699   4.9869   4.9869
     5.3463   5.3463   5.7905   5.7905   6.3113   6.3113   6.3517   6.3517
     7.6356   7.6356   8.0966   8.0966   8.1167   8.1167   9.6755   9.6755
    10.0113  10.0113  10.9738  10.9738  12.0068  12.0068  12.4694  12.4694
    12.9610  12.9611  14.0491  14.0491  14.0707  14.0707  16.5147  16.5147
    16.9182  16.9182  17.0983  17.0983  17.2354  17.2354  17.3906  17.3906
    18.3031  18.3031  18.4650  18.4650  18.7079  18.7079  19.4409  19.4409
    20.4401  20.4401  21.0313  21.0313  21.3742  21.3742  21.6311  21.6312
    22.2241  22.2241  22.3027  22.3027

     occupation numbers 
     1.0000   1.0000   1.0000   1.0000   1.0000   1.0000   1.0000   1.0000
     1.0000   1.0000   1.0000   1.0000   1.0000   1.0000   1.0000   1.0000
     1.0000   1.0000   1.0000   1.0000   1.0000   1.0000   1.0000   1.0000
     1.0000   1.0000   1.0000   1.0000   1.0000   1.0000   1.0000   1.0000
     1.0000   1.0000   1.0000   1.0000   1.0000   1.0000   1.0000   1.0000
     1.0000   1.0000   1.0000   1.0000   1.0000   1.0000   1.0000   1.0000
     1.0000   1.0000   1.0000   1.0000   1.0000   1.0000   1.0000   1.0000
     1.0000   1.0000   1.0000   1.0000   1.0000   1.0000   1.0000   1.0000
     1.0000   1.0000   1.0000   1.0000   1.0000   1.0000   1.0000   1.0000
     1.0000   1.0000   1.0000   1.0000   1.0000   1.0000  -0.0000  -0.0000
    -0.0000  -0.0000  -0.0000  -0.0000  -0.0000  -0.0000  -0.0000  -0.0000
    -0.0000  -0.0000  -0.0000  -0.0000  -0.0000  -0.0000  -0.0000  -0.0000
    -0.0000  -0.0000  -0.0000  -0.0000  -0.0000  -0.0000  -0.0000  -0.0000
    -0.0000  -0.0000  -0.0000  -0.0000  -0.0000  -0.0000  -0.0000  -0.0000
    -0.0000  -0.0000  -0.0000  -0.0000  -0.0000  -0.0000  -0.0000  -0.0000
    -0.0000  -0.0000  -0.0000  -0.0000

          k =-0.0002 0.9271-0.0007 (  9889 PWs)   bands (ev):

   -39.2442 -39.2442 -39.2433 -39.2433 -39.2410 -39.2410 -39.2404 -39.2404
   -39.0324 -39.0324 -38.9928 -38.9928 -38.3508 -38.3508 -38.3499 -38.3499
   -38.3481 -38.3481 -38.3475 -38.3475 -38.3465 -38.3465 -38.3459 -38.3459
   -38.1410 -38.1410 -38.1240 -38.1240 -38.0897 -38.0897 -15.7537 -15.7537
   -15.7535 -15.7535 -15.7440 -15.7439 -15.7429 -15.7429 -12.7810 -12.7810
   -12.7786 -12.7786 -12.7649 -12.7649 -12.7631 -12.7631 -12.7549 -12.7549
   -12.7521 -12.7521  -4.4943  -4.4943  -4.0606  -4.0606  -3.5415  -3.5415
    -1.3684  -1.3684  -0.8753  -0.8753   4.0512   4.0512   5.0315   5.0315
     5.3207   5.3207   5.9358   5.9358   6.0417   6.0417   6.5515   6.5515
     7.2978   7.2978   7.5756   7.5756   8.1619   8.1619   9.4224   9.4224
    10.6641  10.6641  11.0360  11.0360  11.6239  11.6239  12.5333  12.5333
    13.1496  13.1496  13.2656  13.2656  15.2988  15.2988  15.9637  15.9637
    17.3943  17.3943  17.4700  17.4700  17.7146  17.7146  18.0189  18.0189
    18.5449  18.5449  19.4325  19.4325  19.5829  19.5829  19.6698  19.6698
    20.0003  20.0003  20.2541  20.2541  21.2021  21.2022  22.2180  22.2180
    22.4231  22.4231  22.7869  22.7869

     occupation numbers 
     1.0000   1.0000   1.0000   1.0000   1.0000   1.0000   1.0000   1.0000
     1.0000   1.0000   1.0000   1.0000   1.0000   1.0000   1.0000   1.0000
     1.0000   1.0000   1.0000   1.0000   1.0000   1.0000   1.0000   1.0000
     1.0000   1.0000   1.0000   1.0000   1.0000   1.0000   1.0000   1.0000
     1.0000   1.0000   1.0000   1.0000   1.0000   1.0000   1.0000   1.0000
     1.0000   1.0000   1.0000   1.0000   1.0000   1.0000   1.0000   1.0000
     1.0000   1.0000   1.0000   1.0000   1.0000   1.0000   1.0000   1.0000
     1.0000   1.0000   1.0000   1.0000   1.0000   1.0000   1.0000   1.0000
     1.0000   1.0000   1.0000   1.0000   1.0000   1.0000   1.0000   1.0000
     1.0000   1.0000   1.0000   1.0000   1.0000   1.0000  -0.0000  -0.0000
    -0.0000  -0.0000  -0.0000  -0.0000  -0.0000  -0.0000  -0.0000  -0.0000
    -0.0000  -0.0000  -0.0000  -0.0000  -0.0000  -0.0000  -0.0000  -0.0000
    -0.0000  -0.0000  -0.0000  -0.0000  -0.0000  -0.0000  -0.0000  -0.0000
    -0.0000  -0.0000  -0.0000  -0.0000  -0.0000  -0.0000  -0.0000  -0.0000
    -0.0000  -0.0000  -0.0000  -0.0000  -0.0000  -0.0000  -0.0000  -0.0000
    -0.0000  -0.0000  -0.0000  -0.0000

          k =-0.3716 0.7060 0.1666 (  9901 PWs)   bands (ev):

   -39.2441 -39.2441 -39.2438 -39.2438 -39.2411 -39.2411 -39.2405 -39.2405
   -39.0326 -39.0326 -38.9930 -38.9930 -38.3506 -38.3506 -38.3505 -38.3505
   -38.3481 -38.3481 -38.3476 -38.3476 -38.3466 -38.3466 -38.3461 -38.3461
   -38.1412 -38.1412 -38.1241 -38.1241 -38.0899 -38.0899 -15.7546 -15.7546
   -15.7533 -15.7533 -15.7441 -15.7441 -15.7429 -15.7429 -12.7802 -12.7802
   -12.7765 -12.7765 -12.7647 -12.7647 -12.7636 -12.7636 -12.7564 -12.7564
   -12.7546 -12.7546  -4.6853  -4.6853  -4.2181  -4.2181  -3.5783  -3.5783
    -1.1447  -1.1447  -0.7390  -0.7390   4.5284   4.5284   4.9959   4.9959
     5.3056   5.3056   5.8756   5.8756   6.2916   6.2916   6.5050   6.5050
     7.4877   7.4877   8.0150   8.0150   8.0764   8.0764   9.7826   9.7826
    10.0663  10.0663  11.0788  11.0788  11.9561  11.9561  12.3893  12.3893
    12.8948  12.8948  14.1047  14.1047  14.1476  14.1476  15.9893  15.9893
    16.5645  16.5645  17.1382  17.1382  17.4797  17.4797  17.8700  17.8700
    18.3783  18.3783  18.7345  18.7345  18.8130  18.8130  19.6971  19.6971
    20.2932  20.2932  20.5801  20.5801  21.0431  21.0431  21.8286  21.8286
    22.2177  22.2177  22.4271  22.4273

     occupation numbers 
     1.0000   1.0000   1.0000   1.0000   1.0000   1.0000   1.0000   1.0000
     1.0000   1.0000   1.0000   1.0000   1.0000   1.0000   1.0000   1.0000
     1.0000   1.0000   1.0000   1.0000   1.0000   1.0000   1.0000   1.0000
     1.0000   1.0000   1.0000   1.0000   1.0000   1.0000   1.0000   1.0000
     1.0000   1.0000   1.0000   1.0000   1.0000   1.0000   1.0000   1.0000
     1.0000   1.0000   1.0000   1.0000   1.0000   1.0000   1.0000   1.0000
     1.0000   1.0000   1.0000   1.0000   1.0000   1.0000   1.0000   1.0000
     1.0000   1.0000   1.0000   1.0000   1.0000   1.0000   1.0000   1.0000
     1.0000   1.0000   1.0000   1.0000   1.0000   1.0000   1.0000   1.0000
     1.0000   1.0000   1.0000   1.0000   1.0000   1.0000  -0.0000  -0.0000
    -0.0000  -0.0000  -0.0000  -0.0000  -0.0000  -0.0000  -0.0000  -0.0000
    -0.0000  -0.0000  -0.0000  -0.0000  -0.0000  -0.0000  -0.0000  -0.0000
    -0.0000  -0.0000  -0.0000  -0.0000  -0.0000  -0.0000  -0.0000  -0.0000
    -0.0000  -0.0000  -0.0000  -0.0000  -0.0000  -0.0000  -0.0000  -0.0000
    -0.0000  -0.0000  -0.0000  -0.0000  -0.0000  -0.0000  -0.0000  -0.0000
    -0.0000  -0.0000  -0.0000  -0.0000

          k =-0.7431 0.4849 0.3339 (  9894 PWs)   bands (ev):

   -39.2441 -39.2441 -39.2436 -39.2436 -39.2411 -39.2411 -39.2404 -39.2404
   -39.0326 -39.0326 -38.9929 -38.9929 -38.3507 -38.3507 -38.3501 -38.3501
   -38.3481 -38.3481 -38.3476 -38.3476 -38.3466 -38.3466 -38.3459 -38.3459
   -38.1411 -38.1411 -38.1241 -38.1241 -38.0897 -38.0897 -15.7537 -15.7537
   -15.7535 -15.7535 -15.7440 -15.7439 -15.7429 -15.7429 -12.7810 -12.7810
   -12.7786 -12.7786 -12.7649 -12.7649 -12.7632 -12.7632 -12.7548 -12.7548
   -12.7522 -12.7522  -4.4815  -4.4815  -4.0798  -4.0798  -3.5433  -3.5433
    -1.2926  -1.2926  -0.9439  -0.9439   3.9247   3.9247   5.0341   5.0341
     5.5891   5.5891   5.8579   5.8579   6.3316   6.3316   6.6505   6.6505
     7.2116   7.2116   7.3254   7.3254   7.5459   7.5459   9.9420   9.9420
    10.8007  10.8007  11.1958  11.1958  11.8458  11.8458  12.3031  12.3031
    12.8478  12.8478  13.1596  13.1596  15.4223  15.4223  16.4612  16.4612
    16.8242  16.8242  17.0987  17.0987  17.4984  17.4984  17.8230  17.8230
    18.5893  18.5893  19.0565  19.0565  19.5083  19.5083  20.1389  20.1389
    20.4611  20.4611  20.8935  20.8935  21.7425  21.7425  22.0667  22.0667
    22.8774  22.8775  23.1781  23.1782

     occupation numbers 
     1.0000   1.0000   1.0000   1.0000   1.0000   1.0000   1.0000   1.0000
     1.0000   1.0000   1.0000   1.0000   1.0000   1.0000   1.0000   1.0000
     1.0000   1.0000   1.0000   1.0000   1.0000   1.0000   1.0000   1.0000
     1.0000   1.0000   1.0000   1.0000   1.0000   1.0000   1.0000   1.0000
     1.0000   1.0000   1.0000   1.0000   1.0000   1.0000   1.0000   1.0000
     1.0000   1.0000   1.0000   1.0000   1.0000   1.0000   1.0000   1.0000
     1.0000   1.0000   1.0000   1.0000   1.0000   1.0000   1.0000   1.0000
     1.0000   1.0000   1.0000   1.0000   1.0000   1.0000   1.0000   1.0000
     1.0000   1.0000   1.0000   1.0000   1.0000   1.0000   1.0000   1.0000
     1.0000   1.0000   1.0000   1.0000   1.0000   1.0000  -0.0000  -0.0000
    -0.0000  -0.0000  -0.0000  -0.0000  -0.0000  -0.0000  -0.0000  -0.0000
    -0.0000  -0.0000  -0.0000  -0.0000  -0.0000  -0.0000  -0.0000  -0.0000
    -0.0000  -0.0000  -0.0000  -0.0000  -0.0000  -0.0000  -0.0000  -0.0000
    -0.0000  -0.0000  -0.0000  -0.0000  -0.0000  -0.0000  -0.0000  -0.0000
    -0.0000  -0.0000  -0.0000  -0.0000  -0.0000  -0.0000  -0.0000  -0.0000
    -0.0000  -0.0000  -0.0000  -0.0000

          k = 1.1142 1.5904-0.5028 (  9871 PWs)   bands (ev):

   -39.2434 -39.2434 -39.2431 -39.2431 -39.2408 -39.2408 -39.2405 -39.2405
   -39.0324 -39.0324 -38.9923 -38.9923 -38.3499 -38.3499 -38.3495 -38.3495
   -38.3477 -38.3477 -38.3475 -38.3475 -38.3463 -38.3463 -38.3460 -38.3460
   -38.1410 -38.1410 -38.1239 -38.1239 -38.0890 -38.0890 -15.7536 -15.7536
   -15.7512 -15.7512 -15.7442 -15.7442 -15.7432 -15.7432 -12.7805 -12.7805
   -12.7769 -12.7769 -12.7658 -12.7658 -12.7638 -12.7638 -12.7535 -12.7535
   -12.7516 -12.7516  -3.9676  -3.9676  -3.7463  -3.7463  -3.4767  -3.4767
    -1.6524  -1.6524  -1.4255  -1.4255   3.8654   3.8654   4.7018   4.7018
     4.9104   4.9104   5.2884   5.2884   5.6519   5.6519   6.0307   6.0307
     7.2918   7.2918   7.9445   7.9445   8.1336   8.1336   9.7560   9.7560
    10.2975  10.2975  11.2441  11.2441  12.1937  12.1937  12.8702  12.8702
    13.3982  13.3982  13.5358  13.5358  15.6363  15.6363  16.1464  16.1464
    16.7490  16.7490  17.1030  17.1030  17.7398  17.7398  19.1734  19.1734
    19.2513  19.2513  19.6895  19.6895  20.4362  20.4362  20.5643  20.5643
    20.9386  20.9386  21.1722  21.1722  21.5840  21.5840  22.2175  22.2175
    22.4226  22.4226  22.9987  22.9994

     occupation numbers 
     1.0000   1.0000   1.0000   1.0000   1.0000   1.0000   1.0000   1.0000
     1.0000   1.0000   1.0000   1.0000   1.0000   1.0000   1.0000   1.0000
     1.0000   1.0000   1.0000   1.0000   1.0000   1.0000   1.0000   1.0000
     1.0000   1.0000   1.0000   1.0000   1.0000   1.0000   1.0000   1.0000
     1.0000   1.0000   1.0000   1.0000   1.0000   1.0000   1.0000   1.0000
     1.0000   1.0000   1.0000   1.0000   1.0000   1.0000   1.0000   1.0000
     1.0000   1.0000   1.0000   1.0000   1.0000   1.0000   1.0000   1.0000
     1.0000   1.0000   1.0000   1.0000   1.0000   1.0000   1.0000   1.0000
     1.0000   1.0000   1.0000   1.0000   1.0000   1.0000   1.0000   1.0000
     1.0000   1.0000   1.0000   1.0000   1.0000   1.0000  -0.0000  -0.0000
    -0.0000  -0.0000  -0.0000  -0.0000  -0.0000  -0.0000  -0.0000  -0.0000
    -0.0000  -0.0000  -0.0000  -0.0000  -0.0000  -0.0000  -0.0000  -0.0000
    -0.0000  -0.0000  -0.0000  -0.0000  -0.0000  -0.0000  -0.0000  -0.0000
    -0.0000  -0.0000  -0.0000  -0.0000  -0.0000  -0.0000  -0.0000  -0.0000
    -0.0000  -0.0000  -0.0000  -0.0000  -0.0000  -0.0000  -0.0000  -0.0000
    -0.0000  -0.0000  -0.0000  -0.0000

          k = 0.7428 1.3693-0.3354 (  9886 PWs)   bands (ev):

   -39.2437 -39.2437 -39.2436 -39.2436 -39.2407 -39.2407 -39.2405 -39.2405
   -39.0324 -39.0324 -38.9927 -38.9927 -38.3502 -38.3502 -38.3501 -38.3501
   -38.3478 -38.3478 -38.3477 -38.3477 -38.3462 -38.3462 -38.3459 -38.3459
   -38.1409 -38.1409 -38.1240 -38.1240 -38.0895 -38.0895 -15.7534 -15.7533
   -15.7497 -15.7497 -15.7447 -15.7447 -15.7433 -15.7433 -12.7764 -12.7764
   -12.7743 -12.7743 -12.7691 -12.7691 -12.7650 -12.7650 -12.7531 -12.7531
   -12.7530 -12.7530  -3.5746  -3.5745  -3.5450  -3.5450  -3.4602  -3.4602
    -1.8291  -1.8291  -1.8086  -1.8086   3.8643   3.8643   4.3666   4.3666
     4.6159   4.6159   4.9448   4.9448   5.7266   5.7266   6.0966   6.0966
     7.0107   7.0107   7.5515   7.5515   8.0354   8.0354  10.0378  10.0378
    10.8881  10.8881  11.4954  11.4954  12.5644  12.5644  12.8508  12.8508
    13.3055  13.3055  15.0403  15.0403  15.7294  15.7294  15.8448  15.8448
    16.2340  16.2340  16.3256  16.3256  18.0558  18.0558  18.1167  18.1167
    19.5275  19.5275  19.6011  19.6011  20.0575  20.0575  20.4161  20.4161
    20.8476  20.8476  21.4294  21.4294  22.1724  22.1724  22.5992  22.5992
    22.9215  22.9216  23.5006  23.5007

     occupation numbers 
     1.0000   1.0000   1.0000   1.0000   1.0000   1.0000   1.0000   1.0000
     1.0000   1.0000   1.0000   1.0000   1.0000   1.0000   1.0000   1.0000
     1.0000   1.0000   1.0000   1.0000   1.0000   1.0000   1.0000   1.0000
     1.0000   1.0000   1.0000   1.0000   1.0000   1.0000   1.0000   1.0000
     1.0000   1.0000   1.0000   1.0000   1.0000   1.0000   1.0000   1.0000
     1.0000   1.0000   1.0000   1.0000   1.0000   1.0000   1.0000   1.0000
     1.0000   1.0000   1.0000   1.0000   1.0000   1.0000   1.0000   1.0000
     1.0000   1.0000   1.0000   1.0000   1.0000   1.0000   1.0000   1.0000
     1.0000   1.0000   1.0000   1.0000   1.0000   1.0000   1.0000   1.0000
     1.0000   1.0000   1.0000   1.0000   1.0000   1.0000  -0.0000  -0.0000
    -0.0000  -0.0000  -0.0000  -0.0000  -0.0000  -0.0000  -0.0000  -0.0000
    -0.0000  -0.0000  -0.0000  -0.0000  -0.0000  -0.0000  -0.0000  -0.0000
    -0.0000  -0.0000  -0.0000  -0.0000  -0.0000  -0.0000  -0.0000  -0.0000
    -0.0000  -0.0000  -0.0000  -0.0000  -0.0000  -0.0000  -0.0000  -0.0000
    -0.0000  -0.0000  -0.0000  -0.0000  -0.0000  -0.0000  -0.0000  -0.0000
    -0.0000  -0.0000  -0.0000  -0.0000

          k = 0.3713 1.1482-0.1681 (  9870 PWs)   bands (ev):

   -39.2435 -39.2435 -39.2432 -39.2432 -39.2407 -39.2407 -39.2404 -39.2404
   -39.0323 -39.0323 -38.9924 -38.9924 -38.3499 -38.3499 -38.3497 -38.3497
   -38.3479 -38.3479 -38.3476 -38.3476 -38.3461 -38.3461 -38.3458 -38.3458
   -38.1408 -38.1408 -38.1240 -38.1240 -38.0891 -38.0891 -15.7536 -15.7536
   -15.7512 -15.7512 -15.7442 -15.7442 -15.7432 -15.7432 -12.7805 -12.7805
   -12.7769 -12.7769 -12.7658 -12.7658 -12.7638 -12.7638 -12.7535 -12.7535
   -12.7515 -12.7515  -3.9877  -3.9877  -3.7159  -3.7159  -3.4827  -3.4827
    -1.6720  -1.6720  -1.4095  -1.4095   3.7420   3.7420   4.5821   4.5821
     4.9718   4.9718   5.4945   5.4945   6.0512   6.0512   6.3038   6.3038
     6.8347   6.8347   7.4769   7.4769   7.7371   7.7371  10.3003  10.3003
    10.6284  10.6284  11.5865  11.5865  12.1670  12.1670  12.5182  12.5182
    13.0651  13.0651  13.7143  13.7143  15.2443  15.2443  15.6550  15.6550
    17.1565  17.1565  17.7904  17.7904  18.4634  18.4634  18.7684  18.7684
    19.2110  19.2110  19.4675  19.4675  20.1693  20.1693  20.4511  20.4511
    20.7203  20.7203  21.1766  21.1766  21.5249  21.5249  21.8720  21.8720
    22.1707  22.1707  22.5372  22.5372

     occupation numbers 
     1.0000   1.0000   1.0000   1.0000   1.0000   1.0000   1.0000   1.0000
     1.0000   1.0000   1.0000   1.0000   1.0000   1.0000   1.0000   1.0000
     1.0000   1.0000   1.0000   1.0000   1.0000   1.0000   1.0000   1.0000
     1.0000   1.0000   1.0000   1.0000   1.0000   1.0000   1.0000   1.0000
     1.0000   1.0000   1.0000   1.0000   1.0000   1.0000   1.0000   1.0000
     1.0000   1.0000   1.0000   1.0000   1.0000   1.0000   1.0000   1.0000
     1.0000   1.0000   1.0000   1.0000   1.0000   1.0000   1.0000   1.0000
     1.0000   1.0000   1.0000   1.0000   1.0000   1.0000   1.0000   1.0000
     1.0000   1.0000   1.0000   1.0000   1.0000   1.0000   1.0000   1.0000
     1.0000   1.0000   1.0000   1.0000   1.0000   1.0000  -0.0000  -0.0000
    -0.0000  -0.0000  -0.0000  -0.0000  -0.0000  -0.0000  -0.0000  -0.0000
    -0.0000  -0.0000  -0.0000  -0.0000  -0.0000  -0.0000  -0.0000  -0.0000
    -0.0000  -0.0000  -0.0000  -0.0000  -0.0000  -0.0000  -0.0000  -0.0000
    -0.0000  -0.0000  -0.0000  -0.0000  -0.0000  -0.0000  -0.0000  -0.0000
    -0.0000  -0.0000  -0.0000  -0.0000  -0.0000  -0.0000  -0.0000  -0.0000
    -0.0000  -0.0000  -0.0000  -0.0000

          k = 0.0002-1.3906 0.0011 (  9850 PWs)   bands (ev):

   -39.2431 -39.2431 -39.2431 -39.2431 -39.2404 -39.2404 -39.2401 -39.2401
   -39.0321 -39.0321 -38.9921 -38.9921 -38.3497 -38.3497 -38.3497 -38.3497
   -38.3473 -38.3473 -38.3471 -38.3471 -38.3459 -38.3459 -38.3457 -38.3457
   -38.1407 -38.1407 -38.1235 -38.1235 -38.0889 -38.0889 -15.7527 -15.7527
   -15.7527 -15.7527 -15.7434 -15.7434 -15.7433 -15.7433 -12.7826 -12.7826
   -12.7807 -12.7807 -12.7650 -12.7650 -12.7624 -12.7624 -12.7521 -12.7521
   -12.7490 -12.7490  -3.8340  -3.8340  -3.7218  -3.7218  -3.6424  -3.6424
    -1.7308  -1.7308  -1.3735  -1.3735   3.4970   3.4970   5.1215   5.1215
     5.1490   5.1490   5.7409   5.7409   5.7839   5.7839   6.1221   6.1221
     6.7241   6.7241   7.5482   7.5482   8.1679   8.1679   9.3043   9.3043
    10.7889  10.7889  11.2773  11.2773  11.8769  11.8769  12.5502  12.5502
    13.0049  13.0049  13.3014  13.3014  14.9731  14.9731  17.3584  17.3584
    17.9899  17.9899  18.5758  18.5758  18.8070  18.8070  19.0222  19.0222
    19.4564  19.4564  19.6392  19.6392  20.2305  20.2305  20.3494  20.3494
    20.4900  20.4900  20.9071  20.9071  21.4609  21.4609  21.5413  21.5413
    21.9032  21.9032  22.0708  22.0708

     occupation numbers 
     1.0000   1.0000   1.0000   1.0000   1.0000   1.0000   1.0000   1.0000
     1.0000   1.0000   1.0000   1.0000   1.0000   1.0000   1.0000   1.0000
     1.0000   1.0000   1.0000   1.0000   1.0000   1.0000   1.0000   1.0000
     1.0000   1.0000   1.0000   1.0000   1.0000   1.0000   1.0000   1.0000
     1.0000   1.0000   1.0000   1.0000   1.0000   1.0000   1.0000   1.0000
     1.0000   1.0000   1.0000   1.0000   1.0000   1.0000   1.0000   1.0000
     1.0000   1.0000   1.0000   1.0000   1.0000   1.0000   1.0000   1.0000
     1.0000   1.0000   1.0000   1.0000   1.0000   1.0000   1.0000   1.0000
     1.0000   1.0000   1.0000   1.0000   1.0000   1.0000   1.0000   1.0000
     1.0000   1.0000   1.0000   1.0000   1.0000   1.0000  -0.0000  -0.0000
    -0.0000  -0.0000  -0.0000  -0.0000  -0.0000  -0.0000  -0.0000  -0.0000
    -0.0000  -0.0000  -0.0000  -0.0000  -0.0000  -0.0000  -0.0000  -0.0000
    -0.0000  -0.0000  -0.0000  -0.0000  -0.0000  -0.0000  -0.0000  -0.0000
    -0.0000  -0.0000  -0.0000  -0.0000  -0.0000  -0.0000  -0.0000  -0.0000
    -0.0000  -0.0000  -0.0000  -0.0000  -0.0000  -0.0000  -0.0000  -0.0000
    -0.0000  -0.0000  -0.0000  -0.0000

          k =-0.3712-1.6117 0.1685 (  9884 PWs)   bands (ev):

   -39.2437 -39.2437 -39.2433 -39.2433 -39.2408 -39.2408 -39.2407 -39.2407
   -39.0325 -39.0325 -38.9925 -38.9925 -38.3502 -38.3502 -38.3498 -38.3498
   -38.3480 -38.3480 -38.3478 -38.3478 -38.3462 -38.3462 -38.3461 -38.3461
   -38.1410 -38.1410 -38.1241 -38.1241 -38.0893 -38.0893 -15.7536 -15.7536
   -15.7512 -15.7512 -15.7442 -15.7442 -15.7432 -15.7432 -12.7805 -12.7805
   -12.7769 -12.7769 -12.7658 -12.7658 -12.7638 -12.7638 -12.7535 -12.7535
   -12.7515 -12.7515  -3.9566  -3.9566  -3.7768  -3.7768  -3.4538  -3.4538
    -1.6588  -1.6588  -1.4219  -1.4219   3.8160   3.8160   4.5480   4.5480
     4.9034   4.9034   5.2566   5.2566   6.1601   6.1601   6.5694   6.5694
     7.0585   7.0585   7.1979   7.1979   7.6886   7.6886  10.3162  10.3162
    10.7486  10.7486  11.4326  11.4326  12.0039  12.0039  12.4730  12.4730
    13.2642  13.2642  13.9447  13.9447  14.7728  14.7728  15.6354  15.6354
    17.5737  17.5737  17.8177  17.8177  18.3960  18.3960  19.1057  19.1057
    19.4170  19.4170  19.6330  19.6331  19.7563  19.7563  20.4918  20.4918
    20.7834  20.7834  21.0687  21.0687  21.2298  21.2298  21.5067  21.5067
    21.8311  21.8311  22.6188  22.6189

     occupation numbers 
     1.0000   1.0000   1.0000   1.0000   1.0000   1.0000   1.0000   1.0000
     1.0000   1.0000   1.0000   1.0000   1.0000   1.0000   1.0000   1.0000
     1.0000   1.0000   1.0000   1.0000   1.0000   1.0000   1.0000   1.0000
     1.0000   1.0000   1.0000   1.0000   1.0000   1.0000   1.0000   1.0000
     1.0000   1.0000   1.0000   1.0000   1.0000   1.0000   1.0000   1.0000
     1.0000   1.0000   1.0000   1.0000   1.0000   1.0000   1.0000   1.0000
     1.0000   1.0000   1.0000   1.0000   1.0000   1.0000   1.0000   1.0000
     1.0000   1.0000   1.0000   1.0000   1.0000   1.0000   1.0000   1.0000
     1.0000   1.0000   1.0000   1.0000   1.0000   1.0000   1.0000   1.0000
     1.0000   1.0000   1.0000   1.0000   1.0000   1.0000  -0.0000  -0.0000
    -0.0000  -0.0000  -0.0000  -0.0000  -0.0000  -0.0000  -0.0000  -0.0000
    -0.0000  -0.0000  -0.0000  -0.0000  -0.0000  -0.0000  -0.0000  -0.0000
    -0.0000  -0.0000  -0.0000  -0.0000  -0.0000  -0.0000  -0.0000  -0.0000
    -0.0000  -0.0000  -0.0000  -0.0000  -0.0000  -0.0000  -0.0000  -0.0000
    -0.0000  -0.0000  -0.0000  -0.0000  -0.0000  -0.0000  -0.0000  -0.0000
    -0.0000  -0.0000  -0.0000  -0.0000

          k =-0.7427-1.8328 0.3358 (  9871 PWs)   bands (ev):

   -39.2434 -39.2434 -39.2431 -39.2431 -39.2408 -39.2408 -39.2405 -39.2405
   -39.0324 -39.0324 -38.9923 -38.9923 -38.3499 -38.3499 -38.3495 -38.3495
   -38.3477 -38.3477 -38.3475 -38.3475 -38.3463 -38.3463 -38.3460 -38.3460
   -38.1410 -38.1410 -38.1239 -38.1239 -38.0890 -38.0890 -15.7536 -15.7536
   -15.7512 -15.7512 -15.7442 -15.7442 -15.7432 -15.7432 -12.7805 -12.7805
   -12.7769 -12.7769 -12.7658 -12.7658 -12.7638 -12.7638 -12.7535 -12.7535
   -12.7516 -12.7516  -3.9676  -3.9676  -3.7463  -3.7463  -3.4767  -3.4767
    -1.6524  -1.6524  -1.4255  -1.4255   3.8654   3.8654   4.7018   4.7018
     4.9104   4.9104   5.2884   5.2884   5.6519   5.6519   6.0307   6.0307
     7.2918   7.2918   7.9445   7.9445   8.1336   8.1336   9.7560   9.7560
    10.2975  10.2975  11.2441  11.2441  12.1937  12.1937  12.8702  12.8702
    13.3982  13.3982  13.5358  13.5358  15.6363  15.6363  16.1463  16.1463
    16.7490  16.7490  17.1030  17.1030  17.7398  17.7398  19.1734  19.1734
    19.2513  19.2513  19.6895  19.6895  20.4362  20.4362  20.5643  20.5643
    20.9386  20.9386  21.1722  21.1722  21.5840  21.5840  22.2175  22.2175
    22.4226  22.4226  22.9987  22.9991

     occupation numbers 
     1.0000   1.0000   1.0000   1.0000   1.0000   1.0000   1.0000   1.0000
     1.0000   1.0000   1.0000   1.0000   1.0000   1.0000   1.0000   1.0000
     1.0000   1.0000   1.0000   1.0000   1.0000   1.0000   1.0000   1.0000
     1.0000   1.0000   1.0000   1.0000   1.0000   1.0000   1.0000   1.0000
     1.0000   1.0000   1.0000   1.0000   1.0000   1.0000   1.0000   1.0000
     1.0000   1.0000   1.0000   1.0000   1.0000   1.0000   1.0000   1.0000
     1.0000   1.0000   1.0000   1.0000   1.0000   1.0000   1.0000   1.0000
     1.0000   1.0000   1.0000   1.0000   1.0000   1.0000   1.0000   1.0000
     1.0000   1.0000   1.0000   1.0000   1.0000   1.0000   1.0000   1.0000
     1.0000   1.0000   1.0000   1.0000   1.0000   1.0000  -0.0000  -0.0000
    -0.0000  -0.0000  -0.0000  -0.0000  -0.0000  -0.0000  -0.0000  -0.0000
    -0.0000  -0.0000  -0.0000  -0.0000  -0.0000  -0.0000  -0.0000  -0.0000
    -0.0000  -0.0000  -0.0000  -0.0000  -0.0000  -0.0000  -0.0000  -0.0000
    -0.0000  -0.0000  -0.0000  -0.0000  -0.0000  -0.0000  -0.0000  -0.0000
    -0.0000  -0.0000  -0.0000  -0.0000  -0.0000  -0.0000  -0.0000  -0.0000
    -0.0000  -0.0000  -0.0000  -0.0000

          k = 1.1146-0.7274-0.5009 (  9892 PWs)   bands (ev):

   -39.2436 -39.2436 -39.2434 -39.2434 -39.2410 -39.2410 -39.2409 -39.2409
   -39.0327 -39.0327 -38.9926 -38.9926 -38.3502 -38.3502 -38.3498 -38.3498
   -38.3479 -38.3479 -38.3479 -38.3479 -38.3464 -38.3464 -38.3464 -38.3464
   -38.1412 -38.1412 -38.1242 -38.1242 -38.0892 -38.0892 -15.7527 -15.7527
   -15.7527 -15.7527 -15.7434 -15.7434 -15.7433 -15.7433 -12.7826 -12.7826
   -12.7808 -12.7808 -12.7649 -12.7649 -12.7625 -12.7625 -12.7521 -12.7521
   -12.7490 -12.7490  -3.8396  -3.8396  -3.7108  -3.7108  -3.6428  -3.6428
    -1.7981  -1.7981  -1.3061  -1.3061   3.7579   3.7579   4.5588   4.5588
     4.9047   4.9047   5.5619   5.5619   6.0429   6.0429   6.9092   6.9092
     6.9844   6.9844   7.2468   7.2468   7.7716   7.7716   9.7418   9.7418
    10.7105  10.7105  11.0925  11.0925  11.5160  11.5160  12.5098  12.5098
    12.8055  12.8055  13.8980  13.8980  15.6007  15.6007  16.2276  16.2276
    17.6914  17.6914  18.2207  18.2207  19.0800  19.0800  19.2567  19.2567
    19.3025  19.3025  19.8079  19.8079  20.6975  20.6975  20.7739  20.7739
    20.7994  20.7994  20.9800  20.9800  21.3839  21.3839  21.5502  21.5503
    21.6345  21.6345  22.7297  22.7301

     occupation numbers 
     1.0000   1.0000   1.0000   1.0000   1.0000   1.0000   1.0000   1.0000
     1.0000   1.0000   1.0000   1.0000   1.0000   1.0000   1.0000   1.0000
     1.0000   1.0000   1.0000   1.0000   1.0000   1.0000   1.0000   1.0000
     1.0000   1.0000   1.0000   1.0000   1.0000   1.0000   1.0000   1.0000
     1.0000   1.0000   1.0000   1.0000   1.0000   1.0000   1.0000   1.0000
     1.0000   1.0000   1.0000   1.0000   1.0000   1.0000   1.0000   1.0000
     1.0000   1.0000   1.0000   1.0000   1.0000   1.0000   1.0000   1.0000
     1.0000   1.0000   1.0000   1.0000   1.0000   1.0000   1.0000   1.0000
     1.0000   1.0000   1.0000   1.0000   1.0000   1.0000   1.0000   1.0000
     1.0000   1.0000   1.0000   1.0000   1.0000   1.0000  -0.0000  -0.0000
    -0.0000  -0.0000  -0.0000  -0.0000  -0.0000  -0.0000  -0.0000  -0.0000
    -0.0000  -0.0000  -0.0000  -0.0000  -0.0000  -0.0000  -0.0000  -0.0000
    -0.0000  -0.0000  -0.0000  -0.0000  -0.0000  -0.0000  -0.0000  -0.0000
    -0.0000  -0.0000  -0.0000  -0.0000  -0.0000  -0.0000  -0.0000  -0.0000
    -0.0000  -0.0000  -0.0000  -0.0000  -0.0000  -0.0000  -0.0000  -0.0000
    -0.0000  -0.0000  -0.0000  -0.0000

          k = 0.7432-0.9484-0.3336 (  9871 PWs)   bands (ev):

   -39.2434 -39.2434 -39.2431 -39.2431 -39.2408 -39.2408 -39.2405 -39.2405
   -39.0324 -39.0324 -38.9923 -38.9923 -38.3499 -38.3499 -38.3495 -38.3495
   -38.3477 -38.3477 -38.3475 -38.3475 -38.3463 -38.3463 -38.3460 -38.3460
   -38.1410 -38.1410 -38.1239 -38.1239 -38.0890 -38.0890 -15.7536 -15.7536
   -15.7512 -15.7512 -15.7442 -15.7442 -15.7432 -15.7432 -12.7805 -12.7805
   -12.7769 -12.7769 -12.7658 -12.7658 -12.7638 -12.7638 -12.7535 -12.7535
   -12.7516 -12.7516  -3.9676  -3.9676  -3.7463  -3.7463  -3.4767  -3.4767
    -1.6524  -1.6524  -1.4255  -1.4255   3.8654   3.8654   4.7018   4.7018
     4.9104   4.9104   5.2884   5.2884   5.6519   5.6519   6.0307   6.0307
     7.2918   7.2918   7.9445   7.9445   8.1336   8.1336   9.7560   9.7560
    10.2975  10.2975  11.2441  11.2441  12.1937  12.1937  12.8702  12.8702
    13.3982  13.3982  13.5358  13.5358  15.6363  15.6363  16.1463  16.1463
    16.7490  16.7490  17.1030  17.1030  17.7398  17.7398  19.1734  19.1734
    19.2513  19.2513  19.6895  19.6895  20.4362  20.4362  20.5643  20.5643
    20.9386  20.9386  21.1722  21.1722  21.5840  21.5840  22.2175  22.2175
    22.4226  22.4226  22.9988  22.9990

     occupation numbers 
     1.0000   1.0000   1.0000   1.0000   1.0000   1.0000   1.0000   1.0000
     1.0000   1.0000   1.0000   1.0000   1.0000   1.0000   1.0000   1.0000
     1.0000   1.0000   1.0000   1.0000   1.0000   1.0000   1.0000   1.0000
     1.0000   1.0000   1.0000   1.0000   1.0000   1.0000   1.0000   1.0000
     1.0000   1.0000   1.0000   1.0000   1.0000   1.0000   1.0000   1.0000
     1.0000   1.0000   1.0000   1.0000   1.0000   1.0000   1.0000   1.0000
     1.0000   1.0000   1.0000   1.0000   1.0000   1.0000   1.0000   1.0000
     1.0000   1.0000   1.0000   1.0000   1.0000   1.0000   1.0000   1.0000
     1.0000   1.0000   1.0000   1.0000   1.0000   1.0000   1.0000   1.0000
     1.0000   1.0000   1.0000   1.0000   1.0000   1.0000  -0.0000  -0.0000
    -0.0000  -0.0000  -0.0000  -0.0000  -0.0000  -0.0000  -0.0000  -0.0000
    -0.0000  -0.0000  -0.0000  -0.0000  -0.0000  -0.0000  -0.0000  -0.0000
    -0.0000  -0.0000  -0.0000  -0.0000  -0.0000  -0.0000  -0.0000  -0.0000
    -0.0000  -0.0000  -0.0000  -0.0000  -0.0000  -0.0000  -0.0000  -0.0000
    -0.0000  -0.0000  -0.0000  -0.0000  -0.0000  -0.0000  -0.0000  -0.0000
    -0.0000  -0.0000  -0.0000  -0.0000

          k = 0.3717-1.1695-0.1662 (  9884 PWs)   bands (ev):

   -39.2437 -39.2437 -39.2433 -39.2433 -39.2408 -39.2408 -39.2407 -39.2407
   -39.0325 -39.0325 -38.9925 -38.9925 -38.3502 -38.3502 -38.3498 -38.3498
   -38.3480 -38.3480 -38.3478 -38.3478 -38.3462 -38.3462 -38.3461 -38.3461
   -38.1410 -38.1410 -38.1241 -38.1241 -38.0893 -38.0893 -15.7536 -15.7536
   -15.7512 -15.7512 -15.7442 -15.7442 -15.7432 -15.7432 -12.7805 -12.7805
   -12.7769 -12.7769 -12.7658 -12.7658 -12.7638 -12.7638 -12.7535 -12.7535
   -12.7515 -12.7515  -3.9566  -3.9566  -3.7768  -3.7768  -3.4538  -3.4538
    -1.6588  -1.6588  -1.4219  -1.4219   3.8160   3.8160   4.5480   4.5480
     4.9034   4.9034   5.2566   5.2566   6.1601   6.1601   6.5694   6.5694
     7.0585   7.0585   7.1979   7.1979   7.6886   7.6886  10.3162  10.3162
    10.7486  10.7486  11.4326  11.4326  12.0039  12.0039  12.4730  12.4730
    13.2642  13.2642  13.9447  13.9447  14.7728  14.7728  15.6354  15.6354
    17.5737  17.5737  17.8177  17.8177  18.3960  18.3960  19.1057  19.1057
    19.4170  19.4170  19.6330  19.6331  19.7563  19.7563  20.4918  20.4918
    20.7834  20.7834  21.0687  21.0687  21.2298  21.2298  21.5067  21.5067
    21.8311  21.8311  22.6188  22.6189

     occupation numbers 
     1.0000   1.0000   1.0000   1.0000   1.0000   1.0000   1.0000   1.0000
     1.0000   1.0000   1.0000   1.0000   1.0000   1.0000   1.0000   1.0000
     1.0000   1.0000   1.0000   1.0000   1.0000   1.0000   1.0000   1.0000
     1.0000   1.0000   1.0000   1.0000   1.0000   1.0000   1.0000   1.0000
     1.0000   1.0000   1.0000   1.0000   1.0000   1.0000   1.0000   1.0000
     1.0000   1.0000   1.0000   1.0000   1.0000   1.0000   1.0000   1.0000
     1.0000   1.0000   1.0000   1.0000   1.0000   1.0000   1.0000   1.0000
     1.0000   1.0000   1.0000   1.0000   1.0000   1.0000   1.0000   1.0000
     1.0000   1.0000   1.0000   1.0000   1.0000   1.0000   1.0000   1.0000
     1.0000   1.0000   1.0000   1.0000   1.0000   1.0000  -0.0000  -0.0000
    -0.0000  -0.0000  -0.0000  -0.0000  -0.0000  -0.0000  -0.0000  -0.0000
    -0.0000  -0.0000  -0.0000  -0.0000  -0.0000  -0.0000  -0.0000  -0.0000
    -0.0000  -0.0000  -0.0000  -0.0000  -0.0000  -0.0000  -0.0000  -0.0000
    -0.0000  -0.0000  -0.0000  -0.0000  -0.0000  -0.0000  -0.0000  -0.0000
    -0.0000  -0.0000  -0.0000  -0.0000  -0.0000  -0.0000  -0.0000  -0.0000
    -0.0000  -0.0000  -0.0000  -0.0000

          k = 0.0002-0.9271 0.0007 (  9889 PWs)   bands (ev):

   -39.2442 -39.2442 -39.2433 -39.2433 -39.2410 -39.2410 -39.2404 -39.2404
   -39.0324 -39.0324 -38.9928 -38.9928 -38.3508 -38.3508 -38.3499 -38.3499
   -38.3481 -38.3481 -38.3475 -38.3475 -38.3465 -38.3465 -38.3459 -38.3459
   -38.1410 -38.1410 -38.1240 -38.1240 -38.0897 -38.0897 -15.7537 -15.7537
   -15.7535 -15.7535 -15.7440 -15.7439 -15.7429 -15.7429 -12.7810 -12.7810
   -12.7786 -12.7786 -12.7649 -12.7649 -12.7631 -12.7631 -12.7549 -12.7549
   -12.7521 -12.7521  -4.4943  -4.4943  -4.0606  -4.0606  -3.5415  -3.5415
    -1.3684  -1.3684  -0.8753  -0.8753   4.0512   4.0512   5.0315   5.0315
     5.3207   5.3207   5.9358   5.9358   6.0417   6.0417   6.5515   6.5515
     7.2978   7.2978   7.5756   7.5756   8.1619   8.1619   9.4224   9.4224
    10.6641  10.6641  11.0360  11.0360  11.6239  11.6239  12.5333  12.5333
    13.1496  13.1496  13.2656  13.2656  15.2988  15.2988  15.9637  15.9637
    17.3943  17.3943  17.4700  17.4700  17.7146  17.7146  18.0189  18.0189
    18.5449  18.5449  19.4325  19.4325  19.5829  19.5829  19.6698  19.6698
    20.0003  20.0003  20.2541  20.2541  21.2021  21.2021  22.2180  22.2180
    22.4231  22.4231  22.7869  22.7869

     occupation numbers 
     1.0000   1.0000   1.0000   1.0000   1.0000   1.0000   1.0000   1.0000
     1.0000   1.0000   1.0000   1.0000   1.0000   1.0000   1.0000   1.0000
     1.0000   1.0000   1.0000   1.0000   1.0000   1.0000   1.0000   1.0000
     1.0000   1.0000   1.0000   1.0000   1.0000   1.0000   1.0000   1.0000
     1.0000   1.0000   1.0000   1.0000   1.0000   1.0000   1.0000   1.0000
     1.0000   1.0000   1.0000   1.0000   1.0000   1.0000   1.0000   1.0000
     1.0000   1.0000   1.0000   1.0000   1.0000   1.0000   1.0000   1.0000
     1.0000   1.0000   1.0000   1.0000   1.0000   1.0000   1.0000   1.0000
     1.0000   1.0000   1.0000   1.0000   1.0000   1.0000   1.0000   1.0000
     1.0000   1.0000   1.0000   1.0000   1.0000   1.0000  -0.0000  -0.0000
    -0.0000  -0.0000  -0.0000  -0.0000  -0.0000  -0.0000  -0.0000  -0.0000
    -0.0000  -0.0000  -0.0000  -0.0000  -0.0000  -0.0000  -0.0000  -0.0000
    -0.0000  -0.0000  -0.0000  -0.0000  -0.0000  -0.0000  -0.0000  -0.0000
    -0.0000  -0.0000  -0.0000  -0.0000  -0.0000  -0.0000  -0.0000  -0.0000
    -0.0000  -0.0000  -0.0000  -0.0000  -0.0000  -0.0000  -0.0000  -0.0000
    -0.0000  -0.0000  -0.0000  -0.0000

          k =-0.3713-1.1482 0.1681 (  9870 PWs)   bands (ev):

   -39.2435 -39.2435 -39.2432 -39.2432 -39.2407 -39.2407 -39.2404 -39.2404
   -39.0323 -39.0323 -38.9924 -38.9924 -38.3499 -38.3499 -38.3497 -38.3497
   -38.3479 -38.3479 -38.3476 -38.3476 -38.3461 -38.3461 -38.3458 -38.3458
   -38.1408 -38.1408 -38.1240 -38.1240 -38.0891 -38.0891 -15.7536 -15.7536
   -15.7512 -15.7512 -15.7442 -15.7442 -15.7432 -15.7432 -12.7805 -12.7805
   -12.7769 -12.7769 -12.7658 -12.7658 -12.7638 -12.7638 -12.7535 -12.7535
   -12.7515 -12.7515  -3.9877  -3.9877  -3.7159  -3.7159  -3.4827  -3.4827
    -1.6720  -1.6720  -1.4095  -1.4095   3.7420   3.7420   4.5821   4.5821
     4.9718   4.9718   5.4945   5.4945   6.0512   6.0512   6.3038   6.3038
     6.8347   6.8347   7.4769   7.4769   7.7371   7.7371  10.3003  10.3003
    10.6284  10.6284  11.5865  11.5865  12.1670  12.1670  12.5182  12.5182
    13.0651  13.0651  13.7143  13.7143  15.2443  15.2443  15.6550  15.6550
    17.1565  17.1565  17.7904  17.7904  18.4634  18.4634  18.7684  18.7684
    19.2110  19.2110  19.4675  19.4675  20.1693  20.1693  20.4511  20.4511
    20.7203  20.7203  21.1766  21.1766  21.5249  21.5249  21.8720  21.8720
    22.1707  22.1707  22.5371  22.5372

     occupation numbers 
     1.0000   1.0000   1.0000   1.0000   1.0000   1.0000   1.0000   1.0000
     1.0000   1.0000   1.0000   1.0000   1.0000   1.0000   1.0000   1.0000
     1.0000   1.0000   1.0000   1.0000   1.0000   1.0000   1.0000   1.0000
     1.0000   1.0000   1.0000   1.0000   1.0000   1.0000   1.0000   1.0000
     1.0000   1.0000   1.0000   1.0000   1.0000   1.0000   1.0000   1.0000
     1.0000   1.0000   1.0000   1.0000   1.0000   1.0000   1.0000   1.0000
     1.0000   1.0000   1.0000   1.0000   1.0000   1.0000   1.0000   1.0000
     1.0000   1.0000   1.0000   1.0000   1.0000   1.0000   1.0000   1.0000
     1.0000   1.0000   1.0000   1.0000   1.0000   1.0000   1.0000   1.0000
     1.0000   1.0000   1.0000   1.0000   1.0000   1.0000  -0.0000  -0.0000
    -0.0000  -0.0000  -0.0000  -0.0000  -0.0000  -0.0000  -0.0000  -0.0000
    -0.0000  -0.0000  -0.0000  -0.0000  -0.0000  -0.0000  -0.0000  -0.0000
    -0.0000  -0.0000  -0.0000  -0.0000  -0.0000  -0.0000  -0.0000  -0.0000
    -0.0000  -0.0000  -0.0000  -0.0000  -0.0000  -0.0000  -0.0000  -0.0000
    -0.0000  -0.0000  -0.0000  -0.0000  -0.0000  -0.0000  -0.0000  -0.0000
    -0.0000  -0.0000  -0.0000  -0.0000

          k =-0.7428-1.3693 0.3354 (  9886 PWs)   bands (ev):

   -39.2437 -39.2437 -39.2436 -39.2436 -39.2407 -39.2407 -39.2405 -39.2405
   -39.0324 -39.0324 -38.9927 -38.9927 -38.3502 -38.3502 -38.3501 -38.3501
   -38.3478 -38.3478 -38.3477 -38.3477 -38.3462 -38.3462 -38.3459 -38.3459
   -38.1409 -38.1409 -38.1240 -38.1240 -38.0895 -38.0895 -15.7534 -15.7533
   -15.7497 -15.7497 -15.7447 -15.7447 -15.7433 -15.7433 -12.7764 -12.7764
   -12.7743 -12.7743 -12.7691 -12.7691 -12.7650 -12.7650 -12.7531 -12.7531
   -12.7530 -12.7530  -3.5746  -3.5745  -3.5450  -3.5450  -3.4602  -3.4602
    -1.8291  -1.8291  -1.8086  -1.8086   3.8643   3.8643   4.3666   4.3666
     4.6159   4.6159   4.9448   4.9448   5.7266   5.7266   6.0966   6.0966
     7.0107   7.0107   7.5515   7.5515   8.0354   8.0354  10.0378  10.0378
    10.8881  10.8881  11.4954  11.4954  12.5644  12.5644  12.8508  12.8508
    13.3055  13.3055  15.0403  15.0403  15.7294  15.7294  15.8448  15.8448
    16.2340  16.2340  16.3256  16.3256  18.0558  18.0558  18.1167  18.1167
    19.5275  19.5275  19.6011  19.6011  20.0575  20.0575  20.4161  20.4161
    20.8476  20.8476  21.4294  21.4294  22.1724  22.1724  22.5992  22.5992
    22.9215  22.9216  23.5007  23.5008

     occupation numbers 
     1.0000   1.0000   1.0000   1.0000   1.0000   1.0000   1.0000   1.0000
     1.0000   1.0000   1.0000   1.0000   1.0000   1.0000   1.0000   1.0000
     1.0000   1.0000   1.0000   1.0000   1.0000   1.0000   1.0000   1.0000
     1.0000   1.0000   1.0000   1.0000   1.0000   1.0000   1.0000   1.0000
     1.0000   1.0000   1.0000   1.0000   1.0000   1.0000   1.0000   1.0000
     1.0000   1.0000   1.0000   1.0000   1.0000   1.0000   1.0000   1.0000
     1.0000   1.0000   1.0000   1.0000   1.0000   1.0000   1.0000   1.0000
     1.0000   1.0000   1.0000   1.0000   1.0000   1.0000   1.0000   1.0000
     1.0000   1.0000   1.0000   1.0000   1.0000   1.0000   1.0000   1.0000
     1.0000   1.0000   1.0000   1.0000   1.0000   1.0000  -0.0000  -0.0000
    -0.0000  -0.0000  -0.0000  -0.0000  -0.0000  -0.0000  -0.0000  -0.0000
    -0.0000  -0.0000  -0.0000  -0.0000  -0.0000  -0.0000  -0.0000  -0.0000
    -0.0000  -0.0000  -0.0000  -0.0000  -0.0000  -0.0000  -0.0000  -0.0000
    -0.0000  -0.0000  -0.0000  -0.0000  -0.0000  -0.0000  -0.0000  -0.0000
    -0.0000  -0.0000  -0.0000  -0.0000  -0.0000  -0.0000  -0.0000  -0.0000
    -0.0000  -0.0000  -0.0000  -0.0000

          k = 1.1146-0.2638-0.5013 (  9871 PWs)   bands (ev):

   -39.2434 -39.2434 -39.2431 -39.2431 -39.2408 -39.2408 -39.2405 -39.2405
   -39.0324 -39.0324 -38.9923 -38.9923 -38.3499 -38.3499 -38.3495 -38.3495
   -38.3477 -38.3477 -38.3475 -38.3475 -38.3463 -38.3463 -38.3460 -38.3460
   -38.1410 -38.1410 -38.1239 -38.1239 -38.0890 -38.0890 -15.7536 -15.7536
   -15.7512 -15.7512 -15.7442 -15.7442 -15.7432 -15.7432 -12.7805 -12.7805
   -12.7769 -12.7769 -12.7658 -12.7658 -12.7638 -12.7638 -12.7535 -12.7535
   -12.7516 -12.7516  -3.9676  -3.9676  -3.7463  -3.7463  -3.4767  -3.4767
    -1.6524  -1.6524  -1.4255  -1.4255   3.8654   3.8654   4.7018   4.7018
     4.9104   4.9104   5.2884   5.2884   5.6519   5.6519   6.0307   6.0307
     7.2918   7.2918   7.9445   7.9445   8.1336   8.1336   9.7560   9.7560
    10.2975  10.2975  11.2441  11.2441  12.1937  12.1937  12.8702  12.8702
    13.3982  13.3982  13.5358  13.5358  15.6363  15.6363  16.1464  16.1464
    16.7490  16.7490  17.1030  17.1030  17.7398  17.7398  19.1734  19.1734
    19.2513  19.2513  19.6895  19.6895  20.4362  20.4362  20.5643  20.5643
    20.9386  20.9386  21.1722  21.1722  21.5840  21.5840  22.2175  22.2175
    22.4226  22.4226  22.9987  22.9991

     occupation numbers 
     1.0000   1.0000   1.0000   1.0000   1.0000   1.0000   1.0000   1.0000
     1.0000   1.0000   1.0000   1.0000   1.0000   1.0000   1.0000   1.0000
     1.0000   1.0000   1.0000   1.0000   1.0000   1.0000   1.0000   1.0000
     1.0000   1.0000   1.0000   1.0000   1.0000   1.0000   1.0000   1.0000
     1.0000   1.0000   1.0000   1.0000   1.0000   1.0000   1.0000   1.0000
     1.0000   1.0000   1.0000   1.0000   1.0000   1.0000   1.0000   1.0000
     1.0000   1.0000   1.0000   1.0000   1.0000   1.0000   1.0000   1.0000
     1.0000   1.0000   1.0000   1.0000   1.0000   1.0000   1.0000   1.0000
     1.0000   1.0000   1.0000   1.0000   1.0000   1.0000   1.0000   1.0000
     1.0000   1.0000   1.0000   1.0000   1.0000   1.0000  -0.0000  -0.0000
    -0.0000  -0.0000  -0.0000  -0.0000  -0.0000  -0.0000  -0.0000  -0.0000
    -0.0000  -0.0000  -0.0000  -0.0000  -0.0000  -0.0000  -0.0000  -0.0000
    -0.0000  -0.0000  -0.0000  -0.0000  -0.0000  -0.0000  -0.0000  -0.0000
    -0.0000  -0.0000  -0.0000  -0.0000  -0.0000  -0.0000  -0.0000  -0.0000
    -0.0000  -0.0000  -0.0000  -0.0000  -0.0000  -0.0000  -0.0000  -0.0000
    -0.0000  -0.0000  -0.0000  -0.0000

          k = 0.7431-0.4849-0.3339 (  9894 PWs)   bands (ev):

   -39.2441 -39.2441 -39.2436 -39.2436 -39.2411 -39.2411 -39.2404 -39.2404
   -39.0326 -39.0326 -38.9929 -38.9929 -38.3507 -38.3507 -38.3501 -38.3501
   -38.3481 -38.3481 -38.3476 -38.3476 -38.3466 -38.3466 -38.3459 -38.3459
   -38.1411 -38.1411 -38.1241 -38.1241 -38.0897 -38.0897 -15.7537 -15.7537
   -15.7535 -15.7535 -15.7440 -15.7439 -15.7429 -15.7429 -12.7810 -12.7810
   -12.7786 -12.7786 -12.7649 -12.7649 -12.7632 -12.7632 -12.7548 -12.7548
   -12.7522 -12.7522  -4.4815  -4.4815  -4.0798  -4.0798  -3.5433  -3.5433
    -1.2926  -1.2926  -0.9439  -0.9439   3.9247   3.9247   5.0341   5.0341
     5.5891   5.5891   5.8579   5.8579   6.3316   6.3316   6.6505   6.6505
     7.2116   7.2116   7.3254   7.3254   7.5459   7.5459   9.9420   9.9420
    10.8007  10.8007  11.1958  11.1958  11.8458  11.8458  12.3031  12.3031
    12.8478  12.8478  13.1596  13.1596  15.4223  15.4223  16.4612  16.4612
    16.8242  16.8242  17.0987  17.0987  17.4984  17.4984  17.8230  17.8230
    18.5893  18.5893  19.0565  19.0565  19.5083  19.5083  20.1389  20.1389
    20.4611  20.4611  20.8935  20.8935  21.7425  21.7425  22.0667  22.0667
    22.8774  22.8775  23.1781  23.1781

     occupation numbers 
     1.0000   1.0000   1.0000   1.0000   1.0000   1.0000   1.0000   1.0000
     1.0000   1.0000   1.0000   1.0000   1.0000   1.0000   1.0000   1.0000
     1.0000   1.0000   1.0000   1.0000   1.0000   1.0000   1.0000   1.0000
     1.0000   1.0000   1.0000   1.0000   1.0000   1.0000   1.0000   1.0000
     1.0000   1.0000   1.0000   1.0000   1.0000   1.0000   1.0000   1.0000
     1.0000   1.0000   1.0000   1.0000   1.0000   1.0000   1.0000   1.0000
     1.0000   1.0000   1.0000   1.0000   1.0000   1.0000   1.0000   1.0000
     1.0000   1.0000   1.0000   1.0000   1.0000   1.0000   1.0000   1.0000
     1.0000   1.0000   1.0000   1.0000   1.0000   1.0000   1.0000   1.0000
     1.0000   1.0000   1.0000   1.0000   1.0000   1.0000  -0.0000  -0.0000
    -0.0000  -0.0000  -0.0000  -0.0000  -0.0000  -0.0000  -0.0000  -0.0000
    -0.0000  -0.0000  -0.0000  -0.0000  -0.0000  -0.0000  -0.0000  -0.0000
    -0.0000  -0.0000  -0.0000  -0.0000  -0.0000  -0.0000  -0.0000  -0.0000
    -0.0000  -0.0000  -0.0000  -0.0000  -0.0000  -0.0000  -0.0000  -0.0000
    -0.0000  -0.0000  -0.0000  -0.0000  -0.0000  -0.0000  -0.0000  -0.0000
    -0.0000  -0.0000  -0.0000  -0.0000

          k = 0.3716-0.7060-0.1666 (  9901 PWs)   bands (ev):

   -39.2441 -39.2441 -39.2438 -39.2438 -39.2411 -39.2411 -39.2405 -39.2405
   -39.0326 -39.0326 -38.9930 -38.9930 -38.3506 -38.3506 -38.3505 -38.3505
   -38.3481 -38.3481 -38.3476 -38.3476 -38.3466 -38.3466 -38.3461 -38.3461
   -38.1412 -38.1412 -38.1241 -38.1241 -38.0899 -38.0899 -15.7546 -15.7546
   -15.7533 -15.7533 -15.7441 -15.7441 -15.7429 -15.7429 -12.7802 -12.7802
   -12.7765 -12.7765 -12.7647 -12.7647 -12.7636 -12.7636 -12.7564 -12.7564
   -12.7546 -12.7546  -4.6853  -4.6853  -4.2181  -4.2181  -3.5783  -3.5783
    -1.1447  -1.1447  -0.7390  -0.7390   4.5284   4.5284   4.9959   4.9959
     5.3056   5.3056   5.8756   5.8756   6.2916   6.2916   6.5050   6.5050
     7.4877   7.4877   8.0150   8.0150   8.0764   8.0764   9.7826   9.7826
    10.0663  10.0663  11.0788  11.0788  11.9561  11.9561  12.3893  12.3893
    12.8948  12.8948  14.1047  14.1047  14.1476  14.1476  15.9893  15.9893
    16.5645  16.5645  17.1382  17.1382  17.4797  17.4797  17.8700  17.8700
    18.3783  18.3783  18.7345  18.7345  18.8130  18.8130  19.6971  19.6971
    20.2932  20.2932  20.5801  20.5801  21.0431  21.0431  21.8286  21.8286
    22.2177  22.2177  22.4271  22.4272

     occupation numbers 
     1.0000   1.0000   1.0000   1.0000   1.0000   1.0000   1.0000   1.0000
     1.0000   1.0000   1.0000   1.0000   1.0000   1.0000   1.0000   1.0000
     1.0000   1.0000   1.0000   1.0000   1.0000   1.0000   1.0000   1.0000
     1.0000   1.0000   1.0000   1.0000   1.0000   1.0000   1.0000   1.0000
     1.0000   1.0000   1.0000   1.0000   1.0000   1.0000   1.0000   1.0000
     1.0000   1.0000   1.0000   1.0000   1.0000   1.0000   1.0000   1.0000
     1.0000   1.0000   1.0000   1.0000   1.0000   1.0000   1.0000   1.0000
     1.0000   1.0000   1.0000   1.0000   1.0000   1.0000   1.0000   1.0000
     1.0000   1.0000   1.0000   1.0000   1.0000   1.0000   1.0000   1.0000
     1.0000   1.0000   1.0000   1.0000   1.0000   1.0000  -0.0000  -0.0000
    -0.0000  -0.0000  -0.0000  -0.0000  -0.0000  -0.0000  -0.0000  -0.0000
    -0.0000  -0.0000  -0.0000  -0.0000  -0.0000  -0.0000  -0.0000  -0.0000
    -0.0000  -0.0000  -0.0000  -0.0000  -0.0000  -0.0000  -0.0000  -0.0000
    -0.0000  -0.0000  -0.0000  -0.0000  -0.0000  -0.0000  -0.0000  -0.0000
    -0.0000  -0.0000  -0.0000  -0.0000  -0.0000  -0.0000  -0.0000  -0.0000
    -0.0000  -0.0000  -0.0000  -0.0000

          k = 0.0001-0.4635 0.0004 (  9920 PWs)   bands (ev):

   -39.2444 -39.2444 -39.2438 -39.2438 -39.2411 -39.2411 -39.2406 -39.2406
   -39.0327 -39.0327 -38.9931 -38.9931 -38.3511 -38.3511 -38.3505 -38.3505
   -38.3482 -38.3482 -38.3476 -38.3476 -38.3467 -38.3467 -38.3463 -38.3463
   -38.1413 -38.1413 -38.1241 -38.1241 -38.0901 -38.0901 -15.7557 -15.7557
   -15.7555 -15.7555 -15.7441 -15.7441 -15.7426 -15.7426 -12.7804 -12.7804
   -12.7786 -12.7785 -12.7628 -12.7628 -12.7624 -12.7624 -12.7588 -12.7588
   -12.7568 -12.7568  -5.1384  -5.1384  -4.5264  -4.5264  -3.7979  -3.7979
    -0.8405  -0.8405  -0.1998  -0.1998   5.3179   5.3179   5.5562   5.5562
     6.0055   6.0055   6.5021   6.5021   6.7613   6.7613   7.3920   7.3920
     7.5966   7.5966   7.7105   7.7105   8.0782   8.0782   9.5318   9.5318
     9.8340   9.8340  10.9629  10.9629  11.2120  11.2120  11.7854  11.7854
    12.2861  12.2861  14.0457  14.0457  14.9051  14.9051  16.1258  16.1258
    16.2489  16.2489  16.6187  16.6187  16.8137  16.8137  17.0892  17.0892
    17.5216  17.5216  18.5075  18.5075  18.6343  18.6343  18.9716  18.9716
    19.4621  19.4621  19.6165  19.6165  19.7210  19.7210  20.2593  20.2593
    20.5735  20.5735  21.0669  21.0671

     occupation numbers 
     1.0000   1.0000   1.0000   1.0000   1.0000   1.0000   1.0000   1.0000
     1.0000   1.0000   1.0000   1.0000   1.0000   1.0000   1.0000   1.0000
     1.0000   1.0000   1.0000   1.0000   1.0000   1.0000   1.0000   1.0000
     1.0000   1.0000   1.0000   1.0000   1.0000   1.0000   1.0000   1.0000
     1.0000   1.0000   1.0000   1.0000   1.0000   1.0000   1.0000   1.0000
     1.0000   1.0000   1.0000   1.0000   1.0000   1.0000   1.0000   1.0000
     1.0000   1.0000   1.0000   1.0000   1.0000   1.0000   1.0000   1.0000
     1.0000   1.0000   1.0000   1.0000   1.0000   1.0000   1.0000   1.0000
     1.0000   1.0000   1.0000   1.0000   1.0000   1.0000   1.0000   1.0000
     1.0000   1.0000   1.0000   1.0000   1.0000   1.0000  -0.0000  -0.0000
    -0.0000  -0.0000  -0.0000  -0.0000  -0.0000  -0.0000  -0.0000  -0.0000
    -0.0000  -0.0000  -0.0000  -0.0000  -0.0000  -0.0000  -0.0000  -0.0000
    -0.0000  -0.0000  -0.0000  -0.0000  -0.0000  -0.0000  -0.0000  -0.0000
    -0.0000  -0.0000  -0.0000  -0.0000  -0.0000  -0.0000  -0.0000  -0.0000
    -0.0000  -0.0000  -0.0000  -0.0000  -0.0000  -0.0000  -0.0000  -0.0000
    -0.0000  -0.0000  -0.0000  -0.0000

          k =-0.3714-0.6846 0.1677 (  9885 PWs)   bands (ev):

   -39.2439 -39.2439 -39.2435 -39.2435 -39.2407 -39.2407 -39.2406 -39.2406
   -39.0324 -39.0324 -38.9927 -38.9927 -38.3505 -38.3505 -38.3500 -38.3500
   -38.3478 -38.3478 -38.3476 -38.3476 -38.3463 -38.3463 -38.3461 -38.3461
   -38.1410 -38.1410 -38.1240 -38.1240 -38.0896 -38.0896 -15.7546 -15.7546
   -15.7533 -15.7533 -15.7442 -15.7441 -15.7429 -15.7429 -12.7802 -12.7802
   -12.7765 -12.7765 -12.7647 -12.7647 -12.7636 -12.7636 -12.7564 -12.7564
   -12.7546 -12.7546  -4.7066  -4.7066  -4.1580  -4.1580  -3.6257  -3.6257
    -1.1155  -1.1155  -0.7598  -0.7598   4.5699   4.5699   4.9869   4.9869
     5.3463   5.3463   5.7905   5.7905   6.3113   6.3113   6.3517   6.3517
     7.6356   7.6356   8.0966   8.0966   8.1167   8.1167   9.6755   9.6755
    10.0113  10.0113  10.9738  10.9738  12.0068  12.0068  12.4694  12.4694
    12.9610  12.9611  14.0491  14.0491  14.0707  14.0707  16.5147  16.5147
    16.9182  16.9182  17.0983  17.0983  17.2354  17.2354  17.3906  17.3906
    18.3031  18.3031  18.4650  18.4650  18.7079  18.7079  19.4409  19.4409
    20.4401  20.4401  21.0313  21.0313  21.3742  21.3742  21.6311  21.6311
    22.2241  22.2241  22.3027  22.3027

     occupation numbers 
     1.0000   1.0000   1.0000   1.0000   1.0000   1.0000   1.0000   1.0000
     1.0000   1.0000   1.0000   1.0000   1.0000   1.0000   1.0000   1.0000
     1.0000   1.0000   1.0000   1.0000   1.0000   1.0000   1.0000   1.0000
     1.0000   1.0000   1.0000   1.0000   1.0000   1.0000   1.0000   1.0000
     1.0000   1.0000   1.0000   1.0000   1.0000   1.0000   1.0000   1.0000
     1.0000   1.0000   1.0000   1.0000   1.0000   1.0000   1.0000   1.0000
     1.0000   1.0000   1.0000   1.0000   1.0000   1.0000   1.0000   1.0000
     1.0000   1.0000   1.0000   1.0000   1.0000   1.0000   1.0000   1.0000
     1.0000   1.0000   1.0000   1.0000   1.0000   1.0000   1.0000   1.0000
     1.0000   1.0000   1.0000   1.0000   1.0000   1.0000  -0.0000  -0.0000
    -0.0000  -0.0000  -0.0000  -0.0000  -0.0000  -0.0000  -0.0000  -0.0000
    -0.0000  -0.0000  -0.0000  -0.0000  -0.0000  -0.0000  -0.0000  -0.0000
    -0.0000  -0.0000  -0.0000  -0.0000  -0.0000  -0.0000  -0.0000  -0.0000
    -0.0000  -0.0000  -0.0000  -0.0000  -0.0000  -0.0000  -0.0000  -0.0000
    -0.0000  -0.0000  -0.0000  -0.0000  -0.0000  -0.0000  -0.0000  -0.0000
    -0.0000  -0.0000  -0.0000  -0.0000

          k =-0.7429-0.9057 0.3351 (  9870 PWs)   bands (ev):

   -39.2435 -39.2435 -39.2432 -39.2432 -39.2407 -39.2407 -39.2404 -39.2404
   -39.0323 -39.0323 -38.9924 -38.9924 -38.3499 -38.3499 -38.3497 -38.3497
   -38.3479 -38.3479 -38.3476 -38.3476 -38.3461 -38.3461 -38.3458 -38.3458
   -38.1408 -38.1408 -38.1240 -38.1240 -38.0891 -38.0891 -15.7536 -15.7536
   -15.7512 -15.7512 -15.7442 -15.7442 -15.7432 -15.7432 -12.7805 -12.7805
   -12.7769 -12.7769 -12.7658 -12.7658 -12.7638 -12.7638 -12.7535 -12.7535
   -12.7515 -12.7515  -3.9877  -3.9877  -3.7159  -3.7159  -3.4827  -3.4827
    -1.6720  -1.6720  -1.4095  -1.4095   3.7420   3.7420   4.5821   4.5821
     4.9718   4.9718   5.4945   5.4945   6.0512   6.0512   6.3038   6.3038
     6.8347   6.8347   7.4769   7.4769   7.7371   7.7371  10.3003  10.3003
    10.6284  10.6284  11.5865  11.5865  12.1670  12.1670  12.5182  12.5182
    13.0651  13.0651  13.7143  13.7143  15.2443  15.2443  15.6550  15.6550
    17.1565  17.1565  17.7904  17.7904  18.4634  18.4634  18.7684  18.7684
    19.2110  19.2110  19.4675  19.4675  20.1693  20.1693  20.4511  20.4511
    20.7203  20.7203  21.1766  21.1766  21.5249  21.5249  21.8720  21.8720
    22.1707  22.1707  22.5371  22.5371

     occupation numbers 
     1.0000   1.0000   1.0000   1.0000   1.0000   1.0000   1.0000   1.0000
     1.0000   1.0000   1.0000   1.0000   1.0000   1.0000   1.0000   1.0000
     1.0000   1.0000   1.0000   1.0000   1.0000   1.0000   1.0000   1.0000
     1.0000   1.0000   1.0000   1.0000   1.0000   1.0000   1.0000   1.0000
     1.0000   1.0000   1.0000   1.0000   1.0000   1.0000   1.0000   1.0000
     1.0000   1.0000   1.0000   1.0000   1.0000   1.0000   1.0000   1.0000
     1.0000   1.0000   1.0000   1.0000   1.0000   1.0000   1.0000   1.0000
     1.0000   1.0000   1.0000   1.0000   1.0000   1.0000   1.0000   1.0000
     1.0000   1.0000   1.0000   1.0000   1.0000   1.0000   1.0000   1.0000
     1.0000   1.0000   1.0000   1.0000   1.0000   1.0000  -0.0000  -0.0000
    -0.0000  -0.0000  -0.0000  -0.0000  -0.0000  -0.0000  -0.0000  -0.0000
    -0.0000  -0.0000  -0.0000  -0.0000  -0.0000  -0.0000  -0.0000  -0.0000
    -0.0000  -0.0000  -0.0000  -0.0000  -0.0000  -0.0000  -0.0000  -0.0000
    -0.0000  -0.0000  -0.0000  -0.0000  -0.0000  -0.0000  -0.0000  -0.0000
    -0.0000  -0.0000  -0.0000  -0.0000  -0.0000  -0.0000  -0.0000  -0.0000
    -0.0000  -0.0000  -0.0000  -0.0000

          k = 1.1145 0.1997-0.5017 (  9884 PWs)   bands (ev):

   -39.2437 -39.2437 -39.2433 -39.2433 -39.2408 -39.2408 -39.2407 -39.2407
   -39.0325 -39.0325 -38.9925 -38.9925 -38.3502 -38.3502 -38.3498 -38.3498
   -38.3480 -38.3480 -38.3478 -38.3478 -38.3462 -38.3462 -38.3461 -38.3461
   -38.1410 -38.1410 -38.1241 -38.1241 -38.0893 -38.0893 -15.7536 -15.7536
   -15.7512 -15.7512 -15.7442 -15.7442 -15.7432 -15.7432 -12.7805 -12.7805
   -12.7769 -12.7769 -12.7658 -12.7658 -12.7638 -12.7638 -12.7535 -12.7535
   -12.7515 -12.7515  -3.9566  -3.9566  -3.7768  -3.7768  -3.4538  -3.4538
    -1.6588  -1.6588  -1.4218  -1.4218   3.8160   3.8160   4.5480   4.5480
     4.9034   4.9034   5.2566   5.2566   6.1601   6.1601   6.5694   6.5694
     7.0585   7.0585   7.1979   7.1979   7.6886   7.6886  10.3162  10.3162
    10.7486  10.7486  11.4326  11.4326  12.0039  12.0039  12.4730  12.4730
    13.2642  13.2642  13.9447  13.9447  14.7728  14.7728  15.6354  15.6354
    17.5737  17.5737  17.8177  17.8177  18.3960  18.3960  19.1057  19.1057
    19.4170  19.4170  19.6330  19.6331  19.7563  19.7563  20.4918  20.4918
    20.7834  20.7834  21.0687  21.0687  21.2298  21.2298  21.5067  21.5067
    21.8311  21.8311  22.6188  22.6189

     occupation numbers 
     1.0000   1.0000   1.0000   1.0000   1.0000   1.0000   1.0000   1.0000
     1.0000   1.0000   1.0000   1.0000   1.0000   1.0000   1.0000   1.0000
     1.0000   1.0000   1.0000   1.0000   1.0000   1.0000   1.0000   1.0000
     1.0000   1.0000   1.0000   1.0000   1.0000   1.0000   1.0000   1.0000
     1.0000   1.0000   1.0000   1.0000   1.0000   1.0000   1.0000   1.0000
     1.0000   1.0000   1.0000   1.0000   1.0000   1.0000   1.0000   1.0000
     1.0000   1.0000   1.0000   1.0000   1.0000   1.0000   1.0000   1.0000
     1.0000   1.0000   1.0000   1.0000   1.0000   1.0000   1.0000   1.0000
     1.0000   1.0000   1.0000   1.0000   1.0000   1.0000   1.0000   1.0000
     1.0000   1.0000   1.0000   1.0000   1.0000   1.0000  -0.0000  -0.0000
    -0.0000  -0.0000  -0.0000  -0.0000  -0.0000  -0.0000  -0.0000  -0.0000
    -0.0000  -0.0000  -0.0000  -0.0000  -0.0000  -0.0000  -0.0000  -0.0000
    -0.0000  -0.0000  -0.0000  -0.0000  -0.0000  -0.0000  -0.0000  -0.0000
    -0.0000  -0.0000  -0.0000  -0.0000  -0.0000  -0.0000  -0.0000  -0.0000
    -0.0000  -0.0000  -0.0000  -0.0000  -0.0000  -0.0000  -0.0000  -0.0000
    -0.0000  -0.0000  -0.0000  -0.0000

          k = 0.7430-0.0214-0.3343 (  9901 PWs)   bands (ev):

   -39.2441 -39.2441 -39.2438 -39.2438 -39.2411 -39.2411 -39.2405 -39.2405
   -39.0326 -39.0326 -38.9930 -38.9930 -38.3506 -38.3506 -38.3505 -38.3505
   -38.3481 -38.3481 -38.3476 -38.3476 -38.3466 -38.3466 -38.3461 -38.3461
   -38.1412 -38.1412 -38.1241 -38.1241 -38.0899 -38.0899 -15.7546 -15.7546
   -15.7533 -15.7533 -15.7441 -15.7441 -15.7429 -15.7429 -12.7802 -12.7802
   -12.7765 -12.7765 -12.7647 -12.7647 -12.7636 -12.7636 -12.7564 -12.7564
   -12.7546 -12.7546  -4.6853  -4.6853  -4.2181  -4.2181  -3.5783  -3.5783
    -1.1447  -1.1447  -0.7390  -0.7390   4.5284   4.5284   4.9959   4.9959
     5.3056   5.3056   5.8756   5.8756   6.2916   6.2916   6.5050   6.5050
     7.4877   7.4877   8.0150   8.0150   8.0764   8.0764   9.7826   9.7826
    10.0663  10.0663  11.0788  11.0788  11.9561  11.9561  12.3893  12.3893
    12.8948  12.8948  14.1047  14.1047  14.1476  14.1476  15.9893  15.9893
    16.5645  16.5645  17.1382  17.1382  17.4797  17.4797  17.8700  17.8700
    18.3783  18.3783  18.7345  18.7345  18.8130  18.8130  19.6971  19.6971
    20.2932  20.2932  20.5801  20.5801  21.0431  21.0431  21.8286  21.8286
    22.2177  22.2177  22.4272  22.4272

     occupation numbers 
     1.0000   1.0000   1.0000   1.0000   1.0000   1.0000   1.0000   1.0000
     1.0000   1.0000   1.0000   1.0000   1.0000   1.0000   1.0000   1.0000
     1.0000   1.0000   1.0000   1.0000   1.0000   1.0000   1.0000   1.0000
     1.0000   1.0000   1.0000   1.0000   1.0000   1.0000   1.0000   1.0000
     1.0000   1.0000   1.0000   1.0000   1.0000   1.0000   1.0000   1.0000
     1.0000   1.0000   1.0000   1.0000   1.0000   1.0000   1.0000   1.0000
     1.0000   1.0000   1.0000   1.0000   1.0000   1.0000   1.0000   1.0000
     1.0000   1.0000   1.0000   1.0000   1.0000   1.0000   1.0000   1.0000
     1.0000   1.0000   1.0000   1.0000   1.0000   1.0000   1.0000   1.0000
     1.0000   1.0000   1.0000   1.0000   1.0000   1.0000  -0.0000  -0.0000
    -0.0000  -0.0000  -0.0000  -0.0000  -0.0000  -0.0000  -0.0000  -0.0000
    -0.0000  -0.0000  -0.0000  -0.0000  -0.0000  -0.0000  -0.0000  -0.0000
    -0.0000  -0.0000  -0.0000  -0.0000  -0.0000  -0.0000  -0.0000  -0.0000
    -0.0000  -0.0000  -0.0000  -0.0000  -0.0000  -0.0000  -0.0000  -0.0000
    -0.0000  -0.0000  -0.0000  -0.0000  -0.0000  -0.0000  -0.0000  -0.0000
    -0.0000  -0.0000  -0.0000  -0.0000

          k = 0.3715-0.2425-0.1670 (  9921 PWs)   bands (ev):

   -39.2445 -39.2445 -39.2439 -39.2439 -39.2412 -39.2412 -39.2405 -39.2405
   -39.0327 -39.0327 -38.9932 -38.9932 -38.3511 -38.3511 -38.3506 -38.3506
   -38.3482 -38.3482 -38.3477 -38.3477 -38.3469 -38.3469 -38.3461 -38.3461
   -38.1413 -38.1413 -38.1242 -38.1242 -38.0902 -38.0902 -15.7557 -15.7557
   -15.7555 -15.7555 -15.7441 -15.7441 -15.7426 -15.7426 -12.7804 -12.7804
   -12.7785 -12.7785 -12.7628 -12.7628 -12.7625 -12.7625 -12.7588 -12.7588
   -12.7569 -12.7569  -5.1312  -5.1312  -4.5470  -4.5470  -3.7805  -3.7805
    -0.8456  -0.8456  -0.2021  -0.2021   5.2718   5.2718   5.6924   5.6924
     5.9785   5.9785   6.4728   6.4728   6.8006   6.8006   7.2219   7.2219
     7.4953   7.4953   7.9047   7.9047   8.1100   8.1100   9.5141   9.5141
     9.7765   9.7765  10.8767  10.8767  11.2223  11.2223  11.9240  11.9240
    12.3418  12.3418  14.1733  14.1733  14.8006  14.8006  15.9963  15.9963
    16.1542  16.1542  16.5591  16.5591  17.1327  17.1327  17.2529  17.2529
    17.4613  17.4613  18.2386  18.2386  18.3655  18.3655  18.7051  18.7051
    18.9963  18.9963  19.7444  19.7444  20.0025  20.0025  20.4338  20.4338
    20.9650  20.9651  21.5089  21.5096

     occupation numbers 
     1.0000   1.0000   1.0000   1.0000   1.0000   1.0000   1.0000   1.0000
     1.0000   1.0000   1.0000   1.0000   1.0000   1.0000   1.0000   1.0000
     1.0000   1.0000   1.0000   1.0000   1.0000   1.0000   1.0000   1.0000
     1.0000   1.0000   1.0000   1.0000   1.0000   1.0000   1.0000   1.0000
     1.0000   1.0000   1.0000   1.0000   1.0000   1.0000   1.0000   1.0000
     1.0000   1.0000   1.0000   1.0000   1.0000   1.0000   1.0000   1.0000
     1.0000   1.0000   1.0000   1.0000   1.0000   1.0000   1.0000   1.0000
     1.0000   1.0000   1.0000   1.0000   1.0000   1.0000   1.0000   1.0000
     1.0000   1.0000   1.0000   1.0000   1.0000   1.0000   1.0000   1.0000
     1.0000   1.0000   1.0000   1.0000   1.0000   1.0000  -0.0000  -0.0000
    -0.0000  -0.0000  -0.0000  -0.0000  -0.0000  -0.0000  -0.0000  -0.0000
    -0.0000  -0.0000  -0.0000  -0.0000  -0.0000  -0.0000  -0.0000  -0.0000
    -0.0000  -0.0000  -0.0000  -0.0000  -0.0000  -0.0000  -0.0000  -0.0000
    -0.0000  -0.0000  -0.0000  -0.0000  -0.0000  -0.0000  -0.0000  -0.0000
    -0.0000  -0.0000  -0.0000  -0.0000  -0.0000  -0.0000  -0.0000  -0.0000
    -0.0000  -0.0000  -0.0000  -0.0000

          k = 0.4074-0.2211-0.0004 (  9920 PWs)   bands (ev):

   -39.2444 -39.2444 -39.2438 -39.2438 -39.2411 -39.2411 -39.2406 -39.2406
   -39.0327 -39.0327 -38.9931 -38.9931 -38.3511 -38.3511 -38.3505 -38.3505
   -38.3482 -38.3482 -38.3476 -38.3476 -38.3467 -38.3467 -38.3463 -38.3463
   -38.1413 -38.1413 -38.1241 -38.1241 -38.0901 -38.0901 -15.7557 -15.7557
   -15.7555 -15.7555 -15.7441 -15.7441 -15.7426 -15.7426 -12.7804 -12.7804
   -12.7786 -12.7785 -12.7628 -12.7628 -12.7624 -12.7624 -12.7588 -12.7588
   -12.7568 -12.7568  -5.1384  -5.1384  -4.5264  -4.5264  -3.7979  -3.7979
    -0.8405  -0.8405  -0.1998  -0.1998   5.3179   5.3179   5.5562   5.5562
     6.0055   6.0055   6.5021   6.5021   6.7613   6.7613   7.3920   7.3920
     7.5966   7.5966   7.7105   7.7105   8.0782   8.0782   9.5318   9.5318
     9.8340   9.8340  10.9629  10.9629  11.2120  11.2120  11.7854  11.7854
    12.2861  12.2861  14.0457  14.0457  14.9051  14.9051  16.1258  16.1258
    16.2489  16.2489  16.6187  16.6187  16.8137  16.8137  17.0892  17.0892
    17.5216  17.5216  18.5075  18.5075  18.6343  18.6343  18.9716  18.9716
    19.4621  19.4621  19.6165  19.6165  19.7210  19.7210  20.2593  20.2593
    20.5735  20.5735  21.0670  21.0671

     occupation numbers 
     1.0000   1.0000   1.0000   1.0000   1.0000   1.0000   1.0000   1.0000
     1.0000   1.0000   1.0000   1.0000   1.0000   1.0000   1.0000   1.0000
     1.0000   1.0000   1.0000   1.0000   1.0000   1.0000   1.0000   1.0000
     1.0000   1.0000   1.0000   1.0000   1.0000   1.0000   1.0000   1.0000
     1.0000   1.0000   1.0000   1.0000   1.0000   1.0000   1.0000   1.0000
     1.0000   1.0000   1.0000   1.0000   1.0000   1.0000   1.0000   1.0000
     1.0000   1.0000   1.0000   1.0000   1.0000   1.0000   1.0000   1.0000
     1.0000   1.0000   1.0000   1.0000   1.0000   1.0000   1.0000   1.0000
     1.0000   1.0000   1.0000   1.0000   1.0000   1.0000   1.0000   1.0000
     1.0000   1.0000   1.0000   1.0000   1.0000   1.0000  -0.0000  -0.0000
    -0.0000  -0.0000  -0.0000  -0.0000  -0.0000  -0.0000  -0.0000  -0.0000
    -0.0000  -0.0000  -0.0000  -0.0000  -0.0000  -0.0000  -0.0000  -0.0000
    -0.0000  -0.0000  -0.0000  -0.0000  -0.0000  -0.0000  -0.0000  -0.0000
    -0.0000  -0.0000  -0.0000  -0.0000  -0.0000  -0.0000  -0.0000  -0.0000
    -0.0000  -0.0000  -0.0000  -0.0000  -0.0000  -0.0000  -0.0000  -0.0000
    -0.0000  -0.0000  -0.0000  -0.0000

          k = 0.0360-0.4422 0.1670 (  9921 PWs)   bands (ev):

   -39.2445 -39.2445 -39.2439 -39.2439 -39.2412 -39.2412 -39.2405 -39.2405
   -39.0327 -39.0327 -38.9932 -38.9932 -38.3511 -38.3511 -38.3506 -38.3506
   -38.3482 -38.3482 -38.3477 -38.3477 -38.3469 -38.3469 -38.3461 -38.3461
   -38.1413 -38.1413 -38.1242 -38.1242 -38.0902 -38.0902 -15.7557 -15.7557
   -15.7555 -15.7555 -15.7441 -15.7441 -15.7426 -15.7426 -12.7804 -12.7804
   -12.7785 -12.7785 -12.7628 -12.7628 -12.7625 -12.7625 -12.7588 -12.7588
   -12.7569 -12.7569  -5.1312  -5.1312  -4.5470  -4.5470  -3.7805  -3.7805
    -0.8456  -0.8456  -0.2021  -0.2021   5.2718   5.2718   5.6924   5.6924
     5.9785   5.9785   6.4728   6.4728   6.8006   6.8006   7.2219   7.2219
     7.4953   7.4953   7.9047   7.9047   8.1100   8.1100   9.5141   9.5141
     9.7765   9.7765  10.8767  10.8767  11.2223  11.2223  11.9240  11.9240
    12.3418  12.3418  14.1733  14.1733  14.8006  14.8006  15.9963  15.9963
    16.1542  16.1542  16.5591  16.5591  17.1327  17.1327  17.2529  17.2529
    17.4613  17.4613  18.2386  18.2386  18.3655  18.3655  18.7051  18.7051
    18.9963  18.9963  19.7444  19.7444  20.0025  20.0025  20.4338  20.4338
    20.9650  20.9650  21.5089  21.5091

     occupation numbers 
     1.0000   1.0000   1.0000   1.0000   1.0000   1.0000   1.0000   1.0000
     1.0000   1.0000   1.0000   1.0000   1.0000   1.0000   1.0000   1.0000
     1.0000   1.0000   1.0000   1.0000   1.0000   1.0000   1.0000   1.0000
     1.0000   1.0000   1.0000   1.0000   1.0000   1.0000   1.0000   1.0000
     1.0000   1.0000   1.0000   1.0000   1.0000   1.0000   1.0000   1.0000
     1.0000   1.0000   1.0000   1.0000   1.0000   1.0000   1.0000   1.0000
     1.0000   1.0000   1.0000   1.0000   1.0000   1.0000   1.0000   1.0000
     1.0000   1.0000   1.0000   1.0000   1.0000   1.0000   1.0000   1.0000
     1.0000   1.0000   1.0000   1.0000   1.0000   1.0000   1.0000   1.0000
     1.0000   1.0000   1.0000   1.0000   1.0000   1.0000  -0.0000  -0.0000
    -0.0000  -0.0000  -0.0000  -0.0000  -0.0000  -0.0000  -0.0000  -0.0000
    -0.0000  -0.0000  -0.0000  -0.0000  -0.0000  -0.0000  -0.0000  -0.0000
    -0.0000  -0.0000  -0.0000  -0.0000  -0.0000  -0.0000  -0.0000  -0.0000
    -0.0000  -0.0000  -0.0000  -0.0000  -0.0000  -0.0000  -0.0000  -0.0000
    -0.0000  -0.0000  -0.0000  -0.0000  -0.0000  -0.0000  -0.0000  -0.0000
    -0.0000  -0.0000  -0.0000  -0.0000

          k =-0.3355-0.6633 0.3343 (  9901 PWs)   bands (ev):

   -39.2441 -39.2441 -39.2438 -39.2438 -39.2411 -39.2411 -39.2405 -39.2405
   -39.0326 -39.0326 -38.9930 -38.9930 -38.3506 -38.3506 -38.3505 -38.3505
   -38.3481 -38.3481 -38.3476 -38.3476 -38.3466 -38.3466 -38.3461 -38.3461
   -38.1412 -38.1412 -38.1241 -38.1241 -38.0899 -38.0899 -15.7546 -15.7546
   -15.7533 -15.7533 -15.7441 -15.7441 -15.7429 -15.7429 -12.7802 -12.7802
   -12.7765 -12.7765 -12.7647 -12.7647 -12.7636 -12.7636 -12.7564 -12.7564
   -12.7546 -12.7546  -4.6853  -4.6853  -4.2181  -4.2181  -3.5783  -3.5783
    -1.1447  -1.1447  -0.7390  -0.7390   4.5284   4.5284   4.9959   4.9959
     5.3056   5.3056   5.8756   5.8756   6.2916   6.2916   6.5050   6.5050
     7.4877   7.4877   8.0150   8.0150   8.0764   8.0764   9.7826   9.7826
    10.0663  10.0663  11.0788  11.0788  11.9561  11.9561  12.3893  12.3893
    12.8948  12.8948  14.1047  14.1047  14.1476  14.1476  15.9893  15.9893
    16.5645  16.5645  17.1382  17.1382  17.4797  17.4797  17.8700  17.8700
    18.3783  18.3783  18.7345  18.7345  18.8130  18.8130  19.6971  19.6971
    20.2932  20.2932  20.5801  20.5801  21.0431  21.0431  21.8286  21.8286
    22.2177  22.2177  22.4271  22.4271

     occupation numbers 
     1.0000   1.0000   1.0000   1.0000   1.0000   1.0000   1.0000   1.0000
     1.0000   1.0000   1.0000   1.0000   1.0000   1.0000   1.0000   1.0000
     1.0000   1.0000   1.0000   1.0000   1.0000   1.0000   1.0000   1.0000
     1.0000   1.0000   1.0000   1.0000   1.0000   1.0000   1.0000   1.0000
     1.0000   1.0000   1.0000   1.0000   1.0000   1.0000   1.0000   1.0000
     1.0000   1.0000   1.0000   1.0000   1.0000   1.0000   1.0000   1.0000
     1.0000   1.0000   1.0000   1.0000   1.0000   1.0000   1.0000   1.0000
     1.0000   1.0000   1.0000   1.0000   1.0000   1.0000   1.0000   1.0000
     1.0000   1.0000   1.0000   1.0000   1.0000   1.0000   1.0000   1.0000
     1.0000   1.0000   1.0000   1.0000   1.0000   1.0000  -0.0000  -0.0000
    -0.0000  -0.0000  -0.0000  -0.0000  -0.0000  -0.0000  -0.0000  -0.0000
    -0.0000  -0.0000  -0.0000  -0.0000  -0.0000  -0.0000  -0.0000  -0.0000
    -0.0000  -0.0000  -0.0000  -0.0000  -0.0000  -0.0000  -0.0000  -0.0000
    -0.0000  -0.0000  -0.0000  -0.0000  -0.0000  -0.0000  -0.0000  -0.0000
    -0.0000  -0.0000  -0.0000  -0.0000  -0.0000  -0.0000  -0.0000  -0.0000
    -0.0000  -0.0000  -0.0000  -0.0000

          k = 1.5218 0.4422-0.5024 (  9884 PWs)   bands (ev):

   -39.2437 -39.2437 -39.2433 -39.2433 -39.2408 -39.2408 -39.2407 -39.2407
   -39.0325 -39.0325 -38.9925 -38.9925 -38.3502 -38.3502 -38.3498 -38.3498
   -38.3480 -38.3480 -38.3478 -38.3478 -38.3462 -38.3462 -38.3461 -38.3461
   -38.1410 -38.1410 -38.1241 -38.1241 -38.0893 -38.0893 -15.7536 -15.7536
   -15.7512 -15.7512 -15.7442 -15.7442 -15.7432 -15.7432 -12.7805 -12.7805
   -12.7769 -12.7769 -12.7658 -12.7658 -12.7638 -12.7638 -12.7535 -12.7535
   -12.7515 -12.7515  -3.9566  -3.9566  -3.7768  -3.7768  -3.4538  -3.4538
    -1.6588  -1.6588  -1.4218  -1.4218   3.8160   3.8160   4.5480   4.5480
     4.9034   4.9034   5.2566   5.2566   6.1601   6.1601   6.5694   6.5694
     7.0585   7.0585   7.1979   7.1979   7.6886   7.6886  10.3162  10.3162
    10.7486  10.7486  11.4326  11.4326  12.0039  12.0039  12.4730  12.4730
    13.2642  13.2642  13.9447  13.9447  14.7728  14.7728  15.6354  15.6354
    17.5737  17.5737  17.8177  17.8177  18.3960  18.3960  19.1057  19.1057
    19.4170  19.4170  19.6330  19.6331  19.7563  19.7563  20.4918  20.4918
    20.7834  20.7834  21.0687  21.0687  21.2298  21.2298  21.5067  21.5067
    21.8311  21.8311  22.6189  22.6189

     occupation numbers 
     1.0000   1.0000   1.0000   1.0000   1.0000   1.0000   1.0000   1.0000
     1.0000   1.0000   1.0000   1.0000   1.0000   1.0000   1.0000   1.0000
     1.0000   1.0000   1.0000   1.0000   1.0000   1.0000   1.0000   1.0000
     1.0000   1.0000   1.0000   1.0000   1.0000   1.0000   1.0000   1.0000
     1.0000   1.0000   1.0000   1.0000   1.0000   1.0000   1.0000   1.0000
     1.0000   1.0000   1.0000   1.0000   1.0000   1.0000   1.0000   1.0000
     1.0000   1.0000   1.0000   1.0000   1.0000   1.0000   1.0000   1.0000
     1.0000   1.0000   1.0000   1.0000   1.0000   1.0000   1.0000   1.0000
     1.0000   1.0000   1.0000   1.0000   1.0000   1.0000   1.0000   1.0000
     1.0000   1.0000   1.0000   1.0000   1.0000   1.0000  -0.0000  -0.0000
    -0.0000  -0.0000  -0.0000  -0.0000  -0.0000  -0.0000  -0.0000  -0.0000
    -0.0000  -0.0000  -0.0000  -0.0000  -0.0000  -0.0000  -0.0000  -0.0000
    -0.0000  -0.0000  -0.0000  -0.0000  -0.0000  -0.0000  -0.0000  -0.0000
    -0.0000  -0.0000  -0.0000  -0.0000  -0.0000  -0.0000  -0.0000  -0.0000
    -0.0000  -0.0000  -0.0000  -0.0000  -0.0000  -0.0000  -0.0000  -0.0000
    -0.0000  -0.0000  -0.0000  -0.0000

          k = 1.1504 0.2211-0.3351 (  9870 PWs)   bands (ev):

   -39.2435 -39.2435 -39.2432 -39.2432 -39.2407 -39.2407 -39.2404 -39.2404
   -39.0323 -39.0323 -38.9924 -38.9924 -38.3499 -38.3499 -38.3497 -38.3497
   -38.3479 -38.3479 -38.3476 -38.3476 -38.3461 -38.3461 -38.3458 -38.3458
   -38.1408 -38.1408 -38.1240 -38.1240 -38.0891 -38.0891 -15.7536 -15.7536
   -15.7512 -15.7512 -15.7442 -15.7442 -15.7432 -15.7432 -12.7805 -12.7805
   -12.7769 -12.7769 -12.7658 -12.7658 -12.7638 -12.7638 -12.7535 -12.7535
   -12.7515 -12.7515  -3.9877  -3.9877  -3.7159  -3.7159  -3.4827  -3.4827
    -1.6720  -1.6720  -1.4095  -1.4095   3.7420   3.7420   4.5821   4.5821
     4.9718   4.9718   5.4945   5.4945   6.0512   6.0512   6.3038   6.3038
     6.8347   6.8347   7.4769   7.4769   7.7371   7.7371  10.3003  10.3003
    10.6284  10.6284  11.5865  11.5865  12.1670  12.1670  12.5182  12.5182
    13.0651  13.0651  13.7143  13.7143  15.2443  15.2443  15.6550  15.6550
    17.1565  17.1565  17.7904  17.7904  18.4634  18.4634  18.7684  18.7684
    19.2110  19.2110  19.4675  19.4675  20.1693  20.1693  20.4511  20.4511
    20.7203  20.7203  21.1766  21.1766  21.5249  21.5249  21.8720  21.8720
    22.1707  22.1707  22.5371  22.5371

     occupation numbers 
     1.0000   1.0000   1.0000   1.0000   1.0000   1.0000   1.0000   1.0000
     1.0000   1.0000   1.0000   1.0000   1.0000   1.0000   1.0000   1.0000
     1.0000   1.0000   1.0000   1.0000   1.0000   1.0000   1.0000   1.0000
     1.0000   1.0000   1.0000   1.0000   1.0000   1.0000   1.0000   1.0000
     1.0000   1.0000   1.0000   1.0000   1.0000   1.0000   1.0000   1.0000
     1.0000   1.0000   1.0000   1.0000   1.0000   1.0000   1.0000   1.0000
     1.0000   1.0000   1.0000   1.0000   1.0000   1.0000   1.0000   1.0000
     1.0000   1.0000   1.0000   1.0000   1.0000   1.0000   1.0000   1.0000
     1.0000   1.0000   1.0000   1.0000   1.0000   1.0000   1.0000   1.0000
     1.0000   1.0000   1.0000   1.0000   1.0000   1.0000  -0.0000  -0.0000
    -0.0000  -0.0000  -0.0000  -0.0000  -0.0000  -0.0000  -0.0000  -0.0000
    -0.0000  -0.0000  -0.0000  -0.0000  -0.0000  -0.0000  -0.0000  -0.0000
    -0.0000  -0.0000  -0.0000  -0.0000  -0.0000  -0.0000  -0.0000  -0.0000
    -0.0000  -0.0000  -0.0000  -0.0000  -0.0000  -0.0000  -0.0000  -0.0000
    -0.0000  -0.0000  -0.0000  -0.0000  -0.0000  -0.0000  -0.0000  -0.0000
    -0.0000  -0.0000  -0.0000  -0.0000

          k = 0.7789-0.0000-0.1677 (  9885 PWs)   bands (ev):

   -39.2439 -39.2439 -39.2435 -39.2435 -39.2407 -39.2407 -39.2406 -39.2406
   -39.0324 -39.0324 -38.9927 -38.9927 -38.3505 -38.3505 -38.3500 -38.3500
   -38.3478 -38.3478 -38.3476 -38.3476 -38.3463 -38.3463 -38.3461 -38.3461
   -38.1410 -38.1410 -38.1240 -38.1240 -38.0896 -38.0896 -15.7546 -15.7546
   -15.7533 -15.7533 -15.7442 -15.7441 -15.7429 -15.7429 -12.7802 -12.7802
   -12.7765 -12.7765 -12.7647 -12.7647 -12.7636 -12.7636 -12.7564 -12.7564
   -12.7546 -12.7546  -4.7066  -4.7066  -4.1580  -4.1580  -3.6257  -3.6257
    -1.1155  -1.1155  -0.7598  -0.7598   4.5699   4.5699   4.9869   4.9869
     5.3463   5.3463   5.7905   5.7905   6.3113   6.3113   6.3517   6.3517
     7.6356   7.6356   8.0966   8.0966   8.1167   8.1167   9.6755   9.6755
    10.0113  10.0113  10.9738  10.9738  12.0068  12.0068  12.4694  12.4694
    12.9610  12.9611  14.0491  14.0491  14.0707  14.0707  16.5147  16.5147
    16.9182  16.9182  17.0983  17.0983  17.2354  17.2354  17.3906  17.3906
    18.3031  18.3031  18.4650  18.4650  18.7079  18.7079  19.4409  19.4409
    20.4401  20.4401  21.0313  21.0313  21.3742  21.3742  21.6311  21.6311
    22.2241  22.2241  22.3027  22.3027

     occupation numbers 
     1.0000   1.0000   1.0000   1.0000   1.0000   1.0000   1.0000   1.0000
     1.0000   1.0000   1.0000   1.0000   1.0000   1.0000   1.0000   1.0000
     1.0000   1.0000   1.0000   1.0000   1.0000   1.0000   1.0000   1.0000
     1.0000   1.0000   1.0000   1.0000   1.0000   1.0000   1.0000   1.0000
     1.0000   1.0000   1.0000   1.0000   1.0000   1.0000   1.0000   1.0000
     1.0000   1.0000   1.0000   1.0000   1.0000   1.0000   1.0000   1.0000
     1.0000   1.0000   1.0000   1.0000   1.0000   1.0000   1.0000   1.0000
     1.0000   1.0000   1.0000   1.0000   1.0000   1.0000   1.0000   1.0000
     1.0000   1.0000   1.0000   1.0000   1.0000   1.0000   1.0000   1.0000
     1.0000   1.0000   1.0000   1.0000   1.0000   1.0000  -0.0000  -0.0000
    -0.0000  -0.0000  -0.0000  -0.0000  -0.0000  -0.0000  -0.0000  -0.0000
    -0.0000  -0.0000  -0.0000  -0.0000  -0.0000  -0.0000  -0.0000  -0.0000
    -0.0000  -0.0000  -0.0000  -0.0000  -0.0000  -0.0000  -0.0000  -0.0000
    -0.0000  -0.0000  -0.0000  -0.0000  -0.0000  -0.0000  -0.0000  -0.0000
    -0.0000  -0.0000  -0.0000  -0.0000  -0.0000  -0.0000  -0.0000  -0.0000
    -0.0000  -0.0000  -0.0000  -0.0000

          k = 0.4073 0.2425-0.0007 (  9921 PWs)   bands (ev):

   -39.2445 -39.2445 -39.2439 -39.2439 -39.2412 -39.2412 -39.2405 -39.2405
   -39.0327 -39.0327 -38.9932 -38.9932 -38.3511 -38.3511 -38.3506 -38.3506
   -38.3482 -38.3482 -38.3477 -38.3477 -38.3469 -38.3469 -38.3461 -38.3461
   -38.1413 -38.1413 -38.1242 -38.1242 -38.0902 -38.0902 -15.7557 -15.7557
   -15.7555 -15.7555 -15.7441 -15.7441 -15.7426 -15.7426 -12.7804 -12.7804
   -12.7785 -12.7785 -12.7628 -12.7628 -12.7625 -12.7625 -12.7588 -12.7588
   -12.7569 -12.7569  -5.1312  -5.1312  -4.5470  -4.5470  -3.7805  -3.7805
    -0.8456  -0.8456  -0.2021  -0.2021   5.2718   5.2718   5.6924   5.6924
     5.9785   5.9785   6.4728   6.4728   6.8006   6.8006   7.2219   7.2219
     7.4953   7.4953   7.9047   7.9047   8.1100   8.1100   9.5141   9.5141
     9.7765   9.7765  10.8767  10.8767  11.2223  11.2223  11.9240  11.9240
    12.3418  12.3418  14.1733  14.1733  14.8006  14.8006  15.9963  15.9963
    16.1542  16.1542  16.5591  16.5591  17.1327  17.1327  17.2529  17.2529
    17.4613  17.4613  18.2386  18.2386  18.3655  18.3655  18.7051  18.7051
    18.9963  18.9963  19.7444  19.7444  20.0025  20.0025  20.4338  20.4338
    20.9650  20.9650  21.5089  21.5094

     occupation numbers 
     1.0000   1.0000   1.0000   1.0000   1.0000   1.0000   1.0000   1.0000
     1.0000   1.0000   1.0000   1.0000   1.0000   1.0000   1.0000   1.0000
     1.0000   1.0000   1.0000   1.0000   1.0000   1.0000   1.0000   1.0000
     1.0000   1.0000   1.0000   1.0000   1.0000   1.0000   1.0000   1.0000
     1.0000   1.0000   1.0000   1.0000   1.0000   1.0000   1.0000   1.0000
     1.0000   1.0000   1.0000   1.0000   1.0000   1.0000   1.0000   1.0000
     1.0000   1.0000   1.0000   1.0000   1.0000   1.0000   1.0000   1.0000
     1.0000   1.0000   1.0000   1.0000   1.0000   1.0000   1.0000   1.0000
     1.0000   1.0000   1.0000   1.0000   1.0000   1.0000   1.0000   1.0000
     1.0000   1.0000   1.0000   1.0000   1.0000   1.0000  -0.0000  -0.0000
    -0.0000  -0.0000  -0.0000  -0.0000  -0.0000  -0.0000  -0.0000  -0.0000
    -0.0000  -0.0000  -0.0000  -0.0000  -0.0000  -0.0000  -0.0000  -0.0000
    -0.0000  -0.0000  -0.0000  -0.0000  -0.0000  -0.0000  -0.0000  -0.0000
    -0.0000  -0.0000  -0.0000  -0.0000  -0.0000  -0.0000  -0.0000  -0.0000
    -0.0000  -0.0000  -0.0000  -0.0000  -0.0000  -0.0000  -0.0000  -0.0000
    -0.0000  -0.0000  -0.0000  -0.0000

          k = 0.0359 0.0214 0.1666 (  9892 PWs)   bands (ev):

   -39.2442 -39.2442 -39.2433 -39.2433 -39.2407 -39.2407 -39.2403 -39.2403
   -39.0322 -39.0322 -38.9928 -38.9928 -38.3508 -38.3508 -38.3498 -38.3498
   -38.3481 -38.3481 -38.3471 -38.3471 -38.3462 -38.3462 -38.3458 -38.3458
   -38.1408 -38.1408 -38.1239 -38.1239 -38.0897 -38.0897 -15.7568 -15.7568
   -15.7566 -15.7566 -15.7439 -15.7439 -15.7425 -15.7425 -12.7820 -12.7820
   -12.7806 -12.7806 -12.7612 -12.7612 -12.7608 -12.7608 -12.7594 -12.7594
   -12.7584 -12.7584  -5.3476  -5.3476  -4.7886  -4.7886  -3.8607  -3.8607
    -0.7936  -0.7936   0.1659   0.1659   6.0456   6.0456   6.4268   6.4268
     6.7880   6.7880   7.1223   7.1223   7.1605   7.1605   7.2976   7.2976
     7.4257   7.4257   7.6815   7.6815   8.3646   8.3646   8.7271   8.7271
     9.8504   9.8504  10.0994  10.0994  10.8596  10.8596  11.5488  11.5488
    12.0219  12.0219  14.7448  14.7448  15.4760  15.4760  15.7130  15.7130
    15.7805  15.7805  16.2961  16.2961  16.8384  16.8384  16.8623  16.8623
    17.0915  17.0915  17.6412  17.6412  17.6712  17.6712  17.9126  17.9126
    19.1276  19.1276  19.4325  19.4325  19.4475  19.4475  19.8727  19.8727
    20.5778  20.5778  20.7051  20.7052

     occupation numbers 
     1.0000   1.0000   1.0000   1.0000   1.0000   1.0000   1.0000   1.0000
     1.0000   1.0000   1.0000   1.0000   1.0000   1.0000   1.0000   1.0000
     1.0000   1.0000   1.0000   1.0000   1.0000   1.0000   1.0000   1.0000
     1.0000   1.0000   1.0000   1.0000   1.0000   1.0000   1.0000   1.0000
     1.0000   1.0000   1.0000   1.0000   1.0000   1.0000   1.0000   1.0000
     1.0000   1.0000   1.0000   1.0000   1.0000   1.0000   1.0000   1.0000
     1.0000   1.0000   1.0000   1.0000   1.0000   1.0000   1.0000   1.0000
     1.0000   1.0000   1.0000   1.0000   1.0000   1.0000   1.0000   1.0000
     1.0000   1.0000   1.0000   1.0000   1.0000   1.0000   1.0000   1.0000
     1.0000   1.0000   1.0000   1.0000   1.0168   1.0168  -0.0152  -0.0152
    -0.0000  -0.0000  -0.0000  -0.0000  -0.0000  -0.0000  -0.0000  -0.0000
    -0.0000  -0.0000  -0.0000  -0.0000  -0.0000  -0.0000  -0.0000  -0.0000
    -0.0000  -0.0000  -0.0000  -0.0000  -0.0000  -0.0000  -0.0000  -0.0000
    -0.0000  -0.0000  -0.0000  -0.0000  -0.0000  -0.0000  -0.0000  -0.0000
    -0.0000  -0.0000  -0.0000  -0.0000  -0.0000  -0.0000  -0.0000  -0.0000
    -0.0000  -0.0000  -0.0000  -0.0000

          k =-0.3356-0.1997 0.3339 (  9930 PWs)   bands (ev):

   -39.2446 -39.2446 -39.2441 -39.2441 -39.2413 -39.2413 -39.2407 -39.2407
   -39.0328 -39.0328 -38.9934 -38.9934 -38.3512 -38.3512 -38.3507 -38.3507
   -38.3483 -38.3483 -38.3478 -38.3478 -38.3468 -38.3468 -38.3464 -38.3464
   -38.1414 -38.1414 -38.1243 -38.1243 -38.0903 -38.0903 -15.7557 -15.7557
   -15.7555 -15.7555 -15.7441 -15.7441 -15.7426 -15.7426 -12.7804 -12.7804
   -12.7786 -12.7785 -12.7628 -12.7628 -12.7624 -12.7624 -12.7588 -12.7588
   -12.7569 -12.7569  -5.0997  -5.0997  -4.6288  -4.6288  -3.7080  -3.7080
    -0.9503  -0.9503  -0.1117  -0.1117   5.2523   5.2524   5.6003   5.6004
     6.0694   6.0694   6.5586   6.5586   6.6571   6.6571   7.3929   7.3929
     7.5616   7.5616   7.6922   7.6922   8.1558   8.1558   9.3512   9.3512
    10.0382  10.0382  10.8933  10.8933  11.2884  11.2884  11.7614  11.7614
    12.2385  12.2385  14.0702  14.0702  15.1438  15.1438  15.8019  15.8019
    16.2702  16.2702  16.3324  16.3324  16.7858  16.7858  17.0244  17.0244
    17.8004  17.8004  18.5592  18.5592  18.8678  18.8678  18.9884  18.9884
    19.2841  19.2841  19.6307  19.6307  19.7334  19.7334  20.3626  20.3626
    20.6465  20.6465  21.4810  21.4824

     occupation numbers 
     1.0000   1.0000   1.0000   1.0000   1.0000   1.0000   1.0000   1.0000
     1.0000   1.0000   1.0000   1.0000   1.0000   1.0000   1.0000   1.0000
     1.0000   1.0000   1.0000   1.0000   1.0000   1.0000   1.0000   1.0000
     1.0000   1.0000   1.0000   1.0000   1.0000   1.0000   1.0000   1.0000
     1.0000   1.0000   1.0000   1.0000   1.0000   1.0000   1.0000   1.0000
     1.0000   1.0000   1.0000   1.0000   1.0000   1.0000   1.0000   1.0000
     1.0000   1.0000   1.0000   1.0000   1.0000   1.0000   1.0000   1.0000
     1.0000   1.0000   1.0000   1.0000   1.0000   1.0000   1.0000   1.0000
     1.0000   1.0000   1.0000   1.0000   1.0000   1.0000   1.0000   1.0000
     1.0000   1.0000   1.0000   1.0000   1.0000   1.0000  -0.0000  -0.0000
    -0.0000  -0.0000  -0.0000  -0.0000  -0.0000  -0.0000  -0.0000  -0.0000
    -0.0000  -0.0000  -0.0000  -0.0000  -0.0000  -0.0000  -0.0000  -0.0000
    -0.0000  -0.0000  -0.0000  -0.0000  -0.0000  -0.0000  -0.0000  -0.0000
    -0.0000  -0.0000  -0.0000  -0.0000  -0.0000  -0.0000  -0.0000  -0.0000
    -0.0000  -0.0000  -0.0000  -0.0000  -0.0000  -0.0000  -0.0000  -0.0000
    -0.0000  -0.0000  -0.0000  -0.0000

          k = 1.5217 0.9057-0.5028 (  9894 PWs)   bands (ev):

   -39.2441 -39.2441 -39.2434 -39.2434 -39.2410 -39.2410 -39.2407 -39.2407
   -39.0326 -39.0326 -38.9928 -38.9928 -38.3506 -38.3506 -38.3499 -38.3499
   -38.3481 -38.3481 -38.3477 -38.3477 -38.3464 -38.3464 -38.3462 -38.3462
   -38.1411 -38.1411 -38.1242 -38.1242 -38.0896 -38.0896 -15.7537 -15.7537
   -15.7535 -15.7535 -15.7440 -15.7439 -15.7429 -15.7429 -12.7810 -12.7810
   -12.7786 -12.7786 -12.7649 -12.7649 -12.7631 -12.7631 -12.7549 -12.7549
   -12.7521 -12.7521  -4.4440  -4.4440  -4.1659  -4.1659  -3.4768  -3.4768
    -1.3740  -1.3740  -0.8829  -0.8829   4.1906   4.1906   4.7634   4.7635
     5.4052   5.4052   5.8742   5.8743   6.0881   6.0881   6.3974   6.3974
     7.5118   7.5118   7.7213   7.7213   8.3152   8.3152   9.1990   9.1990
    10.5010  10.5010  10.9950  10.9950  11.5265  11.5265  12.6218  12.6218
    13.2781  13.2781  13.4167  13.4167  15.0634  15.0634  15.9789  15.9789
    17.1550  17.1550  17.5291  17.5291  17.6168  17.6168  18.1076  18.1076
    18.8213  18.8213  19.3060  19.3060  19.4968  19.4968  20.0392  20.0392
    20.3431  20.3431  20.7542  20.7542  21.2899  21.2899  21.6602  21.6602
    21.9574  21.9574  22.6338  22.6339

     occupation numbers 
     1.0000   1.0000   1.0000   1.0000   1.0000   1.0000   1.0000   1.0000
     1.0000   1.0000   1.0000   1.0000   1.0000   1.0000   1.0000   1.0000
     1.0000   1.0000   1.0000   1.0000   1.0000   1.0000   1.0000   1.0000
     1.0000   1.0000   1.0000   1.0000   1.0000   1.0000   1.0000   1.0000
     1.0000   1.0000   1.0000   1.0000   1.0000   1.0000   1.0000   1.0000
     1.0000   1.0000   1.0000   1.0000   1.0000   1.0000   1.0000   1.0000
     1.0000   1.0000   1.0000   1.0000   1.0000   1.0000   1.0000   1.0000
     1.0000   1.0000   1.0000   1.0000   1.0000   1.0000   1.0000   1.0000
     1.0000   1.0000   1.0000   1.0000   1.0000   1.0000   1.0000   1.0000
     1.0000   1.0000   1.0000   1.0000   1.0056   1.0056  -0.0000  -0.0000
    -0.0000  -0.0000  -0.0000  -0.0000  -0.0000  -0.0000  -0.0000  -0.0000
    -0.0000  -0.0000  -0.0000  -0.0000  -0.0000  -0.0000  -0.0000  -0.0000
    -0.0000  -0.0000  -0.0000  -0.0000  -0.0000  -0.0000  -0.0000  -0.0000
    -0.0000  -0.0000  -0.0000  -0.0000  -0.0000  -0.0000  -0.0000  -0.0000
    -0.0000  -0.0000  -0.0000  -0.0000  -0.0000  -0.0000  -0.0000  -0.0000
    -0.0000  -0.0000  -0.0000  -0.0000

          k = 1.1503 0.6846-0.3354 (  9866 PWs)   bands (ev):

   -39.2436 -39.2436 -39.2433 -39.2433 -39.2406 -39.2406 -39.2401 -39.2401
   -39.0322 -39.0322 -38.9924 -38.9924 -38.3502 -38.3502 -38.3499 -38.3499
   -38.3476 -38.3476 -38.3472 -38.3472 -38.3461 -38.3461 -38.3456 -38.3456
   -38.1407 -38.1407 -38.1237 -38.1237 -38.0893 -38.0893 -15.7527 -15.7527
   -15.7527 -15.7527 -15.7434 -15.7434 -15.7433 -15.7433 -12.7826 -12.7826
   -12.7808 -12.7808 -12.7650 -12.7650 -12.7624 -12.7624 -12.7521 -12.7521
   -12.7490 -12.7490  -3.8355  -3.8355  -3.7188  -3.7188  -3.6426  -3.6426
    -1.7497  -1.7497  -1.3546  -1.3546   3.5470   3.5470   4.9452   4.9452
     5.1316   5.1316   5.6939   5.6939   5.7809   5.7809   6.2710   6.2710
     6.9547   6.9547   7.4838   7.4838   7.9570   7.9570   9.4851   9.4851
    10.8384  10.8384  11.1841  11.1841  11.6529  11.6529  12.5847  12.5847
    13.0340  13.0340  13.4463  13.4463  15.0199  15.0199  17.2084  17.2084
    18.0476  18.0476  18.1583  18.1583  18.9415  18.9415  19.1510  19.1510
    19.3418  19.3418  19.6786  19.6786  20.3358  20.3358  20.4029  20.4029
    20.6018  20.6018  21.3045  21.3045  21.3645  21.3645  21.5284  21.5284
    21.8465  21.8465  22.1764  22.1764

     occupation numbers 
     1.0000   1.0000   1.0000   1.0000   1.0000   1.0000   1.0000   1.0000
     1.0000   1.0000   1.0000   1.0000   1.0000   1.0000   1.0000   1.0000
     1.0000   1.0000   1.0000   1.0000   1.0000   1.0000   1.0000   1.0000
     1.0000   1.0000   1.0000   1.0000   1.0000   1.0000   1.0000   1.0000
     1.0000   1.0000   1.0000   1.0000   1.0000   1.0000   1.0000   1.0000
     1.0000   1.0000   1.0000   1.0000   1.0000   1.0000   1.0000   1.0000
     1.0000   1.0000   1.0000   1.0000   1.0000   1.0000   1.0000   1.0000
     1.0000   1.0000   1.0000   1.0000   1.0000   1.0000   1.0000   1.0000
     1.0000   1.0000   1.0000   1.0000   1.0000   1.0000   1.0000   1.0000
     1.0000   1.0000   1.0000   1.0000   1.0000   1.0000  -0.0000  -0.0000
    -0.0000  -0.0000  -0.0000  -0.0000  -0.0000  -0.0000  -0.0000  -0.0000
    -0.0000  -0.0000  -0.0000  -0.0000  -0.0000  -0.0000  -0.0000  -0.0000
    -0.0000  -0.0000  -0.0000  -0.0000  -0.0000  -0.0000  -0.0000  -0.0000
    -0.0000  -0.0000  -0.0000  -0.0000  -0.0000  -0.0000  -0.0000  -0.0000
    -0.0000  -0.0000  -0.0000  -0.0000  -0.0000  -0.0000  -0.0000  -0.0000
    -0.0000  -0.0000  -0.0000  -0.0000

          k = 0.7788 0.4635-0.1681 (  9895 PWs)   bands (ev):

   -39.2442 -39.2442 -39.2435 -39.2435 -39.2410 -39.2410 -39.2405 -39.2405
   -39.0325 -39.0325 -38.9929 -38.9929 -38.3508 -38.3508 -38.3501 -38.3501
   -38.3481 -38.3481 -38.3475 -38.3475 -38.3465 -38.3465 -38.3460 -38.3460
   -38.1411 -38.1411 -38.1241 -38.1241 -38.0898 -38.0898 -15.7537 -15.7537
   -15.7535 -15.7535 -15.7440 -15.7439 -15.7429 -15.7429 -12.7810 -12.7810
   -12.7786 -12.7786 -12.7649 -12.7649 -12.7632 -12.7632 -12.7549 -12.7549
   -12.7522 -12.7522  -4.5077  -4.5077  -4.0159  -4.0159  -3.5818  -3.5818
    -1.3311  -1.3311  -0.9026  -0.9026   3.9421   3.9421   5.0949   5.0949
     5.4976   5.4976   5.8509   5.8509   6.2367   6.2367   6.6513   6.6513
     7.0982   7.0982   7.4197   7.4197   7.7942   7.7942   9.7884   9.7884
    10.7784  10.7784  11.1497  11.1497  11.8194  11.8194  12.3796  12.3796
    12.9256  12.9256  13.1113  13.1113  15.5268  15.5268  16.2115  16.2115
    16.9085  16.9085  17.4147  17.4147  17.5144  17.5144  17.9641  17.9641
    18.9494  18.9494  19.1251  19.1251  19.2606  19.2606  19.8434  19.8434
    20.0913  20.0913  20.4044  20.4044  21.1773  21.1773  22.6378  22.6378
    22.9791  22.9791  23.1160  23.1160

     occupation numbers 
     1.0000   1.0000   1.0000   1.0000   1.0000   1.0000   1.0000   1.0000
     1.0000   1.0000   1.0000   1.0000   1.0000   1.0000   1.0000   1.0000
     1.0000   1.0000   1.0000   1.0000   1.0000   1.0000   1.0000   1.0000
     1.0000   1.0000   1.0000   1.0000   1.0000   1.0000   1.0000   1.0000
     1.0000   1.0000   1.0000   1.0000   1.0000   1.0000   1.0000   1.0000
     1.0000   1.0000   1.0000   1.0000   1.0000   1.0000   1.0000   1.0000
     1.0000   1.0000   1.0000   1.0000   1.0000   1.0000   1.0000   1.0000
     1.0000   1.0000   1.0000   1.0000   1.0000   1.0000   1.0000   1.0000
     1.0000   1.0000   1.0000   1.0000   1.0000   1.0000   1.0000   1.0000
     1.0000   1.0000   1.0000   1.0000   1.0000   1.0000  -0.0000  -0.0000
    -0.0000  -0.0000  -0.0000  -0.0000  -0.0000  -0.0000  -0.0000  -0.0000
    -0.0000  -0.0000  -0.0000  -0.0000  -0.0000  -0.0000  -0.0000  -0.0000
    -0.0000  -0.0000  -0.0000  -0.0000  -0.0000  -0.0000  -0.0000  -0.0000
    -0.0000  -0.0000  -0.0000  -0.0000  -0.0000  -0.0000  -0.0000  -0.0000
    -0.0000  -0.0000  -0.0000  -0.0000  -0.0000  -0.0000  -0.0000  -0.0000
    -0.0000  -0.0000  -0.0000  -0.0000

          k = 0.4073 0.7060-0.0011 (  9901 PWs)   bands (ev):

   -39.2441 -39.2441 -39.2438 -39.2438 -39.2411 -39.2411 -39.2405 -39.2405
   -39.0326 -39.0326 -38.9930 -38.9930 -38.3506 -38.3506 -38.3505 -38.3505
   -38.3481 -38.3481 -38.3476 -38.3476 -38.3466 -38.3466 -38.3461 -38.3461
   -38.1412 -38.1412 -38.1241 -38.1241 -38.0899 -38.0899 -15.7546 -15.7546
   -15.7533 -15.7533 -15.7441 -15.7441 -15.7429 -15.7429 -12.7802 -12.7802
   -12.7765 -12.7765 -12.7647 -12.7647 -12.7636 -12.7636 -12.7564 -12.7564
   -12.7546 -12.7546  -4.6853  -4.6853  -4.2181  -4.2181  -3.5783  -3.5783
    -1.1447  -1.1447  -0.7390  -0.7390   4.5284   4.5284   4.9959   4.9959
     5.3056   5.3056   5.8756   5.8756   6.2916   6.2916   6.5050   6.5050
     7.4877   7.4877   8.0150   8.0150   8.0764   8.0764   9.7826   9.7826
    10.0663  10.0663  11.0788  11.0788  11.9561  11.9561  12.3893  12.3893
    12.8948  12.8948  14.1047  14.1047  14.1476  14.1476  15.9893  15.9893
    16.5645  16.5645  17.1382  17.1382  17.4797  17.4797  17.8700  17.8700
    18.3783  18.3783  18.7345  18.7345  18.8130  18.8130  19.6971  19.6971
    20.2932  20.2932  20.5801  20.5801  21.0431  21.0431  21.8286  21.8286
    22.2177  22.2178  22.4272  22.4273

     occupation numbers 
     1.0000   1.0000   1.0000   1.0000   1.0000   1.0000   1.0000   1.0000
     1.0000   1.0000   1.0000   1.0000   1.0000   1.0000   1.0000   1.0000
     1.0000   1.0000   1.0000   1.0000   1.0000   1.0000   1.0000   1.0000
     1.0000   1.0000   1.0000   1.0000   1.0000   1.0000   1.0000   1.0000
     1.0000   1.0000   1.0000   1.0000   1.0000   1.0000   1.0000   1.0000
     1.0000   1.0000   1.0000   1.0000   1.0000   1.0000   1.0000   1.0000
     1.0000   1.0000   1.0000   1.0000   1.0000   1.0000   1.0000   1.0000
     1.0000   1.0000   1.0000   1.0000   1.0000   1.0000   1.0000   1.0000
     1.0000   1.0000   1.0000   1.0000   1.0000   1.0000   1.0000   1.0000
     1.0000   1.0000   1.0000   1.0000   1.0000   1.0000  -0.0000  -0.0000
    -0.0000  -0.0000  -0.0000  -0.0000  -0.0000  -0.0000  -0.0000  -0.0000
    -0.0000  -0.0000  -0.0000  -0.0000  -0.0000  -0.0000  -0.0000  -0.0000
    -0.0000  -0.0000  -0.0000  -0.0000  -0.0000  -0.0000  -0.0000  -0.0000
    -0.0000  -0.0000  -0.0000  -0.0000  -0.0000  -0.0000  -0.0000  -0.0000
    -0.0000  -0.0000  -0.0000  -0.0000  -0.0000  -0.0000  -0.0000  -0.0000
    -0.0000  -0.0000  -0.0000  -0.0000

          k = 0.0358 0.4849 0.1662 (  9930 PWs)   bands (ev):

   -39.2446 -39.2446 -39.2441 -39.2441 -39.2413 -39.2413 -39.2407 -39.2407
   -39.0328 -39.0328 -38.9934 -38.9934 -38.3512 -38.3512 -38.3507 -38.3507
   -38.3483 -38.3483 -38.3478 -38.3478 -38.3468 -38.3468 -38.3464 -38.3464
   -38.1414 -38.1414 -38.1243 -38.1243 -38.0903 -38.0903 -15.7557 -15.7557
   -15.7555 -15.7555 -15.7441 -15.7441 -15.7426 -15.7426 -12.7804 -12.7804
   -12.7786 -12.7785 -12.7628 -12.7628 -12.7624 -12.7624 -12.7588 -12.7588
   -12.7569 -12.7569  -5.0997  -5.0997  -4.6288  -4.6288  -3.7080  -3.7080
    -0.9503  -0.9503  -0.1117  -0.1117   5.2523   5.2524   5.6004   5.6004
     6.0694   6.0694   6.5586   6.5586   6.6571   6.6571   7.3929   7.3929
     7.5616   7.5616   7.6922   7.6922   8.1558   8.1558   9.3512   9.3512
    10.0382  10.0382  10.8933  10.8933  11.2884  11.2884  11.7614  11.7614
    12.2385  12.2385  14.0702  14.0702  15.1438  15.1438  15.8019  15.8019
    16.2702  16.2702  16.3324  16.3324  16.7858  16.7858  17.0244  17.0244
    17.8004  17.8004  18.5592  18.5592  18.8678  18.8678  18.9884  18.9884
    19.2841  19.2841  19.6307  19.6307  19.7334  19.7334  20.3626  20.3626
    20.6465  20.6465  21.4799  21.4800

     occupation numbers 
     1.0000   1.0000   1.0000   1.0000   1.0000   1.0000   1.0000   1.0000
     1.0000   1.0000   1.0000   1.0000   1.0000   1.0000   1.0000   1.0000
     1.0000   1.0000   1.0000   1.0000   1.0000   1.0000   1.0000   1.0000
     1.0000   1.0000   1.0000   1.0000   1.0000   1.0000   1.0000   1.0000
     1.0000   1.0000   1.0000   1.0000   1.0000   1.0000   1.0000   1.0000
     1.0000   1.0000   1.0000   1.0000   1.0000   1.0000   1.0000   1.0000
     1.0000   1.0000   1.0000   1.0000   1.0000   1.0000   1.0000   1.0000
     1.0000   1.0000   1.0000   1.0000   1.0000   1.0000   1.0000   1.0000
     1.0000   1.0000   1.0000   1.0000   1.0000   1.0000   1.0000   1.0000
     1.0000   1.0000   1.0000   1.0000   1.0000   1.0000  -0.0000  -0.0000
    -0.0000  -0.0000  -0.0000  -0.0000  -0.0000  -0.0000  -0.0000  -0.0000
    -0.0000  -0.0000  -0.0000  -0.0000  -0.0000  -0.0000  -0.0000  -0.0000
    -0.0000  -0.0000  -0.0000  -0.0000  -0.0000  -0.0000  -0.0000  -0.0000
    -0.0000  -0.0000  -0.0000  -0.0000  -0.0000  -0.0000  -0.0000  -0.0000
    -0.0000  -0.0000  -0.0000  -0.0000  -0.0000  -0.0000  -0.0000  -0.0000
    -0.0000  -0.0000  -0.0000  -0.0000

          k =-0.3357 0.2638 0.3336 (  9919 PWs)   bands (ev):

   -39.2445 -39.2445 -39.2441 -39.2441 -39.2412 -39.2412 -39.2406 -39.2406
   -39.0326 -39.0326 -38.9933 -38.9933 -38.3511 -38.3511 -38.3508 -38.3508
   -38.3481 -38.3481 -38.3476 -38.3476 -38.3468 -38.3468 -38.3462 -38.3462
   -38.1413 -38.1413 -38.1242 -38.1242 -38.0903 -38.0903 -15.7557 -15.7557
   -15.7555 -15.7555 -15.7441 -15.7441 -15.7426 -15.7426 -12.7804 -12.7804
   -12.7785 -12.7785 -12.7628 -12.7628 -12.7625 -12.7625 -12.7587 -12.7587
   -12.7569 -12.7569  -5.0801  -5.0801  -4.6692  -4.6692  -3.6790  -3.6790
    -0.9605  -0.9605  -0.1168  -0.1168   5.2036   5.2036   5.8262   5.8262
     6.0476   6.0476   6.4813   6.4813   6.7150   6.7151   7.0306   7.0306
     7.5384   7.5384   7.9465   7.9465   8.2061   8.2061   9.2938   9.2938
     9.9477   9.9477  10.7511  10.7511  11.2865  11.2865  12.0340  12.0340
    12.3470  12.3470  14.3519  14.3519  14.8371  14.8371  15.8104  15.8104
    15.9891  15.9891  16.3749  16.3749  16.9323  16.9323  17.6195  17.6195
    17.7235  17.7235  17.8337  17.8337  17.9812  17.9812  18.7985  18.7985
    19.2085  19.2085  19.4606  19.4606  20.4447  20.4447  20.6393  20.6393
    21.3597  21.3597  21.6348  21.6348

     occupation numbers 
     1.0000   1.0000   1.0000   1.0000   1.0000   1.0000   1.0000   1.0000
     1.0000   1.0000   1.0000   1.0000   1.0000   1.0000   1.0000   1.0000
     1.0000   1.0000   1.0000   1.0000   1.0000   1.0000   1.0000   1.0000
     1.0000   1.0000   1.0000   1.0000   1.0000   1.0000   1.0000   1.0000
     1.0000   1.0000   1.0000   1.0000   1.0000   1.0000   1.0000   1.0000
     1.0000   1.0000   1.0000   1.0000   1.0000   1.0000   1.0000   1.0000
     1.0000   1.0000   1.0000   1.0000   1.0000   1.0000   1.0000   1.0000
     1.0000   1.0000   1.0000   1.0000   1.0000   1.0000   1.0000   1.0000
     1.0000   1.0000   1.0000   1.0000   1.0000   1.0000   1.0000   1.0000
     1.0000   1.0000   1.0000   1.0000   1.0002   1.0002  -0.0000  -0.0000
    -0.0000  -0.0000  -0.0000  -0.0000  -0.0000  -0.0000  -0.0000  -0.0000
    -0.0000  -0.0000  -0.0000  -0.0000  -0.0000  -0.0000  -0.0000  -0.0000
    -0.0000  -0.0000  -0.0000  -0.0000  -0.0000  -0.0000  -0.0000  -0.0000
    -0.0000  -0.0000  -0.0000  -0.0000  -0.0000  -0.0000  -0.0000  -0.0000
    -0.0000  -0.0000  -0.0000  -0.0000  -0.0000  -0.0000  -0.0000  -0.0000
    -0.0000  -0.0000  -0.0000  -0.0000

          k = 1.5217 1.3693-0.5032 (  9898 PWs)   bands (ev):

   -39.2441 -39.2441 -39.2437 -39.2437 -39.2412 -39.2412 -39.2404 -39.2404
   -39.0326 -39.0326 -38.9929 -38.9929 -38.3506 -38.3506 -38.3503 -38.3503
   -38.3481 -38.3481 -38.3474 -38.3474 -38.3467 -38.3467 -38.3461 -38.3461
   -38.1412 -38.1412 -38.1241 -38.1241 -38.0898 -38.0898 -15.7546 -15.7546
   -15.7533 -15.7533 -15.7441 -15.7441 -15.7429 -15.7429 -12.7802 -12.7802
   -12.7765 -12.7765 -12.7647 -12.7647 -12.7636 -12.7636 -12.7563 -12.7563
   -12.7546 -12.7546  -4.6271  -4.6271  -4.3377  -4.3377  -3.4994  -3.4994
    -1.1967  -1.1967  -0.7043  -0.7043   4.4679   4.4679   4.9273   4.9273
     5.3615   5.3615   5.9599   5.9599   6.3547   6.3547   6.7617   6.7617
     7.3013   7.3013   7.7818   7.7818   7.9204   7.9204  10.0257  10.0257
    10.1935  10.1935  11.2849  11.2849  11.8151  11.8151  12.2409  12.2409
    12.7490  12.7490  14.2711  14.2711  14.3430  14.3430  15.3584  15.3584
    15.9792  15.9792  17.3858  17.3858  17.7120  17.7120  18.2734  18.2734
    18.5836  18.5836  19.0637  19.0637  19.5431  19.5431  19.8478  19.8478
    20.0114  20.0114  20.2563  20.2563  20.7150  20.7150  21.4559  21.4559
    22.1176  22.1176  22.2628  22.2629

     occupation numbers 
     1.0000   1.0000   1.0000   1.0000   1.0000   1.0000   1.0000   1.0000
     1.0000   1.0000   1.0000   1.0000   1.0000   1.0000   1.0000   1.0000
     1.0000   1.0000   1.0000   1.0000   1.0000   1.0000   1.0000   1.0000
     1.0000   1.0000   1.0000   1.0000   1.0000   1.0000   1.0000   1.0000
     1.0000   1.0000   1.0000   1.0000   1.0000   1.0000   1.0000   1.0000
     1.0000   1.0000   1.0000   1.0000   1.0000   1.0000   1.0000   1.0000
     1.0000   1.0000   1.0000   1.0000   1.0000   1.0000   1.0000   1.0000
     1.0000   1.0000   1.0000   1.0000   1.0000   1.0000   1.0000   1.0000
     1.0000   1.0000   1.0000   1.0000   1.0000   1.0000   1.0000   1.0000
     1.0000   1.0000   1.0000   1.0000   1.0000   1.0000  -0.0000  -0.0000
    -0.0000  -0.0000  -0.0000  -0.0000  -0.0000  -0.0000  -0.0000  -0.0000
    -0.0000  -0.0000  -0.0000  -0.0000  -0.0000  -0.0000  -0.0000  -0.0000
    -0.0000  -0.0000  -0.0000  -0.0000  -0.0000  -0.0000  -0.0000  -0.0000
    -0.0000  -0.0000  -0.0000  -0.0000  -0.0000  -0.0000  -0.0000  -0.0000
    -0.0000  -0.0000  -0.0000  -0.0000  -0.0000  -0.0000  -0.0000  -0.0000
    -0.0000  -0.0000  -0.0000  -0.0000

          k = 1.1502 1.1482-0.3358 (  9895 PWs)   bands (ev):

   -39.2437 -39.2437 -39.2435 -39.2435 -39.2410 -39.2410 -39.2408 -39.2408
   -39.0327 -39.0327 -38.9927 -38.9927 -38.3502 -38.3502 -38.3500 -38.3500
   -38.3480 -38.3480 -38.3479 -38.3479 -38.3464 -38.3464 -38.3463 -38.3463
   -38.1412 -38.1412 -38.1242 -38.1242 -38.0894 -38.0894 -15.7536 -15.7536
   -15.7512 -15.7512 -15.7442 -15.7442 -15.7432 -15.7432 -12.7805 -12.7805
   -12.7769 -12.7769 -12.7658 -12.7658 -12.7638 -12.7638 -12.7535 -12.7535
   -12.7516 -12.7516  -3.9053  -3.9053  -3.8438  -3.8438  -3.4407  -3.4407
    -1.6405  -1.6405  -1.4379  -1.4379   3.9413   3.9413   4.5849   4.5849
     4.7756   4.7756   5.0980   5.0980   5.9898   5.9898   6.5014   6.5014
     7.2670   7.2670   7.4057   7.4057   7.9438   7.9438   9.9732   9.9732
    10.6749  10.6749  11.2410  11.2410  12.0144  12.0144  12.5684  12.5684
    13.4976  13.4976  13.8877  13.8877  14.8617  14.8617  15.7019  15.7019
    17.3440  17.3440  17.7716  17.7716  18.3595  18.3595  19.1625  19.1625
    19.3444  19.3444  19.6779  19.6779  20.0454  20.0454  20.5691  20.5691
    20.6743  20.6743  21.1248  21.1248  21.2469  21.2469  21.4277  21.4277
    22.1332  22.1332  22.6801  22.6801

     occupation numbers 
     1.0000   1.0000   1.0000   1.0000   1.0000   1.0000   1.0000   1.0000
     1.0000   1.0000   1.0000   1.0000   1.0000   1.0000   1.0000   1.0000
     1.0000   1.0000   1.0000   1.0000   1.0000   1.0000   1.0000   1.0000
     1.0000   1.0000   1.0000   1.0000   1.0000   1.0000   1.0000   1.0000
     1.0000   1.0000   1.0000   1.0000   1.0000   1.0000   1.0000   1.0000
     1.0000   1.0000   1.0000   1.0000   1.0000   1.0000   1.0000   1.0000
     1.0000   1.0000   1.0000   1.0000   1.0000   1.0000   1.0000   1.0000
     1.0000   1.0000   1.0000   1.0000   1.0000   1.0000   1.0000   1.0000
     1.0000   1.0000   1.0000   1.0000   1.0000   1.0000   1.0000   1.0000
     1.0000   1.0000   1.0000   1.0000   1.0000   1.0000  -0.0000  -0.0000
    -0.0000  -0.0000  -0.0000  -0.0000  -0.0000  -0.0000  -0.0000  -0.0000
    -0.0000  -0.0000  -0.0000  -0.0000  -0.0000  -0.0000  -0.0000  -0.0000
    -0.0000  -0.0000  -0.0000  -0.0000  -0.0000  -0.0000  -0.0000  -0.0000
    -0.0000  -0.0000  -0.0000  -0.0000  -0.0000  -0.0000  -0.0000  -0.0000
    -0.0000  -0.0000  -0.0000  -0.0000  -0.0000  -0.0000  -0.0000  -0.0000
    -0.0000  -0.0000  -0.0000  -0.0000

          k = 0.7787 0.9271-0.1685 (  9868 PWs)   bands (ev):

   -39.2435 -39.2435 -39.2431 -39.2431 -39.2407 -39.2407 -39.2404 -39.2404
   -39.0323 -39.0323 -38.9923 -38.9923 -38.3500 -38.3500 -38.3495 -38.3495
   -38.3478 -38.3478 -38.3475 -38.3475 -38.3461 -38.3461 -38.3459 -38.3459
   -38.1408 -38.1408 -38.1239 -38.1239 -38.0891 -38.0891 -15.7536 -15.7536
   -15.7512 -15.7512 -15.7442 -15.7442 -15.7432 -15.7432 -12.7805 -12.7805
   -12.7769 -12.7769 -12.7658 -12.7658 -12.7638 -12.7638 -12.7535 -12.7535
   -12.7516 -12.7516  -3.9913  -3.9913  -3.6992  -3.6992  -3.4975  -3.4975
    -1.6690  -1.6690  -1.4111  -1.4111   3.7604   3.7604   4.6696   4.6696
     5.0006   5.0006   5.4619   5.4619   5.7747   5.7747   6.1118   6.1118
     6.9226   6.9226   7.8148   7.8148   7.9786   7.9786   9.9917   9.9917
    10.4100  10.4100  11.5889  11.5889  12.1314  12.1314  12.7375  12.7375
    13.1866  13.1866  13.5393  13.5393  15.6739  15.6739  15.9353  15.9353
    16.6765  16.6765  17.4647  17.4647  17.8968  17.8968  19.0939  19.0939
    19.2942  19.2942  19.4821  19.4821  20.1234  20.1234  20.5333  20.5333
    20.8586  20.8586  21.1875  21.1875  21.8481  21.8481  22.1787  22.1787
    22.5396  22.5397  23.0015  23.0021

     occupation numbers 
     1.0000   1.0000   1.0000   1.0000   1.0000   1.0000   1.0000   1.0000
     1.0000   1.0000   1.0000   1.0000   1.0000   1.0000   1.0000   1.0000
     1.0000   1.0000   1.0000   1.0000   1.0000   1.0000   1.0000   1.0000
     1.0000   1.0000   1.0000   1.0000   1.0000   1.0000   1.0000   1.0000
     1.0000   1.0000   1.0000   1.0000   1.0000   1.0000   1.0000   1.0000
     1.0000   1.0000   1.0000   1.0000   1.0000   1.0000   1.0000   1.0000
     1.0000   1.0000   1.0000   1.0000   1.0000   1.0000   1.0000   1.0000
     1.0000   1.0000   1.0000   1.0000   1.0000   1.0000   1.0000   1.0000
     1.0000   1.0000   1.0000   1.0000   1.0000   1.0000   1.0000   1.0000
     1.0000   1.0000   1.0000   1.0000   1.0000   1.0000  -0.0000  -0.0000
    -0.0000  -0.0000  -0.0000  -0.0000  -0.0000  -0.0000  -0.0000  -0.0000
    -0.0000  -0.0000  -0.0000  -0.0000  -0.0000  -0.0000  -0.0000  -0.0000
    -0.0000  -0.0000  -0.0000  -0.0000  -0.0000  -0.0000  -0.0000  -0.0000
    -0.0000  -0.0000  -0.0000  -0.0000  -0.0000  -0.0000  -0.0000  -0.0000
    -0.0000  -0.0000  -0.0000  -0.0000  -0.0000  -0.0000  -0.0000  -0.0000
    -0.0000  -0.0000  -0.0000  -0.0000

          k = 0.4077-1.6117 0.0007 (  9884 PWs)   bands (ev):

   -39.2437 -39.2437 -39.2433 -39.2433 -39.2408 -39.2408 -39.2407 -39.2407
   -39.0325 -39.0325 -38.9925 -38.9925 -38.3502 -38.3502 -38.3498 -38.3498
   -38.3480 -38.3480 -38.3478 -38.3478 -38.3462 -38.3462 -38.3461 -38.3461
   -38.1410 -38.1410 -38.1241 -38.1241 -38.0893 -38.0893 -15.7536 -15.7536
   -15.7512 -15.7512 -15.7442 -15.7442 -15.7432 -15.7432 -12.7805 -12.7805
   -12.7769 -12.7769 -12.7658 -12.7658 -12.7638 -12.7638 -12.7535 -12.7535
   -12.7515 -12.7515  -3.9566  -3.9566  -3.7768  -3.7768  -3.4538  -3.4538
    -1.6588  -1.6588  -1.4219  -1.4219   3.8160   3.8160   4.5480   4.5480
     4.9034   4.9034   5.2566   5.2566   6.1601   6.1601   6.5694   6.5694
     7.0585   7.0585   7.1979   7.1979   7.6886   7.6886  10.3162  10.3162
    10.7486  10.7486  11.4326  11.4326  12.0039  12.0039  12.4730  12.4730
    13.2642  13.2642  13.9447  13.9447  14.7728  14.7728  15.6354  15.6354
    17.5737  17.5737  17.8177  17.8177  18.3960  18.3960  19.1057  19.1057
    19.4170  19.4170  19.6330  19.6331  19.7563  19.7563  20.4918  20.4918
    20.7834  20.7834  21.0687  21.0687  21.2298  21.2298  21.5067  21.5067
    21.8311  21.8311  22.6188  22.6189

     occupation numbers 
     1.0000   1.0000   1.0000   1.0000   1.0000   1.0000   1.0000   1.0000
     1.0000   1.0000   1.0000   1.0000   1.0000   1.0000   1.0000   1.0000
     1.0000   1.0000   1.0000   1.0000   1.0000   1.0000   1.0000   1.0000
     1.0000   1.0000   1.0000   1.0000   1.0000   1.0000   1.0000   1.0000
     1.0000   1.0000   1.0000   1.0000   1.0000   1.0000   1.0000   1.0000
     1.0000   1.0000   1.0000   1.0000   1.0000   1.0000   1.0000   1.0000
     1.0000   1.0000   1.0000   1.0000   1.0000   1.0000   1.0000   1.0000
     1.0000   1.0000   1.0000   1.0000   1.0000   1.0000   1.0000   1.0000
     1.0000   1.0000   1.0000   1.0000   1.0000   1.0000   1.0000   1.0000
     1.0000   1.0000   1.0000   1.0000   1.0000   1.0000  -0.0000  -0.0000
    -0.0000  -0.0000  -0.0000  -0.0000  -0.0000  -0.0000  -0.0000  -0.0000
    -0.0000  -0.0000  -0.0000  -0.0000  -0.0000  -0.0000  -0.0000  -0.0000
    -0.0000  -0.0000  -0.0000  -0.0000  -0.0000  -0.0000  -0.0000  -0.0000
    -0.0000  -0.0000  -0.0000  -0.0000  -0.0000  -0.0000  -0.0000  -0.0000
    -0.0000  -0.0000  -0.0000  -0.0000  -0.0000  -0.0000  -0.0000  -0.0000
    -0.0000  -0.0000  -0.0000  -0.0000

          k = 0.0362-1.8328 0.1681 (  9894 PWs)   bands (ev):

   -39.2441 -39.2441 -39.2434 -39.2434 -39.2410 -39.2410 -39.2407 -39.2407
   -39.0326 -39.0326 -38.9928 -38.9928 -38.3506 -38.3506 -38.3499 -38.3499
   -38.3481 -38.3481 -38.3477 -38.3477 -38.3464 -38.3464 -38.3462 -38.3462
   -38.1411 -38.1411 -38.1242 -38.1242 -38.0896 -38.0896 -15.7537 -15.7537
   -15.7535 -15.7535 -15.7440 -15.7439 -15.7429 -15.7429 -12.7810 -12.7810
   -12.7786 -12.7786 -12.7649 -12.7649 -12.7631 -12.7631 -12.7549 -12.7549
   -12.7521 -12.7521  -4.4440  -4.4440  -4.1659  -4.1659  -3.4768  -3.4768
    -1.3740  -1.3740  -0.8829  -0.8829   4.1906   4.1906   4.7634   4.7634
     5.4052   5.4052   5.8742   5.8743   6.0881   6.0881   6.3974   6.3974
     7.5118   7.5118   7.7213   7.7213   8.3152   8.3152   9.1990   9.1990
    10.5010  10.5010  10.9950  10.9950  11.5265  11.5265  12.6218  12.6218
    13.2781  13.2781  13.4167  13.4167  15.0634  15.0634  15.9789  15.9789
    17.1550  17.1550  17.5291  17.5291  17.6168  17.6168  18.1076  18.1076
    18.8213  18.8213  19.3060  19.3060  19.4968  19.4968  20.0392  20.0392
    20.3431  20.3431  20.7542  20.7542  21.2899  21.2899  21.6602  21.6602
    21.9574  21.9574  22.6338  22.6338

     occupation numbers 
     1.0000   1.0000   1.0000   1.0000   1.0000   1.0000   1.0000   1.0000
     1.0000   1.0000   1.0000   1.0000   1.0000   1.0000   1.0000   1.0000
     1.0000   1.0000   1.0000   1.0000   1.0000   1.0000   1.0000   1.0000
     1.0000   1.0000   1.0000   1.0000   1.0000   1.0000   1.0000   1.0000
     1.0000   1.0000   1.0000   1.0000   1.0000   1.0000   1.0000   1.0000
     1.0000   1.0000   1.0000   1.0000   1.0000   1.0000   1.0000   1.0000
     1.0000   1.0000   1.0000   1.0000   1.0000   1.0000   1.0000   1.0000
     1.0000   1.0000   1.0000   1.0000   1.0000   1.0000   1.0000   1.0000
     1.0000   1.0000   1.0000   1.0000   1.0000   1.0000   1.0000   1.0000
     1.0000   1.0000   1.0000   1.0000   1.0056   1.0056  -0.0000  -0.0000
    -0.0000  -0.0000  -0.0000  -0.0000  -0.0000  -0.0000  -0.0000  -0.0000
    -0.0000  -0.0000  -0.0000  -0.0000  -0.0000  -0.0000  -0.0000  -0.0000
    -0.0000  -0.0000  -0.0000  -0.0000  -0.0000  -0.0000  -0.0000  -0.0000
    -0.0000  -0.0000  -0.0000  -0.0000  -0.0000  -0.0000  -0.0000  -0.0000
    -0.0000  -0.0000  -0.0000  -0.0000  -0.0000  -0.0000  -0.0000  -0.0000
    -0.0000  -0.0000  -0.0000  -0.0000

          k =-0.3353-2.0539 0.3354 (  9898 PWs)   bands (ev):

   -39.2441 -39.2441 -39.2437 -39.2437 -39.2412 -39.2412 -39.2404 -39.2404
   -39.0326 -39.0326 -38.9929 -38.9929 -38.3506 -38.3506 -38.3503 -38.3503
   -38.3481 -38.3481 -38.3474 -38.3474 -38.3467 -38.3467 -38.3461 -38.3461
   -38.1412 -38.1412 -38.1241 -38.1241 -38.0898 -38.0898 -15.7546 -15.7546
   -15.7533 -15.7533 -15.7441 -15.7441 -15.7429 -15.7429 -12.7802 -12.7802
   -12.7765 -12.7765 -12.7647 -12.7647 -12.7636 -12.7636 -12.7563 -12.7563
   -12.7546 -12.7546  -4.6271  -4.6271  -4.3377  -4.3377  -3.4994  -3.4994
    -1.1967  -1.1967  -0.7043  -0.7043   4.4679   4.4679   4.9273   4.9273
     5.3615   5.3615   5.9599   5.9599   6.3547   6.3547   6.7617   6.7617
     7.3013   7.3013   7.7818   7.7818   7.9204   7.9204  10.0257  10.0257
    10.1935  10.1935  11.2849  11.2849  11.8151  11.8151  12.2409  12.2409
    12.7490  12.7490  14.2711  14.2711  14.3430  14.3430  15.3584  15.3584
    15.9792  15.9792  17.3858  17.3858  17.7120  17.7120  18.2734  18.2734
    18.5836  18.5836  19.0637  19.0637  19.5431  19.5431  19.8478  19.8478
    20.0114  20.0114  20.2563  20.2563  20.7150  20.7150  21.4559  21.4559
    22.1176  22.1176  22.2628  22.2628

     occupation numbers 
     1.0000   1.0000   1.0000   1.0000   1.0000   1.0000   1.0000   1.0000
     1.0000   1.0000   1.0000   1.0000   1.0000   1.0000   1.0000   1.0000
     1.0000   1.0000   1.0000   1.0000   1.0000   1.0000   1.0000   1.0000
     1.0000   1.0000   1.0000   1.0000   1.0000   1.0000   1.0000   1.0000
     1.0000   1.0000   1.0000   1.0000   1.0000   1.0000   1.0000   1.0000
     1.0000   1.0000   1.0000   1.0000   1.0000   1.0000   1.0000   1.0000
     1.0000   1.0000   1.0000   1.0000   1.0000   1.0000   1.0000   1.0000
     1.0000   1.0000   1.0000   1.0000   1.0000   1.0000   1.0000   1.0000
     1.0000   1.0000   1.0000   1.0000   1.0000   1.0000   1.0000   1.0000
     1.0000   1.0000   1.0000   1.0000   1.0000   1.0000  -0.0000  -0.0000
    -0.0000  -0.0000  -0.0000  -0.0000  -0.0000  -0.0000  -0.0000  -0.0000
    -0.0000  -0.0000  -0.0000  -0.0000  -0.0000  -0.0000  -0.0000  -0.0000
    -0.0000  -0.0000  -0.0000  -0.0000  -0.0000  -0.0000  -0.0000  -0.0000
    -0.0000  -0.0000  -0.0000  -0.0000  -0.0000  -0.0000  -0.0000  -0.0000
    -0.0000  -0.0000  -0.0000  -0.0000  -0.0000  -0.0000  -0.0000  -0.0000
    -0.0000  -0.0000  -0.0000  -0.0000

          k = 1.5221-0.9484-0.5013 (  9880 PWs)   bands (ev):

   -39.2439 -39.2439 -39.2433 -39.2433 -39.2409 -39.2409 -39.2405 -39.2405
   -39.0325 -39.0325 -38.9926 -38.9926 -38.3504 -38.3504 -38.3498 -38.3498
   -38.3479 -38.3479 -38.3474 -38.3474 -38.3465 -38.3465 -38.3461 -38.3461
   -38.1411 -38.1411 -38.1239 -38.1239 -38.0895 -38.0895 -15.7537 -15.7537
   -15.7535 -15.7535 -15.7440 -15.7439 -15.7429 -15.7429 -12.7810 -12.7809
   -12.7786 -12.7786 -12.7649 -12.7649 -12.7632 -12.7632 -12.7548 -12.7548
   -12.7522 -12.7522  -4.4232  -4.4232  -4.1918  -4.1918  -3.4800  -3.4800
    -1.2970  -1.2970  -0.9524  -0.9524   4.0078   4.0078   4.9384   4.9384
     5.4667   5.4667   5.8908   5.8908   6.2037   6.2037   6.7785   6.7785
     7.1721   7.1721   7.3878   7.3878   7.8444   7.8444   9.7227   9.7227
    10.8260  10.8260  11.0543  11.0543  11.6134  11.6134  12.4264  12.4264
    13.0670  13.0670  13.3360  13.3360  15.0935  15.0935  16.3691  16.3691
    16.7131  16.7131  17.5152  17.5152  17.6074  17.6074  17.8310  17.8310
    18.1425  18.1425  18.9816  18.9816  20.0441  20.0441  20.4387  20.4387
    20.9799  20.9799  21.0679  21.0679  21.2601  21.2601  22.1494  22.1494
    22.4698  22.4699  22.8955  22.8956

     occupation numbers 
     1.0000   1.0000   1.0000   1.0000   1.0000   1.0000   1.0000   1.0000
     1.0000   1.0000   1.0000   1.0000   1.0000   1.0000   1.0000   1.0000
     1.0000   1.0000   1.0000   1.0000   1.0000   1.0000   1.0000   1.0000
     1.0000   1.0000   1.0000   1.0000   1.0000   1.0000   1.0000   1.0000
     1.0000   1.0000   1.0000   1.0000   1.0000   1.0000   1.0000   1.0000
     1.0000   1.0000   1.0000   1.0000   1.0000   1.0000   1.0000   1.0000
     1.0000   1.0000   1.0000   1.0000   1.0000   1.0000   1.0000   1.0000
     1.0000   1.0000   1.0000   1.0000   1.0000   1.0000   1.0000   1.0000
     1.0000   1.0000   1.0000   1.0000   1.0000   1.0000   1.0000   1.0000
     1.0000   1.0000   1.0000   1.0000   1.0000   1.0000  -0.0000  -0.0000
    -0.0000  -0.0000  -0.0000  -0.0000  -0.0000  -0.0000  -0.0000  -0.0000
    -0.0000  -0.0000  -0.0000  -0.0000  -0.0000  -0.0000  -0.0000  -0.0000
    -0.0000  -0.0000  -0.0000  -0.0000  -0.0000  -0.0000  -0.0000  -0.0000
    -0.0000  -0.0000  -0.0000  -0.0000  -0.0000  -0.0000  -0.0000  -0.0000
    -0.0000  -0.0000  -0.0000  -0.0000  -0.0000  -0.0000  -0.0000  -0.0000
    -0.0000  -0.0000  -0.0000  -0.0000

          k = 1.1506-1.1695-0.3339 (  9872 PWs)   bands (ev):

   -39.2434 -39.2434 -39.2432 -39.2432 -39.2407 -39.2407 -39.2405 -39.2405
   -39.0324 -39.0324 -38.9923 -38.9923 -38.3499 -38.3499 -38.3496 -38.3496
   -38.3477 -38.3477 -38.3476 -38.3476 -38.3462 -38.3462 -38.3459 -38.3459
   -38.1409 -38.1409 -38.1239 -38.1239 -38.0891 -38.0891 -15.7536 -15.7536
   -15.7512 -15.7512 -15.7442 -15.7442 -15.7432 -15.7432 -12.7805 -12.7805
   -12.7769 -12.7769 -12.7658 -12.7658 -12.7638 -12.7638 -12.7535 -12.7535
   -12.7516 -12.7516  -3.9215  -3.9215  -3.8195  -3.8195  -3.4504  -3.4504
    -1.6370  -1.6370  -1.4400  -1.4400   3.9806   3.9806   4.6141   4.6141
     4.7801   4.7801   5.1502   5.1502   5.7488   5.7488   6.2106   6.2106
     7.4693   7.4693   7.7493   7.7493   8.1229   8.1229   9.7329   9.7329
    10.4372  10.4372  11.0895  11.0895  12.1472  12.1472  12.7703  12.7703
    13.5047  13.5047  13.7073  13.7073  15.3010  15.3010  15.8753  15.8753
    17.0029  17.0029  17.5524  17.5524  17.8500  17.8500  19.1936  19.1936
    19.3080  19.3080  19.7522  19.7522  20.3142  20.3142  20.7054  20.7054
    20.8016  20.8016  21.1923  21.1923  21.2658  21.2658  21.8772  21.8772
    22.4386  22.4386  22.5666  22.5667

     occupation numbers 
     1.0000   1.0000   1.0000   1.0000   1.0000   1.0000   1.0000   1.0000
     1.0000   1.0000   1.0000   1.0000   1.0000   1.0000   1.0000   1.0000
     1.0000   1.0000   1.0000   1.0000   1.0000   1.0000   1.0000   1.0000
     1.0000   1.0000   1.0000   1.0000   1.0000   1.0000   1.0000   1.0000
     1.0000   1.0000   1.0000   1.0000   1.0000   1.0000   1.0000   1.0000
     1.0000   1.0000   1.0000   1.0000   1.0000   1.0000   1.0000   1.0000
     1.0000   1.0000   1.0000   1.0000   1.0000   1.0000   1.0000   1.0000
     1.0000   1.0000   1.0000   1.0000   1.0000   1.0000   1.0000   1.0000
     1.0000   1.0000   1.0000   1.0000   1.0000   1.0000   1.0000   1.0000
     1.0000   1.0000   1.0000   1.0000   1.0000   1.0000  -0.0000  -0.0000
    -0.0000  -0.0000  -0.0000  -0.0000  -0.0000  -0.0000  -0.0000  -0.0000
    -0.0000  -0.0000  -0.0000  -0.0000  -0.0000  -0.0000  -0.0000  -0.0000
    -0.0000  -0.0000  -0.0000  -0.0000  -0.0000  -0.0000  -0.0000  -0.0000
    -0.0000  -0.0000  -0.0000  -0.0000  -0.0000  -0.0000  -0.0000  -0.0000
    -0.0000  -0.0000  -0.0000  -0.0000  -0.0000  -0.0000  -0.0000  -0.0000
    -0.0000  -0.0000  -0.0000  -0.0000

          k = 0.7791-1.3906-0.1666 (  9892 PWs)   bands (ev):

   -39.2437 -39.2437 -39.2435 -39.2435 -39.2410 -39.2410 -39.2405 -39.2405
   -39.0325 -39.0325 -38.9927 -38.9927 -38.3502 -38.3502 -38.3501 -38.3501
   -38.3479 -38.3479 -38.3475 -38.3475 -38.3465 -38.3465 -38.3462 -38.3461
   -38.1411 -38.1411 -38.1240 -38.1240 -38.0895 -38.0895 -15.7534 -15.7533
   -15.7497 -15.7497 -15.7447 -15.7447 -15.7433 -15.7433 -12.7764 -12.7764
   -12.7743 -12.7743 -12.7691 -12.7691 -12.7650 -12.7650 -12.7531 -12.7531
   -12.7530 -12.7530  -3.5746  -3.5745  -3.5450  -3.5450  -3.4602  -3.4602
    -1.8291  -1.8291  -1.8086  -1.8086   3.8638   3.8638   4.3799   4.3799
     4.5826   4.5826   4.9836   4.9836   5.6588   5.6588   6.1823   6.1823
     6.9185   6.9185   7.6780   7.6780   7.9589   7.9589  10.0631  10.0631
    10.8387  10.8387  11.5429  11.5429  12.5083  12.5083  12.9012  12.9012
    13.2937  13.2937  15.0402  15.0402  15.7057  15.7057  15.9262  15.9262
    16.0847  16.0847  16.4324  16.4324  17.8204  17.8204  18.5085  18.5085
    19.0322  19.0322  19.9328  19.9328  20.0913  20.0913  20.5526  20.5526
    20.7331  20.7331  21.3015  21.3015  22.2672  22.2672  22.3993  22.3993
    23.2931  23.2932  23.4173  23.4173

     occupation numbers 
     1.0000   1.0000   1.0000   1.0000   1.0000   1.0000   1.0000   1.0000
     1.0000   1.0000   1.0000   1.0000   1.0000   1.0000   1.0000   1.0000
     1.0000   1.0000   1.0000   1.0000   1.0000   1.0000   1.0000   1.0000
     1.0000   1.0000   1.0000   1.0000   1.0000   1.0000   1.0000   1.0000
     1.0000   1.0000   1.0000   1.0000   1.0000   1.0000   1.0000   1.0000
     1.0000   1.0000   1.0000   1.0000   1.0000   1.0000   1.0000   1.0000
     1.0000   1.0000   1.0000   1.0000   1.0000   1.0000   1.0000   1.0000
     1.0000   1.0000   1.0000   1.0000   1.0000   1.0000   1.0000   1.0000
     1.0000   1.0000   1.0000   1.0000   1.0000   1.0000   1.0000   1.0000
     1.0000   1.0000   1.0000   1.0000   1.0000   1.0000  -0.0000  -0.0000
    -0.0000  -0.0000  -0.0000  -0.0000  -0.0000  -0.0000  -0.0000  -0.0000
    -0.0000  -0.0000  -0.0000  -0.0000  -0.0000  -0.0000  -0.0000  -0.0000
    -0.0000  -0.0000  -0.0000  -0.0000  -0.0000  -0.0000  -0.0000  -0.0000
    -0.0000  -0.0000  -0.0000  -0.0000  -0.0000  -0.0000  -0.0000  -0.0000
    -0.0000  -0.0000  -0.0000  -0.0000  -0.0000  -0.0000  -0.0000  -0.0000
    -0.0000  -0.0000  -0.0000  -0.0000

          k = 0.4076-1.1482 0.0004 (  9870 PWs)   bands (ev):

   -39.2435 -39.2435 -39.2432 -39.2432 -39.2407 -39.2407 -39.2404 -39.2404
   -39.0323 -39.0323 -38.9924 -38.9924 -38.3499 -38.3499 -38.3497 -38.3497
   -38.3479 -38.3479 -38.3476 -38.3476 -38.3461 -38.3461 -38.3458 -38.3458
   -38.1408 -38.1408 -38.1240 -38.1240 -38.0891 -38.0891 -15.7536 -15.7536
   -15.7512 -15.7512 -15.7442 -15.7442 -15.7432 -15.7432 -12.7805 -12.7805
   -12.7769 -12.7769 -12.7658 -12.7658 -12.7638 -12.7638 -12.7535 -12.7535
   -12.7515 -12.7515  -3.9877  -3.9877  -3.7159  -3.7159  -3.4827  -3.4827
    -1.6720  -1.6720  -1.4095  -1.4095   3.7420   3.7420   4.5821   4.5821
     4.9718   4.9718   5.4945   5.4945   6.0512   6.0512   6.3038   6.3038
     6.8347   6.8347   7.4769   7.4769   7.7371   7.7371  10.3003  10.3003
    10.6284  10.6284  11.5865  11.5865  12.1670  12.1670  12.5182  12.5182
    13.0651  13.0651  13.7143  13.7143  15.2443  15.2443  15.6550  15.6550
    17.1565  17.1565  17.7904  17.7904  18.4634  18.4634  18.7684  18.7684
    19.2110  19.2110  19.4675  19.4675  20.1693  20.1693  20.4511  20.4511
    20.7203  20.7203  21.1766  21.1766  21.5249  21.5249  21.8720  21.8720
    22.1707  22.1707  22.5371  22.5372

     occupation numbers 
     1.0000   1.0000   1.0000   1.0000   1.0000   1.0000   1.0000   1.0000
     1.0000   1.0000   1.0000   1.0000   1.0000   1.0000   1.0000   1.0000
     1.0000   1.0000   1.0000   1.0000   1.0000   1.0000   1.0000   1.0000
     1.0000   1.0000   1.0000   1.0000   1.0000   1.0000   1.0000   1.0000
     1.0000   1.0000   1.0000   1.0000   1.0000   1.0000   1.0000   1.0000
     1.0000   1.0000   1.0000   1.0000   1.0000   1.0000   1.0000   1.0000
     1.0000   1.0000   1.0000   1.0000   1.0000   1.0000   1.0000   1.0000
     1.0000   1.0000   1.0000   1.0000   1.0000   1.0000   1.0000   1.0000
     1.0000   1.0000   1.0000   1.0000   1.0000   1.0000   1.0000   1.0000
     1.0000   1.0000   1.0000   1.0000   1.0000   1.0000  -0.0000  -0.0000
    -0.0000  -0.0000  -0.0000  -0.0000  -0.0000  -0.0000  -0.0000  -0.0000
    -0.0000  -0.0000  -0.0000  -0.0000  -0.0000  -0.0000  -0.0000  -0.0000
    -0.0000  -0.0000  -0.0000  -0.0000  -0.0000  -0.0000  -0.0000  -0.0000
    -0.0000  -0.0000  -0.0000  -0.0000  -0.0000  -0.0000  -0.0000  -0.0000
    -0.0000  -0.0000  -0.0000  -0.0000  -0.0000  -0.0000  -0.0000  -0.0000
    -0.0000  -0.0000  -0.0000  -0.0000

          k = 0.0361-1.3693 0.1677 (  9866 PWs)   bands (ev):

   -39.2436 -39.2436 -39.2433 -39.2433 -39.2406 -39.2406 -39.2401 -39.2401
   -39.0322 -39.0322 -38.9924 -38.9924 -38.3502 -38.3502 -38.3499 -38.3499
   -38.3476 -38.3476 -38.3472 -38.3472 -38.3461 -38.3461 -38.3456 -38.3456
   -38.1407 -38.1407 -38.1237 -38.1237 -38.0893 -38.0893 -15.7527 -15.7527
   -15.7527 -15.7527 -15.7434 -15.7434 -15.7433 -15.7433 -12.7826 -12.7826
   -12.7808 -12.7808 -12.7650 -12.7650 -12.7624 -12.7624 -12.7521 -12.7521
   -12.7490 -12.7490  -3.8355  -3.8355  -3.7188  -3.7188  -3.6426  -3.6426
    -1.7497  -1.7497  -1.3546  -1.3546   3.5470   3.5470   4.9452   4.9452
     5.1316   5.1316   5.6939   5.6939   5.7809   5.7809   6.2710   6.2710
     6.9547   6.9547   7.4838   7.4838   7.9570   7.9570   9.4851   9.4851
    10.8384  10.8384  11.1841  11.1841  11.6529  11.6529  12.5847  12.5847
    13.0340  13.0340  13.4463  13.4463  15.0199  15.0199  17.2084  17.2084
    18.0476  18.0476  18.1583  18.1583  18.9415  18.9415  19.1510  19.1510
    19.3418  19.3418  19.6786  19.6786  20.3358  20.3358  20.4029  20.4029
    20.6018  20.6018  21.3045  21.3045  21.3645  21.3645  21.5283  21.5283
    21.8465  21.8465  22.1764  22.1764

     occupation numbers 
     1.0000   1.0000   1.0000   1.0000   1.0000   1.0000   1.0000   1.0000
     1.0000   1.0000   1.0000   1.0000   1.0000   1.0000   1.0000   1.0000
     1.0000   1.0000   1.0000   1.0000   1.0000   1.0000   1.0000   1.0000
     1.0000   1.0000   1.0000   1.0000   1.0000   1.0000   1.0000   1.0000
     1.0000   1.0000   1.0000   1.0000   1.0000   1.0000   1.0000   1.0000
     1.0000   1.0000   1.0000   1.0000   1.0000   1.0000   1.0000   1.0000
     1.0000   1.0000   1.0000   1.0000   1.0000   1.0000   1.0000   1.0000
     1.0000   1.0000   1.0000   1.0000   1.0000   1.0000   1.0000   1.0000
     1.0000   1.0000   1.0000   1.0000   1.0000   1.0000   1.0000   1.0000
     1.0000   1.0000   1.0000   1.0000   1.0000   1.0000  -0.0000  -0.0000
    -0.0000  -0.0000  -0.0000  -0.0000  -0.0000  -0.0000  -0.0000  -0.0000
    -0.0000  -0.0000  -0.0000  -0.0000  -0.0000  -0.0000  -0.0000  -0.0000
    -0.0000  -0.0000  -0.0000  -0.0000  -0.0000  -0.0000  -0.0000  -0.0000
    -0.0000  -0.0000  -0.0000  -0.0000  -0.0000  -0.0000  -0.0000  -0.0000
    -0.0000  -0.0000  -0.0000  -0.0000  -0.0000  -0.0000  -0.0000  -0.0000
    -0.0000  -0.0000  -0.0000  -0.0000

          k =-0.3354-1.5904 0.3351 (  9895 PWs)   bands (ev):

   -39.2437 -39.2437 -39.2435 -39.2435 -39.2410 -39.2410 -39.2408 -39.2408
   -39.0327 -39.0327 -38.9927 -38.9927 -38.3502 -38.3502 -38.3500 -38.3500
   -38.3480 -38.3480 -38.3479 -38.3479 -38.3464 -38.3464 -38.3463 -38.3463
   -38.1412 -38.1412 -38.1242 -38.1242 -38.0894 -38.0894 -15.7536 -15.7536
   -15.7512 -15.7512 -15.7442 -15.7442 -15.7432 -15.7432 -12.7805 -12.7805
   -12.7769 -12.7769 -12.7658 -12.7658 -12.7638 -12.7638 -12.7535 -12.7535
   -12.7516 -12.7516  -3.9053  -3.9053  -3.8438  -3.8438  -3.4407  -3.4407
    -1.6405  -1.6405  -1.4379  -1.4379   3.9413   3.9413   4.5849   4.5849
     4.7756   4.7756   5.0980   5.0980   5.9898   5.9898   6.5014   6.5014
     7.2670   7.2670   7.4057   7.4057   7.9438   7.9438   9.9732   9.9732
    10.6749  10.6749  11.2410  11.2410  12.0144  12.0144  12.5684  12.5684
    13.4976  13.4976  13.8877  13.8877  14.8617  14.8617  15.7019  15.7019
    17.3440  17.3440  17.7716  17.7716  18.3595  18.3595  19.1625  19.1625
    19.3444  19.3444  19.6779  19.6779  20.0454  20.0454  20.5691  20.5691
    20.6743  20.6743  21.1248  21.1248  21.2469  21.2469  21.4277  21.4277
    22.1332  22.1332  22.6801  22.6801

     occupation numbers 
     1.0000   1.0000   1.0000   1.0000   1.0000   1.0000   1.0000   1.0000
     1.0000   1.0000   1.0000   1.0000   1.0000   1.0000   1.0000   1.0000
     1.0000   1.0000   1.0000   1.0000   1.0000   1.0000   1.0000   1.0000
     1.0000   1.0000   1.0000   1.0000   1.0000   1.0000   1.0000   1.0000
     1.0000   1.0000   1.0000   1.0000   1.0000   1.0000   1.0000   1.0000
     1.0000   1.0000   1.0000   1.0000   1.0000   1.0000   1.0000   1.0000
     1.0000   1.0000   1.0000   1.0000   1.0000   1.0000   1.0000   1.0000
     1.0000   1.0000   1.0000   1.0000   1.0000   1.0000   1.0000   1.0000
     1.0000   1.0000   1.0000   1.0000   1.0000   1.0000   1.0000   1.0000
     1.0000   1.0000   1.0000   1.0000   1.0000   1.0000  -0.0000  -0.0000
    -0.0000  -0.0000  -0.0000  -0.0000  -0.0000  -0.0000  -0.0000  -0.0000
    -0.0000  -0.0000  -0.0000  -0.0000  -0.0000  -0.0000  -0.0000  -0.0000
    -0.0000  -0.0000  -0.0000  -0.0000  -0.0000  -0.0000  -0.0000  -0.0000
    -0.0000  -0.0000  -0.0000  -0.0000  -0.0000  -0.0000  -0.0000  -0.0000
    -0.0000  -0.0000  -0.0000  -0.0000  -0.0000  -0.0000  -0.0000  -0.0000
    -0.0000  -0.0000  -0.0000  -0.0000

          k = 1.5220-0.4849-0.5017 (  9872 PWs)   bands (ev):

   -39.2434 -39.2434 -39.2432 -39.2432 -39.2407 -39.2407 -39.2405 -39.2405
   -39.0324 -39.0324 -38.9923 -38.9923 -38.3499 -38.3499 -38.3496 -38.3496
   -38.3477 -38.3477 -38.3476 -38.3476 -38.3462 -38.3462 -38.3459 -38.3459
   -38.1409 -38.1409 -38.1239 -38.1239 -38.0891 -38.0891 -15.7536 -15.7536
   -15.7512 -15.7512 -15.7442 -15.7442 -15.7432 -15.7432 -12.7805 -12.7805
   -12.7769 -12.7769 -12.7658 -12.7658 -12.7638 -12.7638 -12.7535 -12.7535
   -12.7516 -12.7516  -3.9215  -3.9215  -3.8195  -3.8195  -3.4504  -3.4504
    -1.6370  -1.6370  -1.4400  -1.4400   3.9806   3.9806   4.6141   4.6141
     4.7801   4.7801   5.1502   5.1502   5.7488   5.7488   6.2106   6.2106
     7.4693   7.4693   7.7493   7.7493   8.1229   8.1229   9.7329   9.7329
    10.4372  10.4372  11.0895  11.0895  12.1472  12.1472  12.7703  12.7703
    13.5047  13.5047  13.7073  13.7073  15.3010  15.3010  15.8753  15.8753
    17.0029  17.0029  17.5524  17.5524  17.8500  17.8500  19.1936  19.1936
    19.3080  19.3080  19.7522  19.7522  20.3142  20.3142  20.7054  20.7054
    20.8016  20.8016  21.1923  21.1923  21.2658  21.2658  21.8772  21.8772
    22.4386  22.4387  22.5666  22.5666

     occupation numbers 
     1.0000   1.0000   1.0000   1.0000   1.0000   1.0000   1.0000   1.0000
     1.0000   1.0000   1.0000   1.0000   1.0000   1.0000   1.0000   1.0000
     1.0000   1.0000   1.0000   1.0000   1.0000   1.0000   1.0000   1.0000
     1.0000   1.0000   1.0000   1.0000   1.0000   1.0000   1.0000   1.0000
     1.0000   1.0000   1.0000   1.0000   1.0000   1.0000   1.0000   1.0000
     1.0000   1.0000   1.0000   1.0000   1.0000   1.0000   1.0000   1.0000
     1.0000   1.0000   1.0000   1.0000   1.0000   1.0000   1.0000   1.0000
     1.0000   1.0000   1.0000   1.0000   1.0000   1.0000   1.0000   1.0000
     1.0000   1.0000   1.0000   1.0000   1.0000   1.0000   1.0000   1.0000
     1.0000   1.0000   1.0000   1.0000   1.0000   1.0000  -0.0000  -0.0000
    -0.0000  -0.0000  -0.0000  -0.0000  -0.0000  -0.0000  -0.0000  -0.0000
    -0.0000  -0.0000  -0.0000  -0.0000  -0.0000  -0.0000  -0.0000  -0.0000
    -0.0000  -0.0000  -0.0000  -0.0000  -0.0000  -0.0000  -0.0000  -0.0000
    -0.0000  -0.0000  -0.0000  -0.0000  -0.0000  -0.0000  -0.0000  -0.0000
    -0.0000  -0.0000  -0.0000  -0.0000  -0.0000  -0.0000  -0.0000  -0.0000
    -0.0000  -0.0000  -0.0000  -0.0000

          k = 1.1505-0.7060-0.3343 (  9889 PWs)   bands (ev):

   -39.2436 -39.2436 -39.2435 -39.2435 -39.2411 -39.2411 -39.2406 -39.2406
   -39.0326 -39.0326 -38.9926 -38.9926 -38.3502 -38.3502 -38.3499 -38.3499
   -38.3481 -38.3481 -38.3477 -38.3477 -38.3465 -38.3465 -38.3460 -38.3460
   -38.1411 -38.1411 -38.1242 -38.1242 -38.0893 -38.0893 -15.7527 -15.7527
   -15.7527 -15.7527 -15.7434 -15.7434 -15.7433 -15.7433 -12.7826 -12.7826
   -12.7808 -12.7808 -12.7650 -12.7650 -12.7625 -12.7625 -12.7521 -12.7521
   -12.7490 -12.7490  -3.8384  -3.8384  -3.7134  -3.7134  -3.6428  -3.6428
    -1.7831  -1.7831  -1.3211  -1.3211   3.6720   3.6720   4.7020   4.7020
     4.9683   4.9683   5.5987   5.5987   5.9418   5.9418   6.5884   6.5884
     7.1380   7.1380   7.4522   7.4522   7.6512   7.6512   9.7176   9.7176
    10.7373  10.7373  11.1553  11.1553  11.4787  11.4787  12.5180  12.5180
    12.9431  12.9431  13.7533  13.7533  15.2712  15.2712  16.6989  16.6989
    17.7800  17.7800  18.1704  18.1704  19.0857  19.0857  19.1694  19.1694
    19.3195  19.3195  19.7781  19.7781  20.4585  20.4585  20.6912  20.6912
    20.7242  20.7242  21.1741  21.1741  21.3458  21.3458  21.6925  21.6925
    21.8094  21.8094  22.4736  22.4736

     occupation numbers 
     1.0000   1.0000   1.0000   1.0000   1.0000   1.0000   1.0000   1.0000
     1.0000   1.0000   1.0000   1.0000   1.0000   1.0000   1.0000   1.0000
     1.0000   1.0000   1.0000   1.0000   1.0000   1.0000   1.0000   1.0000
     1.0000   1.0000   1.0000   1.0000   1.0000   1.0000   1.0000   1.0000
     1.0000   1.0000   1.0000   1.0000   1.0000   1.0000   1.0000   1.0000
     1.0000   1.0000   1.0000   1.0000   1.0000   1.0000   1.0000   1.0000
     1.0000   1.0000   1.0000   1.0000   1.0000   1.0000   1.0000   1.0000
     1.0000   1.0000   1.0000   1.0000   1.0000   1.0000   1.0000   1.0000
     1.0000   1.0000   1.0000   1.0000   1.0000   1.0000   1.0000   1.0000
     1.0000   1.0000   1.0000   1.0000   1.0000   1.0000  -0.0000  -0.0000
    -0.0000  -0.0000  -0.0000  -0.0000  -0.0000  -0.0000  -0.0000  -0.0000
    -0.0000  -0.0000  -0.0000  -0.0000  -0.0000  -0.0000  -0.0000  -0.0000
    -0.0000  -0.0000  -0.0000  -0.0000  -0.0000  -0.0000  -0.0000  -0.0000
    -0.0000  -0.0000  -0.0000  -0.0000  -0.0000  -0.0000  -0.0000  -0.0000
    -0.0000  -0.0000  -0.0000  -0.0000  -0.0000  -0.0000  -0.0000  -0.0000
    -0.0000  -0.0000  -0.0000  -0.0000

          k = 0.7790-0.9271-0.1670 (  9868 PWs)   bands (ev):

   -39.2435 -39.2435 -39.2431 -39.2431 -39.2407 -39.2407 -39.2404 -39.2404
   -39.0323 -39.0323 -38.9923 -38.9923 -38.3500 -38.3500 -38.3495 -38.3495
   -38.3478 -38.3478 -38.3475 -38.3475 -38.3461 -38.3461 -38.3459 -38.3459
   -38.1408 -38.1408 -38.1239 -38.1239 -38.0891 -38.0891 -15.7536 -15.7536
   -15.7512 -15.7512 -15.7442 -15.7442 -15.7432 -15.7432 -12.7805 -12.7805
   -12.7769 -12.7769 -12.7658 -12.7658 -12.7638 -12.7638 -12.7535 -12.7535
   -12.7516 -12.7516  -3.9913  -3.9913  -3.6992  -3.6992  -3.4975  -3.4975
    -1.6690  -1.6690  -1.4111  -1.4111   3.7604   3.7604   4.6696   4.6696
     5.0006   5.0006   5.4619   5.4619   5.7747   5.7747   6.1118   6.1118
     6.9226   6.9226   7.8148   7.8148   7.9786   7.9786   9.9917   9.9917
    10.4100  10.4100  11.5889  11.5889  12.1314  12.1314  12.7375  12.7375
    13.1866  13.1866  13.5393  13.5393  15.6739  15.6739  15.9353  15.9353
    16.6765  16.6765  17.4647  17.4647  17.8968  17.8968  19.0939  19.0939
    19.2942  19.2942  19.4821  19.4821  20.1234  20.1234  20.5333  20.5333
    20.8586  20.8586  21.1875  21.1875  21.8481  21.8481  22.1787  22.1787
    22.5396  22.5396  23.0015  23.0024

     occupation numbers 
     1.0000   1.0000   1.0000   1.0000   1.0000   1.0000   1.0000   1.0000
     1.0000   1.0000   1.0000   1.0000   1.0000   1.0000   1.0000   1.0000
     1.0000   1.0000   1.0000   1.0000   1.0000   1.0000   1.0000   1.0000
     1.0000   1.0000   1.0000   1.0000   1.0000   1.0000   1.0000   1.0000
     1.0000   1.0000   1.0000   1.0000   1.0000   1.0000   1.0000   1.0000
     1.0000   1.0000   1.0000   1.0000   1.0000   1.0000   1.0000   1.0000
     1.0000   1.0000   1.0000   1.0000   1.0000   1.0000   1.0000   1.0000
     1.0000   1.0000   1.0000   1.0000   1.0000   1.0000   1.0000   1.0000
     1.0000   1.0000   1.0000   1.0000   1.0000   1.0000   1.0000   1.0000
     1.0000   1.0000   1.0000   1.0000   1.0000   1.0000  -0.0000  -0.0000
    -0.0000  -0.0000  -0.0000  -0.0000  -0.0000  -0.0000  -0.0000  -0.0000
    -0.0000  -0.0000  -0.0000  -0.0000  -0.0000  -0.0000  -0.0000  -0.0000
    -0.0000  -0.0000  -0.0000  -0.0000  -0.0000  -0.0000  -0.0000  -0.0000
    -0.0000  -0.0000  -0.0000  -0.0000  -0.0000  -0.0000  -0.0000  -0.0000
    -0.0000  -0.0000  -0.0000  -0.0000  -0.0000  -0.0000  -0.0000  -0.0000
    -0.0000  -0.0000  -0.0000  -0.0000

          k = 0.4075-0.6846-0.0000 (  9885 PWs)   bands (ev):

   -39.2439 -39.2439 -39.2435 -39.2435 -39.2407 -39.2407 -39.2406 -39.2406
   -39.0324 -39.0324 -38.9927 -38.9927 -38.3505 -38.3505 -38.3500 -38.3500
   -38.3478 -38.3478 -38.3476 -38.3476 -38.3463 -38.3463 -38.3461 -38.3461
   -38.1410 -38.1410 -38.1240 -38.1240 -38.0896 -38.0896 -15.7546 -15.7546
   -15.7533 -15.7533 -15.7442 -15.7441 -15.7429 -15.7429 -12.7802 -12.7802
   -12.7765 -12.7765 -12.7647 -12.7647 -12.7636 -12.7636 -12.7564 -12.7564
   -12.7546 -12.7546  -4.7066  -4.7066  -4.1580  -4.1580  -3.6257  -3.6257
    -1.1155  -1.1155  -0.7598  -0.7598   4.5699   4.5699   4.9869   4.9869
     5.3463   5.3463   5.7905   5.7905   6.3113   6.3113   6.3517   6.3517
     7.6356   7.6356   8.0966   8.0966   8.1167   8.1167   9.6755   9.6755
    10.0113  10.0113  10.9738  10.9738  12.0068  12.0068  12.4694  12.4694
    12.9611  12.9611  14.0491  14.0491  14.0707  14.0707  16.5147  16.5147
    16.9182  16.9182  17.0983  17.0983  17.2354  17.2354  17.3906  17.3906
    18.3031  18.3031  18.4650  18.4650  18.7079  18.7079  19.4409  19.4409
    20.4401  20.4401  21.0313  21.0313  21.3742  21.3742  21.6311  21.6311
    22.2241  22.2242  22.3027  22.3027

     occupation numbers 
     1.0000   1.0000   1.0000   1.0000   1.0000   1.0000   1.0000   1.0000
     1.0000   1.0000   1.0000   1.0000   1.0000   1.0000   1.0000   1.0000
     1.0000   1.0000   1.0000   1.0000   1.0000   1.0000   1.0000   1.0000
     1.0000   1.0000   1.0000   1.0000   1.0000   1.0000   1.0000   1.0000
     1.0000   1.0000   1.0000   1.0000   1.0000   1.0000   1.0000   1.0000
     1.0000   1.0000   1.0000   1.0000   1.0000   1.0000   1.0000   1.0000
     1.0000   1.0000   1.0000   1.0000   1.0000   1.0000   1.0000   1.0000
     1.0000   1.0000   1.0000   1.0000   1.0000   1.0000   1.0000   1.0000
     1.0000   1.0000   1.0000   1.0000   1.0000   1.0000   1.0000   1.0000
     1.0000   1.0000   1.0000   1.0000   1.0000   1.0000  -0.0000  -0.0000
    -0.0000  -0.0000  -0.0000  -0.0000  -0.0000  -0.0000  -0.0000  -0.0000
    -0.0000  -0.0000  -0.0000  -0.0000  -0.0000  -0.0000  -0.0000  -0.0000
    -0.0000  -0.0000  -0.0000  -0.0000  -0.0000  -0.0000  -0.0000  -0.0000
    -0.0000  -0.0000  -0.0000  -0.0000  -0.0000  -0.0000  -0.0000  -0.0000
    -0.0000  -0.0000  -0.0000  -0.0000  -0.0000  -0.0000  -0.0000  -0.0000
    -0.0000  -0.0000  -0.0000  -0.0000

          k = 0.0360-0.9057 0.1673 (  9895 PWs)   bands (ev):

   -39.2442 -39.2442 -39.2435 -39.2435 -39.2410 -39.2410 -39.2405 -39.2405
   -39.0325 -39.0325 -38.9929 -38.9929 -38.3508 -38.3508 -38.3501 -38.3501
   -38.3481 -38.3481 -38.3475 -38.3475 -38.3465 -38.3465 -38.3460 -38.3460
   -38.1411 -38.1411 -38.1241 -38.1241 -38.0898 -38.0898 -15.7537 -15.7537
   -15.7535 -15.7535 -15.7440 -15.7439 -15.7429 -15.7429 -12.7810 -12.7810
   -12.7786 -12.7786 -12.7649 -12.7649 -12.7632 -12.7632 -12.7549 -12.7549
   -12.7522 -12.7522  -4.5077  -4.5077  -4.0159  -4.0159  -3.5818  -3.5818
    -1.3311  -1.3311  -0.9026  -0.9026   3.9421   3.9421   5.0949   5.0949
     5.4976   5.4976   5.8509   5.8509   6.2367   6.2367   6.6513   6.6513
     7.0982   7.0982   7.4197   7.4197   7.7942   7.7942   9.7884   9.7884
    10.7784  10.7784  11.1497  11.1497  11.8194  11.8194  12.3796  12.3796
    12.9256  12.9256  13.1113  13.1113  15.5268  15.5268  16.2115  16.2115
    16.9085  16.9085  17.4147  17.4147  17.5144  17.5144  17.9641  17.9641
    18.9494  18.9494  19.1251  19.1251  19.2606  19.2606  19.8434  19.8434
    20.0913  20.0913  20.4044  20.4044  21.1773  21.1773  22.6378  22.6378
    22.9791  22.9792  23.1160  23.1160

     occupation numbers 
     1.0000   1.0000   1.0000   1.0000   1.0000   1.0000   1.0000   1.0000
     1.0000   1.0000   1.0000   1.0000   1.0000   1.0000   1.0000   1.0000
     1.0000   1.0000   1.0000   1.0000   1.0000   1.0000   1.0000   1.0000
     1.0000   1.0000   1.0000   1.0000   1.0000   1.0000   1.0000   1.0000
     1.0000   1.0000   1.0000   1.0000   1.0000   1.0000   1.0000   1.0000
     1.0000   1.0000   1.0000   1.0000   1.0000   1.0000   1.0000   1.0000
     1.0000   1.0000   1.0000   1.0000   1.0000   1.0000   1.0000   1.0000
     1.0000   1.0000   1.0000   1.0000   1.0000   1.0000   1.0000   1.0000
     1.0000   1.0000   1.0000   1.0000   1.0000   1.0000   1.0000   1.0000
     1.0000   1.0000   1.0000   1.0000   1.0000   1.0000  -0.0000  -0.0000
    -0.0000  -0.0000  -0.0000  -0.0000  -0.0000  -0.0000  -0.0000  -0.0000
    -0.0000  -0.0000  -0.0000  -0.0000  -0.0000  -0.0000  -0.0000  -0.0000
    -0.0000  -0.0000  -0.0000  -0.0000  -0.0000  -0.0000  -0.0000  -0.0000
    -0.0000  -0.0000  -0.0000  -0.0000  -0.0000  -0.0000  -0.0000  -0.0000
    -0.0000  -0.0000  -0.0000  -0.0000  -0.0000  -0.0000  -0.0000  -0.0000
    -0.0000  -0.0000  -0.0000  -0.0000

          k =-0.3354-1.1268 0.3347 (  9868 PWs)   bands (ev):

   -39.2435 -39.2435 -39.2431 -39.2431 -39.2407 -39.2407 -39.2404 -39.2404
   -39.0323 -39.0323 -38.9923 -38.9923 -38.3500 -38.3500 -38.3495 -38.3495
   -38.3478 -38.3478 -38.3475 -38.3475 -38.3461 -38.3461 -38.3459 -38.3459
   -38.1408 -38.1408 -38.1239 -38.1239 -38.0891 -38.0891 -15.7536 -15.7536
   -15.7512 -15.7512 -15.7442 -15.7442 -15.7432 -15.7432 -12.7805 -12.7805
   -12.7769 -12.7769 -12.7658 -12.7658 -12.7638 -12.7638 -12.7535 -12.7535
   -12.7516 -12.7516  -3.9913  -3.9913  -3.6992  -3.6992  -3.4975  -3.4975
    -1.6690  -1.6690  -1.4111  -1.4111   3.7604   3.7604   4.6696   4.6696
     5.0006   5.0006   5.4619   5.4619   5.7747   5.7747   6.1118   6.1118
     6.9226   6.9226   7.8148   7.8148   7.9786   7.9786   9.9917   9.9917
    10.4100  10.4100  11.5889  11.5889  12.1314  12.1314  12.7375  12.7375
    13.1866  13.1866  13.5393  13.5393  15.6739  15.6739  15.9353  15.9353
    16.6765  16.6765  17.4647  17.4647  17.8968  17.8968  19.0939  19.0939
    19.2942  19.2942  19.4821  19.4821  20.1234  20.1234  20.5333  20.5333
    20.8586  20.8586  21.1875  21.1875  21.8481  21.8481  22.1787  22.1787
    22.5396  22.5396  23.0015  23.0016

     occupation numbers 
     1.0000   1.0000   1.0000   1.0000   1.0000   1.0000   1.0000   1.0000
     1.0000   1.0000   1.0000   1.0000   1.0000   1.0000   1.0000   1.0000
     1.0000   1.0000   1.0000   1.0000   1.0000   1.0000   1.0000   1.0000
     1.0000   1.0000   1.0000   1.0000   1.0000   1.0000   1.0000   1.0000
     1.0000   1.0000   1.0000   1.0000   1.0000   1.0000   1.0000   1.0000
     1.0000   1.0000   1.0000   1.0000   1.0000   1.0000   1.0000   1.0000
     1.0000   1.0000   1.0000   1.0000   1.0000   1.0000   1.0000   1.0000
     1.0000   1.0000   1.0000   1.0000   1.0000   1.0000   1.0000   1.0000
     1.0000   1.0000   1.0000   1.0000   1.0000   1.0000   1.0000   1.0000
     1.0000   1.0000   1.0000   1.0000   1.0000   1.0000  -0.0000  -0.0000
    -0.0000  -0.0000  -0.0000  -0.0000  -0.0000  -0.0000  -0.0000  -0.0000
    -0.0000  -0.0000  -0.0000  -0.0000  -0.0000  -0.0000  -0.0000  -0.0000
    -0.0000  -0.0000  -0.0000  -0.0000  -0.0000  -0.0000  -0.0000  -0.0000
    -0.0000  -0.0000  -0.0000  -0.0000  -0.0000  -0.0000  -0.0000  -0.0000
    -0.0000  -0.0000  -0.0000  -0.0000  -0.0000  -0.0000  -0.0000  -0.0000
    -0.0000  -0.0000  -0.0000  -0.0000

          k = 1.5219-0.0214-0.5020 (  9892 PWs)   bands (ev):

   -39.2437 -39.2437 -39.2435 -39.2435 -39.2410 -39.2410 -39.2405 -39.2405
   -39.0325 -39.0325 -38.9927 -38.9927 -38.3502 -38.3502 -38.3501 -38.3501
   -38.3479 -38.3479 -38.3475 -38.3475 -38.3465 -38.3465 -38.3462 -38.3461
   -38.1411 -38.1411 -38.1240 -38.1240 -38.0895 -38.0895 -15.7534 -15.7533
   -15.7497 -15.7497 -15.7447 -15.7447 -15.7433 -15.7433 -12.7764 -12.7764
   -12.7743 -12.7743 -12.7691 -12.7691 -12.7650 -12.7650 -12.7531 -12.7531
   -12.7530 -12.7530  -3.5746  -3.5745  -3.5450  -3.5450  -3.4602  -3.4602
    -1.8291  -1.8291  -1.8086  -1.8086   3.8638   3.8638   4.3799   4.3799
     4.5826   4.5826   4.9836   4.9836   5.6588   5.6588   6.1823   6.1823
     6.9185   6.9185   7.6780   7.6780   7.9589   7.9589  10.0631  10.0631
    10.8387  10.8387  11.5429  11.5429  12.5083  12.5083  12.9012  12.9012
    13.2937  13.2937  15.0402  15.0402  15.7057  15.7057  15.9262  15.9262
    16.0847  16.0847  16.4324  16.4324  17.8204  17.8204  18.5085  18.5085
    19.0322  19.0322  19.9328  19.9328  20.0913  20.0913  20.5526  20.5526
    20.7331  20.7331  21.3015  21.3015  22.2672  22.2672  22.3993  22.3993
    23.2931  23.2931  23.4173  23.4173

     occupation numbers 
     1.0000   1.0000   1.0000   1.0000   1.0000   1.0000   1.0000   1.0000
     1.0000   1.0000   1.0000   1.0000   1.0000   1.0000   1.0000   1.0000
     1.0000   1.0000   1.0000   1.0000   1.0000   1.0000   1.0000   1.0000
     1.0000   1.0000   1.0000   1.0000   1.0000   1.0000   1.0000   1.0000
     1.0000   1.0000   1.0000   1.0000   1.0000   1.0000   1.0000   1.0000
     1.0000   1.0000   1.0000   1.0000   1.0000   1.0000   1.0000   1.0000
     1.0000   1.0000   1.0000   1.0000   1.0000   1.0000   1.0000   1.0000
     1.0000   1.0000   1.0000   1.0000   1.0000   1.0000   1.0000   1.0000
     1.0000   1.0000   1.0000   1.0000   1.0000   1.0000   1.0000   1.0000
     1.0000   1.0000   1.0000   1.0000   1.0000   1.0000  -0.0000  -0.0000
    -0.0000  -0.0000  -0.0000  -0.0000  -0.0000  -0.0000  -0.0000  -0.0000
    -0.0000  -0.0000  -0.0000  -0.0000  -0.0000  -0.0000  -0.0000  -0.0000
    -0.0000  -0.0000  -0.0000  -0.0000  -0.0000  -0.0000  -0.0000  -0.0000
    -0.0000  -0.0000  -0.0000  -0.0000  -0.0000  -0.0000  -0.0000  -0.0000
    -0.0000  -0.0000  -0.0000  -0.0000  -0.0000  -0.0000  -0.0000  -0.0000
    -0.0000  -0.0000  -0.0000  -0.0000

          k = 1.1504-0.2425-0.3347 (  9868 PWs)   bands (ev):

   -39.2435 -39.2435 -39.2431 -39.2431 -39.2407 -39.2407 -39.2404 -39.2404
   -39.0323 -39.0323 -38.9923 -38.9923 -38.3500 -38.3500 -38.3495 -38.3495
   -38.3478 -38.3478 -38.3475 -38.3475 -38.3461 -38.3461 -38.3459 -38.3459
   -38.1408 -38.1408 -38.1239 -38.1239 -38.0891 -38.0891 -15.7536 -15.7536
   -15.7512 -15.7512 -15.7442 -15.7442 -15.7432 -15.7432 -12.7805 -12.7805
   -12.7769 -12.7769 -12.7658 -12.7658 -12.7638 -12.7638 -12.7535 -12.7535
   -12.7516 -12.7516  -3.9913  -3.9913  -3.6992  -3.6992  -3.4975  -3.4975
    -1.6690  -1.6690  -1.4111  -1.4111   3.7604   3.7604   4.6696   4.6696
     5.0006   5.0006   5.4619   5.4619   5.7747   5.7747   6.1118   6.1118
     6.9226   6.9226   7.8148   7.8148   7.9786   7.9786   9.9917   9.9917
    10.4100  10.4100  11.5889  11.5889  12.1314  12.1314  12.7375  12.7375
    13.1866  13.1866  13.5393  13.5393  15.6739  15.6739  15.9353  15.9353
    16.6765  16.6765  17.4647  17.4647  17.8968  17.8968  19.0939  19.0939
    19.2942  19.2942  19.4821  19.4821  20.1234  20.1234  20.5333  20.5333
    20.8585  20.8586  21.1875  21.1875  21.8481  21.8481  22.1787  22.1787
    22.5396  22.5396  23.0015  23.0016

     occupation numbers 
     1.0000   1.0000   1.0000   1.0000   1.0000   1.0000   1.0000   1.0000
     1.0000   1.0000   1.0000   1.0000   1.0000   1.0000   1.0000   1.0000
     1.0000   1.0000   1.0000   1.0000   1.0000   1.0000   1.0000   1.0000
     1.0000   1.0000   1.0000   1.0000   1.0000   1.0000   1.0000   1.0000
     1.0000   1.0000   1.0000   1.0000   1.0000   1.0000   1.0000   1.0000
     1.0000   1.0000   1.0000   1.0000   1.0000   1.0000   1.0000   1.0000
     1.0000   1.0000   1.0000   1.0000   1.0000   1.0000   1.0000   1.0000
     1.0000   1.0000   1.0000   1.0000   1.0000   1.0000   1.0000   1.0000
     1.0000   1.0000   1.0000   1.0000   1.0000   1.0000   1.0000   1.0000
     1.0000   1.0000   1.0000   1.0000   1.0000   1.0000  -0.0000  -0.0000
    -0.0000  -0.0000  -0.0000  -0.0000  -0.0000  -0.0000  -0.0000  -0.0000
    -0.0000  -0.0000  -0.0000  -0.0000  -0.0000  -0.0000  -0.0000  -0.0000
    -0.0000  -0.0000  -0.0000  -0.0000  -0.0000  -0.0000  -0.0000  -0.0000
    -0.0000  -0.0000  -0.0000  -0.0000  -0.0000  -0.0000  -0.0000  -0.0000
    -0.0000  -0.0000  -0.0000  -0.0000  -0.0000  -0.0000  -0.0000  -0.0000
    -0.0000  -0.0000  -0.0000  -0.0000

          k = 0.7790-0.4635-0.1673 (  9895 PWs)   bands (ev):

   -39.2442 -39.2442 -39.2435 -39.2435 -39.2410 -39.2410 -39.2405 -39.2405
   -39.0325 -39.0325 -38.9929 -38.9929 -38.3508 -38.3508 -38.3501 -38.3501
   -38.3481 -38.3481 -38.3475 -38.3475 -38.3465 -38.3465 -38.3460 -38.3460
   -38.1411 -38.1411 -38.1241 -38.1241 -38.0898 -38.0898 -15.7537 -15.7537
   -15.7535 -15.7535 -15.7440 -15.7439 -15.7429 -15.7429 -12.7810 -12.7810
   -12.7786 -12.7786 -12.7649 -12.7649 -12.7632 -12.7632 -12.7549 -12.7549
   -12.7522 -12.7522  -4.5077  -4.5077  -4.0159  -4.0159  -3.5818  -3.5818
    -1.3311  -1.3311  -0.9026  -0.9026   3.9421   3.9421   5.0949   5.0949
     5.4976   5.4976   5.8509   5.8509   6.2367   6.2367   6.6513   6.6513
     7.0982   7.0982   7.4197   7.4197   7.7942   7.7942   9.7884   9.7884
    10.7784  10.7784  11.1497  11.1497  11.8194  11.8194  12.3796  12.3796
    12.9256  12.9256  13.1113  13.1113  15.5268  15.5268  16.2115  16.2115
    16.9085  16.9085  17.4147  17.4147  17.5144  17.5144  17.9641  17.9641
    18.9494  18.9494  19.1251  19.1251  19.2606  19.2606  19.8434  19.8434
    20.0913  20.0913  20.4044  20.4044  21.1773  21.1773  22.6378  22.6378
    22.9792  22.9792  23.1160  23.1160

     occupation numbers 
     1.0000   1.0000   1.0000   1.0000   1.0000   1.0000   1.0000   1.0000
     1.0000   1.0000   1.0000   1.0000   1.0000   1.0000   1.0000   1.0000
     1.0000   1.0000   1.0000   1.0000   1.0000   1.0000   1.0000   1.0000
     1.0000   1.0000   1.0000   1.0000   1.0000   1.0000   1.0000   1.0000
     1.0000   1.0000   1.0000   1.0000   1.0000   1.0000   1.0000   1.0000
     1.0000   1.0000   1.0000   1.0000   1.0000   1.0000   1.0000   1.0000
     1.0000   1.0000   1.0000   1.0000   1.0000   1.0000   1.0000   1.0000
     1.0000   1.0000   1.0000   1.0000   1.0000   1.0000   1.0000   1.0000
     1.0000   1.0000   1.0000   1.0000   1.0000   1.0000   1.0000   1.0000
     1.0000   1.0000   1.0000   1.0000   1.0000   1.0000  -0.0000  -0.0000
    -0.0000  -0.0000  -0.0000  -0.0000  -0.0000  -0.0000  -0.0000  -0.0000
    -0.0000  -0.0000  -0.0000  -0.0000  -0.0000  -0.0000  -0.0000  -0.0000
    -0.0000  -0.0000  -0.0000  -0.0000  -0.0000  -0.0000  -0.0000  -0.0000
    -0.0000  -0.0000  -0.0000  -0.0000  -0.0000  -0.0000  -0.0000  -0.0000
    -0.0000  -0.0000  -0.0000  -0.0000  -0.0000  -0.0000  -0.0000  -0.0000
    -0.0000  -0.0000  -0.0000  -0.0000

          k = 0.8148-0.4422-0.0007 (  9889 PWs)   bands (ev):

   -39.2442 -39.2442 -39.2433 -39.2433 -39.2410 -39.2410 -39.2404 -39.2404
   -39.0324 -39.0324 -38.9928 -38.9928 -38.3508 -38.3508 -38.3499 -38.3499
   -38.3481 -38.3481 -38.3475 -38.3475 -38.3465 -38.3465 -38.3459 -38.3459
   -38.1410 -38.1410 -38.1240 -38.1240 -38.0897 -38.0897 -15.7537 -15.7537
   -15.7535 -15.7535 -15.7440 -15.7439 -15.7429 -15.7429 -12.7810 -12.7810
   -12.7786 -12.7786 -12.7649 -12.7649 -12.7631 -12.7631 -12.7549 -12.7549
   -12.7521 -12.7521  -4.4943  -4.4943  -4.0606  -4.0606  -3.5415  -3.5415
    -1.3684  -1.3684  -0.8753  -0.8753   4.0512   4.0512   5.0315   5.0315
     5.3207   5.3207   5.9358   5.9358   6.0417   6.0417   6.5515   6.5515
     7.2978   7.2978   7.5756   7.5756   8.1619   8.1619   9.4224   9.4224
    10.6641  10.6641  11.0360  11.0360  11.6239  11.6239  12.5333  12.5333
    13.1496  13.1496  13.2656  13.2656  15.2988  15.2988  15.9637  15.9637
    17.3943  17.3943  17.4700  17.4700  17.7146  17.7146  18.0189  18.0189
    18.5449  18.5449  19.4325  19.4325  19.5829  19.5829  19.6698  19.6698
    20.0003  20.0003  20.2541  20.2541  21.2021  21.2021  22.2180  22.2180
    22.4231  22.4231  22.7869  22.7869

     occupation numbers 
     1.0000   1.0000   1.0000   1.0000   1.0000   1.0000   1.0000   1.0000
     1.0000   1.0000   1.0000   1.0000   1.0000   1.0000   1.0000   1.0000
     1.0000   1.0000   1.0000   1.0000   1.0000   1.0000   1.0000   1.0000
     1.0000   1.0000   1.0000   1.0000   1.0000   1.0000   1.0000   1.0000
     1.0000   1.0000   1.0000   1.0000   1.0000   1.0000   1.0000   1.0000
     1.0000   1.0000   1.0000   1.0000   1.0000   1.0000   1.0000   1.0000
     1.0000   1.0000   1.0000   1.0000   1.0000   1.0000   1.0000   1.0000
     1.0000   1.0000   1.0000   1.0000   1.0000   1.0000   1.0000   1.0000
     1.0000   1.0000   1.0000   1.0000   1.0000   1.0000   1.0000   1.0000
     1.0000   1.0000   1.0000   1.0000   1.0000   1.0000  -0.0000  -0.0000
    -0.0000  -0.0000  -0.0000  -0.0000  -0.0000  -0.0000  -0.0000  -0.0000
    -0.0000  -0.0000  -0.0000  -0.0000  -0.0000  -0.0000  -0.0000  -0.0000
    -0.0000  -0.0000  -0.0000  -0.0000  -0.0000  -0.0000  -0.0000  -0.0000
    -0.0000  -0.0000  -0.0000  -0.0000  -0.0000  -0.0000  -0.0000  -0.0000
    -0.0000  -0.0000  -0.0000  -0.0000  -0.0000  -0.0000  -0.0000  -0.0000
    -0.0000  -0.0000  -0.0000  -0.0000

          k = 0.4434-0.6633 0.1666 (  9901 PWs)   bands (ev):

   -39.2441 -39.2441 -39.2438 -39.2438 -39.2411 -39.2411 -39.2405 -39.2405
   -39.0326 -39.0326 -38.9930 -38.9930 -38.3506 -38.3506 -38.3505 -38.3505
   -38.3481 -38.3481 -38.3476 -38.3476 -38.3466 -38.3466 -38.3461 -38.3461
   -38.1412 -38.1412 -38.1241 -38.1241 -38.0899 -38.0899 -15.7546 -15.7546
   -15.7533 -15.7533 -15.7441 -15.7441 -15.7429 -15.7429 -12.7802 -12.7802
   -12.7765 -12.7765 -12.7647 -12.7647 -12.7636 -12.7636 -12.7564 -12.7564
   -12.7546 -12.7546  -4.6853  -4.6853  -4.2181  -4.2181  -3.5783  -3.5783
    -1.1447  -1.1447  -0.7390  -0.7390   4.5284   4.5284   4.9959   4.9959
     5.3056   5.3056   5.8756   5.8756   6.2916   6.2916   6.5050   6.5050
     7.4877   7.4877   8.0150   8.0150   8.0764   8.0764   9.7826   9.7826
    10.0663  10.0663  11.0788  11.0788  11.9561  11.9561  12.3893  12.3893
    12.8948  12.8948  14.1047  14.1047  14.1476  14.1476  15.9893  15.9893
    16.5645  16.5645  17.1382  17.1382  17.4797  17.4797  17.8700  17.8700
    18.3783  18.3783  18.7345  18.7345  18.8130  18.8130  19.6971  19.6971
    20.2932  20.2932  20.5801  20.5801  21.0431  21.0431  21.8286  21.8286
    22.2177  22.2177  22.4271  22.4271

     occupation numbers 
     1.0000   1.0000   1.0000   1.0000   1.0000   1.0000   1.0000   1.0000
     1.0000   1.0000   1.0000   1.0000   1.0000   1.0000   1.0000   1.0000
     1.0000   1.0000   1.0000   1.0000   1.0000   1.0000   1.0000   1.0000
     1.0000   1.0000   1.0000   1.0000   1.0000   1.0000   1.0000   1.0000
     1.0000   1.0000   1.0000   1.0000   1.0000   1.0000   1.0000   1.0000
     1.0000   1.0000   1.0000   1.0000   1.0000   1.0000   1.0000   1.0000
     1.0000   1.0000   1.0000   1.0000   1.0000   1.0000   1.0000   1.0000
     1.0000   1.0000   1.0000   1.0000   1.0000   1.0000   1.0000   1.0000
     1.0000   1.0000   1.0000   1.0000   1.0000   1.0000   1.0000   1.0000
     1.0000   1.0000   1.0000   1.0000   1.0000   1.0000  -0.0000  -0.0000
    -0.0000  -0.0000  -0.0000  -0.0000  -0.0000  -0.0000  -0.0000  -0.0000
    -0.0000  -0.0000  -0.0000  -0.0000  -0.0000  -0.0000  -0.0000  -0.0000
    -0.0000  -0.0000  -0.0000  -0.0000  -0.0000  -0.0000  -0.0000  -0.0000
    -0.0000  -0.0000  -0.0000  -0.0000  -0.0000  -0.0000  -0.0000  -0.0000
    -0.0000  -0.0000  -0.0000  -0.0000  -0.0000  -0.0000  -0.0000  -0.0000
    -0.0000  -0.0000  -0.0000  -0.0000

          k = 0.0719-0.8844 0.3339 (  9894 PWs)   bands (ev):

   -39.2441 -39.2441 -39.2436 -39.2436 -39.2411 -39.2411 -39.2404 -39.2404
   -39.0326 -39.0326 -38.9929 -38.9929 -38.3507 -38.3507 -38.3501 -38.3501
   -38.3481 -38.3481 -38.3476 -38.3476 -38.3466 -38.3466 -38.3459 -38.3459
   -38.1411 -38.1411 -38.1241 -38.1241 -38.0897 -38.0897 -15.7537 -15.7537
   -15.7535 -15.7535 -15.7440 -15.7439 -15.7429 -15.7429 -12.7810 -12.7810
   -12.7786 -12.7786 -12.7649 -12.7649 -12.7632 -12.7632 -12.7548 -12.7548
   -12.7522 -12.7522  -4.4815  -4.4815  -4.0798  -4.0798  -3.5433  -3.5433
    -1.2926  -1.2926  -0.9439  -0.9439   3.9247   3.9247   5.0341   5.0341
     5.5891   5.5891   5.8579   5.8579   6.3316   6.3316   6.6505   6.6505
     7.2116   7.2116   7.3254   7.3254   7.5459   7.5459   9.9420   9.9420
    10.8007  10.8007  11.1958  11.1958  11.8458  11.8458  12.3031  12.3031
    12.8478  12.8478  13.1596  13.1596  15.4223  15.4223  16.4612  16.4612
    16.8242  16.8242  17.0987  17.0987  17.4984  17.4984  17.8230  17.8230
    18.5893  18.5893  19.0565  19.0565  19.5083  19.5083  20.1389  20.1389
    20.4611  20.4611  20.8935  20.8935  21.7425  21.7425  22.0667  22.0667
    22.8774  22.8774  23.1781  23.1781

     occupation numbers 
     1.0000   1.0000   1.0000   1.0000   1.0000   1.0000   1.0000   1.0000
     1.0000   1.0000   1.0000   1.0000   1.0000   1.0000   1.0000   1.0000
     1.0000   1.0000   1.0000   1.0000   1.0000   1.0000   1.0000   1.0000
     1.0000   1.0000   1.0000   1.0000   1.0000   1.0000   1.0000   1.0000
     1.0000   1.0000   1.0000   1.0000   1.0000   1.0000   1.0000   1.0000
     1.0000   1.0000   1.0000   1.0000   1.0000   1.0000   1.0000   1.0000
     1.0000   1.0000   1.0000   1.0000   1.0000   1.0000   1.0000   1.0000
     1.0000   1.0000   1.0000   1.0000   1.0000   1.0000   1.0000   1.0000
     1.0000   1.0000   1.0000   1.0000   1.0000   1.0000   1.0000   1.0000
     1.0000   1.0000   1.0000   1.0000   1.0000   1.0000  -0.0000  -0.0000
    -0.0000  -0.0000  -0.0000  -0.0000  -0.0000  -0.0000  -0.0000  -0.0000
    -0.0000  -0.0000  -0.0000  -0.0000  -0.0000  -0.0000  -0.0000  -0.0000
    -0.0000  -0.0000  -0.0000  -0.0000  -0.0000  -0.0000  -0.0000  -0.0000
    -0.0000  -0.0000  -0.0000  -0.0000  -0.0000  -0.0000  -0.0000  -0.0000
    -0.0000  -0.0000  -0.0000  -0.0000  -0.0000  -0.0000  -0.0000  -0.0000
    -0.0000  -0.0000  -0.0000  -0.0000

          k = 1.9292 0.2211-0.5028 (  9871 PWs)   bands (ev):

   -39.2434 -39.2434 -39.2431 -39.2431 -39.2408 -39.2408 -39.2405 -39.2405
   -39.0324 -39.0324 -38.9923 -38.9923 -38.3499 -38.3499 -38.3495 -38.3495
   -38.3477 -38.3477 -38.3475 -38.3475 -38.3463 -38.3463 -38.3460 -38.3460
   -38.1410 -38.1410 -38.1239 -38.1239 -38.0890 -38.0890 -15.7536 -15.7536
   -15.7512 -15.7512 -15.7442 -15.7442 -15.7432 -15.7432 -12.7805 -12.7805
   -12.7769 -12.7769 -12.7658 -12.7658 -12.7638 -12.7638 -12.7535 -12.7535
   -12.7516 -12.7516  -3.9676  -3.9676  -3.7463  -3.7463  -3.4767  -3.4767
    -1.6524  -1.6524  -1.4255  -1.4255   3.8654   3.8654   4.7018   4.7018
     4.9104   4.9104   5.2884   5.2884   5.6519   5.6519   6.0307   6.0307
     7.2918   7.2918   7.9445   7.9445   8.1336   8.1336   9.7560   9.7560
    10.2975  10.2975  11.2441  11.2441  12.1937  12.1937  12.8702  12.8702
    13.3982  13.3982  13.5358  13.5358  15.6363  15.6363  16.1464  16.1464
    16.7490  16.7490  17.1030  17.1030  17.7398  17.7398  19.1734  19.1734
    19.2513  19.2513  19.6895  19.6895  20.4362  20.4362  20.5643  20.5643
    20.9386  20.9386  21.1722  21.1722  21.5840  21.5840  22.2175  22.2175
    22.4226  22.4226  22.9987  23.0019

     occupation numbers 
     1.0000   1.0000   1.0000   1.0000   1.0000   1.0000   1.0000   1.0000
     1.0000   1.0000   1.0000   1.0000   1.0000   1.0000   1.0000   1.0000
     1.0000   1.0000   1.0000   1.0000   1.0000   1.0000   1.0000   1.0000
     1.0000   1.0000   1.0000   1.0000   1.0000   1.0000   1.0000   1.0000
     1.0000   1.0000   1.0000   1.0000   1.0000   1.0000   1.0000   1.0000
     1.0000   1.0000   1.0000   1.0000   1.0000   1.0000   1.0000   1.0000
     1.0000   1.0000   1.0000   1.0000   1.0000   1.0000   1.0000   1.0000
     1.0000   1.0000   1.0000   1.0000   1.0000   1.0000   1.0000   1.0000
     1.0000   1.0000   1.0000   1.0000   1.0000   1.0000   1.0000   1.0000
     1.0000   1.0000   1.0000   1.0000   1.0000   1.0000  -0.0000  -0.0000
    -0.0000  -0.0000  -0.0000  -0.0000  -0.0000  -0.0000  -0.0000  -0.0000
    -0.0000  -0.0000  -0.0000  -0.0000  -0.0000  -0.0000  -0.0000  -0.0000
    -0.0000  -0.0000  -0.0000  -0.0000  -0.0000  -0.0000  -0.0000  -0.0000
    -0.0000  -0.0000  -0.0000  -0.0000  -0.0000  -0.0000  -0.0000  -0.0000
    -0.0000  -0.0000  -0.0000  -0.0000  -0.0000  -0.0000  -0.0000  -0.0000
    -0.0000  -0.0000  -0.0000  -0.0000

          k = 1.5578-0.0000-0.3354 (  9886 PWs)   bands (ev):

   -39.2437 -39.2437 -39.2436 -39.2436 -39.2407 -39.2407 -39.2405 -39.2405
   -39.0324 -39.0324 -38.9927 -38.9927 -38.3502 -38.3502 -38.3501 -38.3501
   -38.3478 -38.3478 -38.3477 -38.3477 -38.3462 -38.3462 -38.3459 -38.3459
   -38.1409 -38.1409 -38.1240 -38.1240 -38.0895 -38.0895 -15.7534 -15.7533
   -15.7497 -15.7497 -15.7447 -15.7447 -15.7433 -15.7433 -12.7764 -12.7764
   -12.7743 -12.7743 -12.7691 -12.7691 -12.7650 -12.7650 -12.7531 -12.7531
   -12.7530 -12.7530  -3.5746  -3.5745  -3.5450  -3.5450  -3.4602  -3.4602
    -1.8291  -1.8291  -1.8086  -1.8086   3.8643   3.8643   4.3666   4.3666
     4.6159   4.6159   4.9448   4.9448   5.7266   5.7266   6.0966   6.0966
     7.0107   7.0107   7.5515   7.5515   8.0354   8.0354  10.0378  10.0378
    10.8881  10.8881  11.4954  11.4954  12.5644  12.5644  12.8508  12.8508
    13.3055  13.3055  15.0403  15.0403  15.7294  15.7294  15.8448  15.8448
    16.2340  16.2340  16.3256  16.3256  18.0558  18.0558  18.1167  18.1167
    19.5275  19.5275  19.6011  19.6011  20.0575  20.0575  20.4161  20.4161
    20.8476  20.8476  21.4294  21.4294  22.1724  22.1724  22.5992  22.5992
    22.9215  22.9216  23.5006  23.5007

     occupation numbers 
     1.0000   1.0000   1.0000   1.0000   1.0000   1.0000   1.0000   1.0000
     1.0000   1.0000   1.0000   1.0000   1.0000   1.0000   1.0000   1.0000
     1.0000   1.0000   1.0000   1.0000   1.0000   1.0000   1.0000   1.0000
     1.0000   1.0000   1.0000   1.0000   1.0000   1.0000   1.0000   1.0000
     1.0000   1.0000   1.0000   1.0000   1.0000   1.0000   1.0000   1.0000
     1.0000   1.0000   1.0000   1.0000   1.0000   1.0000   1.0000   1.0000
     1.0000   1.0000   1.0000   1.0000   1.0000   1.0000   1.0000   1.0000
     1.0000   1.0000   1.0000   1.0000   1.0000   1.0000   1.0000   1.0000
     1.0000   1.0000   1.0000   1.0000   1.0000   1.0000   1.0000   1.0000
     1.0000   1.0000   1.0000   1.0000   1.0000   1.0000  -0.0000  -0.0000
    -0.0000  -0.0000  -0.0000  -0.0000  -0.0000  -0.0000  -0.0000  -0.0000
    -0.0000  -0.0000  -0.0000  -0.0000  -0.0000  -0.0000  -0.0000  -0.0000
    -0.0000  -0.0000  -0.0000  -0.0000  -0.0000  -0.0000  -0.0000  -0.0000
    -0.0000  -0.0000  -0.0000  -0.0000  -0.0000  -0.0000  -0.0000  -0.0000
    -0.0000  -0.0000  -0.0000  -0.0000  -0.0000  -0.0000  -0.0000  -0.0000
    -0.0000  -0.0000  -0.0000  -0.0000

          k = 1.1863-0.2211-0.1681 (  9870 PWs)   bands (ev):

   -39.2435 -39.2435 -39.2432 -39.2432 -39.2407 -39.2407 -39.2404 -39.2404
   -39.0323 -39.0323 -38.9924 -38.9924 -38.3499 -38.3499 -38.3497 -38.3497
   -38.3479 -38.3479 -38.3476 -38.3476 -38.3461 -38.3461 -38.3458 -38.3458
   -38.1408 -38.1408 -38.1240 -38.1240 -38.0891 -38.0891 -15.7536 -15.7536
   -15.7512 -15.7512 -15.7442 -15.7442 -15.7432 -15.7432 -12.7805 -12.7805
   -12.7769 -12.7769 -12.7658 -12.7658 -12.7638 -12.7638 -12.7535 -12.7535
   -12.7515 -12.7515  -3.9877  -3.9877  -3.7159  -3.7159  -3.4827  -3.4827
    -1.6720  -1.6720  -1.4095  -1.4095   3.7420   3.7420   4.5821   4.5821
     4.9718   4.9718   5.4945   5.4945   6.0512   6.0512   6.3038   6.3038
     6.8347   6.8347   7.4769   7.4769   7.7371   7.7371  10.3003  10.3003
    10.6284  10.6284  11.5865  11.5865  12.1670  12.1670  12.5182  12.5182
    13.0651  13.0651  13.7143  13.7143  15.2443  15.2443  15.6550  15.6550
    17.1565  17.1565  17.7904  17.7904  18.4634  18.4634  18.7684  18.7684
    19.2110  19.2110  19.4675  19.4675  20.1693  20.1693  20.4511  20.4511
    20.7203  20.7203  21.1766  21.1766  21.5249  21.5249  21.8720  21.8720
    22.1707  22.1707  22.5372  22.5372

     occupation numbers 
     1.0000   1.0000   1.0000   1.0000   1.0000   1.0000   1.0000   1.0000
     1.0000   1.0000   1.0000   1.0000   1.0000   1.0000   1.0000   1.0000
     1.0000   1.0000   1.0000   1.0000   1.0000   1.0000   1.0000   1.0000
     1.0000   1.0000   1.0000   1.0000   1.0000   1.0000   1.0000   1.0000
     1.0000   1.0000   1.0000   1.0000   1.0000   1.0000   1.0000   1.0000
     1.0000   1.0000   1.0000   1.0000   1.0000   1.0000   1.0000   1.0000
     1.0000   1.0000   1.0000   1.0000   1.0000   1.0000   1.0000   1.0000
     1.0000   1.0000   1.0000   1.0000   1.0000   1.0000   1.0000   1.0000
     1.0000   1.0000   1.0000   1.0000   1.0000   1.0000   1.0000   1.0000
     1.0000   1.0000   1.0000   1.0000   1.0000   1.0000  -0.0000  -0.0000
    -0.0000  -0.0000  -0.0000  -0.0000  -0.0000  -0.0000  -0.0000  -0.0000
    -0.0000  -0.0000  -0.0000  -0.0000  -0.0000  -0.0000  -0.0000  -0.0000
    -0.0000  -0.0000  -0.0000  -0.0000  -0.0000  -0.0000  -0.0000  -0.0000
    -0.0000  -0.0000  -0.0000  -0.0000  -0.0000  -0.0000  -0.0000  -0.0000
    -0.0000  -0.0000  -0.0000  -0.0000  -0.0000  -0.0000  -0.0000  -0.0000
    -0.0000  -0.0000  -0.0000  -0.0000

          k = 0.8148 0.0214-0.0011 (  9901 PWs)   bands (ev):

   -39.2441 -39.2441 -39.2438 -39.2438 -39.2411 -39.2411 -39.2405 -39.2405
   -39.0326 -39.0326 -38.9930 -38.9930 -38.3506 -38.3506 -38.3505 -38.3505
   -38.3481 -38.3481 -38.3476 -38.3476 -38.3466 -38.3466 -38.3461 -38.3461
   -38.1412 -38.1412 -38.1241 -38.1241 -38.0899 -38.0899 -15.7546 -15.7546
   -15.7533 -15.7533 -15.7441 -15.7441 -15.7429 -15.7429 -12.7802 -12.7802
   -12.7765 -12.7765 -12.7647 -12.7647 -12.7636 -12.7636 -12.7564 -12.7564
   -12.7546 -12.7546  -4.6853  -4.6853  -4.2181  -4.2181  -3.5783  -3.5783
    -1.1447  -1.1447  -0.7390  -0.7390   4.5284   4.5284   4.9959   4.9959
     5.3056   5.3056   5.8756   5.8756   6.2916   6.2916   6.5050   6.5050
     7.4877   7.4877   8.0150   8.0150   8.0764   8.0764   9.7826   9.7826
    10.0663  10.0663  11.0788  11.0788  11.9561  11.9561  12.3893  12.3893
    12.8948  12.8948  14.1047  14.1047  14.1476  14.1476  15.9893  15.9893
    16.5645  16.5645  17.1382  17.1382  17.4797  17.4797  17.8700  17.8700
    18.3783  18.3783  18.7345  18.7345  18.8130  18.8130  19.6971  19.6971
    20.2932  20.2932  20.5801  20.5801  21.0431  21.0431  21.8286  21.8286
    22.2177  22.2177  22.4271  22.4272

     occupation numbers 
     1.0000   1.0000   1.0000   1.0000   1.0000   1.0000   1.0000   1.0000
     1.0000   1.0000   1.0000   1.0000   1.0000   1.0000   1.0000   1.0000
     1.0000   1.0000   1.0000   1.0000   1.0000   1.0000   1.0000   1.0000
     1.0000   1.0000   1.0000   1.0000   1.0000   1.0000   1.0000   1.0000
     1.0000   1.0000   1.0000   1.0000   1.0000   1.0000   1.0000   1.0000
     1.0000   1.0000   1.0000   1.0000   1.0000   1.0000   1.0000   1.0000
     1.0000   1.0000   1.0000   1.0000   1.0000   1.0000   1.0000   1.0000
     1.0000   1.0000   1.0000   1.0000   1.0000   1.0000   1.0000   1.0000
     1.0000   1.0000   1.0000   1.0000   1.0000   1.0000   1.0000   1.0000
     1.0000   1.0000   1.0000   1.0000   1.0000   1.0000  -0.0000  -0.0000
    -0.0000  -0.0000  -0.0000  -0.0000  -0.0000  -0.0000  -0.0000  -0.0000
    -0.0000  -0.0000  -0.0000  -0.0000  -0.0000  -0.0000  -0.0000  -0.0000
    -0.0000  -0.0000  -0.0000  -0.0000  -0.0000  -0.0000  -0.0000  -0.0000
    -0.0000  -0.0000  -0.0000  -0.0000  -0.0000  -0.0000  -0.0000  -0.0000
    -0.0000  -0.0000  -0.0000  -0.0000  -0.0000  -0.0000  -0.0000  -0.0000
    -0.0000  -0.0000  -0.0000  -0.0000

          k = 0.4433-0.1997 0.1662 (  9930 PWs)   bands (ev):

   -39.2446 -39.2446 -39.2441 -39.2441 -39.2413 -39.2413 -39.2407 -39.2407
   -39.0328 -39.0328 -38.9934 -38.9934 -38.3512 -38.3512 -38.3507 -38.3507
   -38.3483 -38.3483 -38.3478 -38.3478 -38.3468 -38.3468 -38.3464 -38.3464
   -38.1414 -38.1414 -38.1243 -38.1243 -38.0903 -38.0903 -15.7557 -15.7557
   -15.7555 -15.7555 -15.7441 -15.7441 -15.7426 -15.7426 -12.7804 -12.7804
   -12.7786 -12.7785 -12.7628 -12.7628 -12.7624 -12.7624 -12.7588 -12.7588
   -12.7569 -12.7569  -5.0997  -5.0997  -4.6288  -4.6288  -3.7080  -3.7080
    -0.9503  -0.9503  -0.1117  -0.1117   5.2523   5.2524   5.6004   5.6004
     6.0694   6.0694   6.5586   6.5586   6.6571   6.6571   7.3929   7.3929
     7.5616   7.5616   7.6922   7.6922   8.1558   8.1558   9.3512   9.3512
    10.0382  10.0382  10.8933  10.8933  11.2884  11.2884  11.7614  11.7614
    12.2385  12.2385  14.0702  14.0702  15.1438  15.1438  15.8019  15.8019
    16.2702  16.2702  16.3324  16.3324  16.7858  16.7858  17.0244  17.0244
    17.8004  17.8004  18.5592  18.5592  18.8678  18.8678  18.9884  18.9884
    19.2841  19.2841  19.6307  19.6307  19.7334  19.7334  20.3626  20.3626
    20.6465  20.6466  21.4805  21.4805

     occupation numbers 
     1.0000   1.0000   1.0000   1.0000   1.0000   1.0000   1.0000   1.0000
     1.0000   1.0000   1.0000   1.0000   1.0000   1.0000   1.0000   1.0000
     1.0000   1.0000   1.0000   1.0000   1.0000   1.0000   1.0000   1.0000
     1.0000   1.0000   1.0000   1.0000   1.0000   1.0000   1.0000   1.0000
     1.0000   1.0000   1.0000   1.0000   1.0000   1.0000   1.0000   1.0000
     1.0000   1.0000   1.0000   1.0000   1.0000   1.0000   1.0000   1.0000
     1.0000   1.0000   1.0000   1.0000   1.0000   1.0000   1.0000   1.0000
     1.0000   1.0000   1.0000   1.0000   1.0000   1.0000   1.0000   1.0000
     1.0000   1.0000   1.0000   1.0000   1.0000   1.0000   1.0000   1.0000
     1.0000   1.0000   1.0000   1.0000   1.0000   1.0000  -0.0000  -0.0000
    -0.0000  -0.0000  -0.0000  -0.0000  -0.0000  -0.0000  -0.0000  -0.0000
    -0.0000  -0.0000  -0.0000  -0.0000  -0.0000  -0.0000  -0.0000  -0.0000
    -0.0000  -0.0000  -0.0000  -0.0000  -0.0000  -0.0000  -0.0000  -0.0000
    -0.0000  -0.0000  -0.0000  -0.0000  -0.0000  -0.0000  -0.0000  -0.0000
    -0.0000  -0.0000  -0.0000  -0.0000  -0.0000  -0.0000  -0.0000  -0.0000
    -0.0000  -0.0000  -0.0000  -0.0000

          k = 0.0718-0.4208 0.3336 (  9919 PWs)   bands (ev):

   -39.2445 -39.2445 -39.2441 -39.2441 -39.2412 -39.2412 -39.2406 -39.2406
   -39.0326 -39.0326 -38.9933 -38.9933 -38.3511 -38.3511 -38.3508 -38.3508
   -38.3481 -38.3481 -38.3476 -38.3476 -38.3468 -38.3468 -38.3462 -38.3462
   -38.1413 -38.1413 -38.1242 -38.1242 -38.0903 -38.0903 -15.7557 -15.7557
   -15.7555 -15.7555 -15.7441 -15.7441 -15.7426 -15.7426 -12.7804 -12.7804
   -12.7785 -12.7785 -12.7628 -12.7628 -12.7625 -12.7625 -12.7587 -12.7587
   -12.7569 -12.7569  -5.0801  -5.0801  -4.6692  -4.6692  -3.6790  -3.6790
    -0.9605  -0.9605  -0.1168  -0.1168   5.2036   5.2036   5.8262   5.8262
     6.0476   6.0476   6.4813   6.4813   6.7150   6.7151   7.0306   7.0306
     7.5384   7.5384   7.9465   7.9465   8.2061   8.2061   9.2938   9.2938
     9.9477   9.9477  10.7511  10.7511  11.2865  11.2865  12.0340  12.0340
    12.3470  12.3470  14.3519  14.3519  14.8371  14.8371  15.8104  15.8104
    15.9891  15.9891  16.3749  16.3749  16.9323  16.9323  17.6195  17.6195
    17.7235  17.7235  17.8337  17.8337  17.9812  17.9812  18.7985  18.7985
    19.2085  19.2085  19.4606  19.4606  20.4447  20.4447  20.6393  20.6393
    21.3598  21.3598  21.6348  21.6350

     occupation numbers 
     1.0000   1.0000   1.0000   1.0000   1.0000   1.0000   1.0000   1.0000
     1.0000   1.0000   1.0000   1.0000   1.0000   1.0000   1.0000   1.0000
     1.0000   1.0000   1.0000   1.0000   1.0000   1.0000   1.0000   1.0000
     1.0000   1.0000   1.0000   1.0000   1.0000   1.0000   1.0000   1.0000
     1.0000   1.0000   1.0000   1.0000   1.0000   1.0000   1.0000   1.0000
     1.0000   1.0000   1.0000   1.0000   1.0000   1.0000   1.0000   1.0000
     1.0000   1.0000   1.0000   1.0000   1.0000   1.0000   1.0000   1.0000
     1.0000   1.0000   1.0000   1.0000   1.0000   1.0000   1.0000   1.0000
     1.0000   1.0000   1.0000   1.0000   1.0000   1.0000   1.0000   1.0000
     1.0000   1.0000   1.0000   1.0000   1.0002   1.0002  -0.0000  -0.0000
    -0.0000  -0.0000  -0.0000  -0.0000  -0.0000  -0.0000  -0.0000  -0.0000
    -0.0000  -0.0000  -0.0000  -0.0000  -0.0000  -0.0000  -0.0000  -0.0000
    -0.0000  -0.0000  -0.0000  -0.0000  -0.0000  -0.0000  -0.0000  -0.0000
    -0.0000  -0.0000  -0.0000  -0.0000  -0.0000  -0.0000  -0.0000  -0.0000
    -0.0000  -0.0000  -0.0000  -0.0000  -0.0000  -0.0000  -0.0000  -0.0000
    -0.0000  -0.0000  -0.0000  -0.0000

          k = 1.9292 0.6846-0.5032 (  9898 PWs)   bands (ev):

   -39.2441 -39.2441 -39.2437 -39.2437 -39.2412 -39.2412 -39.2404 -39.2404
   -39.0326 -39.0326 -38.9929 -38.9929 -38.3506 -38.3506 -38.3503 -38.3503
   -38.3481 -38.3481 -38.3474 -38.3474 -38.3467 -38.3467 -38.3461 -38.3461
   -38.1412 -38.1412 -38.1241 -38.1241 -38.0898 -38.0898 -15.7546 -15.7546
   -15.7533 -15.7533 -15.7441 -15.7441 -15.7429 -15.7429 -12.7802 -12.7802
   -12.7765 -12.7765 -12.7647 -12.7647 -12.7636 -12.7636 -12.7563 -12.7563
   -12.7546 -12.7546  -4.6271  -4.6271  -4.3377  -4.3377  -3.4994  -3.4994
    -1.1967  -1.1967  -0.7043  -0.7043   4.4679   4.4679   4.9273   4.9273
     5.3615   5.3615   5.9599   5.9599   6.3547   6.3547   6.7617   6.7617
     7.3013   7.3013   7.7818   7.7818   7.9204   7.9204  10.0257  10.0257
    10.1935  10.1935  11.2849  11.2849  11.8151  11.8151  12.2409  12.2409
    12.7490  12.7490  14.2711  14.2711  14.3430  14.3430  15.3584  15.3584
    15.9792  15.9792  17.3858  17.3858  17.7120  17.7120  18.2734  18.2734
    18.5836  18.5836  19.0637  19.0637  19.5431  19.5431  19.8478  19.8478
    20.0114  20.0114  20.2563  20.2563  20.7150  20.7150  21.4559  21.4559
    22.1176  22.1176  22.2628  22.2628

     occupation numbers 
     1.0000   1.0000   1.0000   1.0000   1.0000   1.0000   1.0000   1.0000
     1.0000   1.0000   1.0000   1.0000   1.0000   1.0000   1.0000   1.0000
     1.0000   1.0000   1.0000   1.0000   1.0000   1.0000   1.0000   1.0000
     1.0000   1.0000   1.0000   1.0000   1.0000   1.0000   1.0000   1.0000
     1.0000   1.0000   1.0000   1.0000   1.0000   1.0000   1.0000   1.0000
     1.0000   1.0000   1.0000   1.0000   1.0000   1.0000   1.0000   1.0000
     1.0000   1.0000   1.0000   1.0000   1.0000   1.0000   1.0000   1.0000
     1.0000   1.0000   1.0000   1.0000   1.0000   1.0000   1.0000   1.0000
     1.0000   1.0000   1.0000   1.0000   1.0000   1.0000   1.0000   1.0000
     1.0000   1.0000   1.0000   1.0000   1.0000   1.0000  -0.0000  -0.0000
    -0.0000  -0.0000  -0.0000  -0.0000  -0.0000  -0.0000  -0.0000  -0.0000
    -0.0000  -0.0000  -0.0000  -0.0000  -0.0000  -0.0000  -0.0000  -0.0000
    -0.0000  -0.0000  -0.0000  -0.0000  -0.0000  -0.0000  -0.0000  -0.0000
    -0.0000  -0.0000  -0.0000  -0.0000  -0.0000  -0.0000  -0.0000  -0.0000
    -0.0000  -0.0000  -0.0000  -0.0000  -0.0000  -0.0000  -0.0000  -0.0000
    -0.0000  -0.0000  -0.0000  -0.0000

          k = 1.5577 0.4635-0.3358 (  9895 PWs)   bands (ev):

   -39.2437 -39.2437 -39.2435 -39.2435 -39.2410 -39.2410 -39.2408 -39.2408
   -39.0327 -39.0327 -38.9927 -38.9927 -38.3502 -38.3502 -38.3500 -38.3500
   -38.3480 -38.3480 -38.3479 -38.3479 -38.3464 -38.3464 -38.3463 -38.3463
   -38.1412 -38.1412 -38.1242 -38.1242 -38.0894 -38.0894 -15.7536 -15.7536
   -15.7512 -15.7512 -15.7442 -15.7442 -15.7432 -15.7432 -12.7805 -12.7805
   -12.7769 -12.7769 -12.7658 -12.7658 -12.7638 -12.7638 -12.7535 -12.7535
   -12.7516 -12.7516  -3.9053  -3.9053  -3.8438  -3.8438  -3.4407  -3.4407
    -1.6405  -1.6405  -1.4379  -1.4379   3.9413   3.9413   4.5849   4.5849
     4.7756   4.7756   5.0980   5.0980   5.9898   5.9898   6.5014   6.5014
     7.2670   7.2670   7.4057   7.4057   7.9438   7.9438   9.9732   9.9732
    10.6749  10.6749  11.2410  11.2410  12.0144  12.0144  12.5684  12.5684
    13.4976  13.4976  13.8877  13.8877  14.8617  14.8617  15.7019  15.7019
    17.3440  17.3440  17.7716  17.7716  18.3595  18.3595  19.1625  19.1625
    19.3444  19.3444  19.6779  19.6779  20.0454  20.0454  20.5691  20.5691
    20.6743  20.6743  21.1248  21.1248  21.2469  21.2469  21.4277  21.4277
    22.1332  22.1332  22.6801  22.6802

     occupation numbers 
     1.0000   1.0000   1.0000   1.0000   1.0000   1.0000   1.0000   1.0000
     1.0000   1.0000   1.0000   1.0000   1.0000   1.0000   1.0000   1.0000
     1.0000   1.0000   1.0000   1.0000   1.0000   1.0000   1.0000   1.0000
     1.0000   1.0000   1.0000   1.0000   1.0000   1.0000   1.0000   1.0000
     1.0000   1.0000   1.0000   1.0000   1.0000   1.0000   1.0000   1.0000
     1.0000   1.0000   1.0000   1.0000   1.0000   1.0000   1.0000   1.0000
     1.0000   1.0000   1.0000   1.0000   1.0000   1.0000   1.0000   1.0000
     1.0000   1.0000   1.0000   1.0000   1.0000   1.0000   1.0000   1.0000
     1.0000   1.0000   1.0000   1.0000   1.0000   1.0000   1.0000   1.0000
     1.0000   1.0000   1.0000   1.0000   1.0000   1.0000  -0.0000  -0.0000
    -0.0000  -0.0000  -0.0000  -0.0000  -0.0000  -0.0000  -0.0000  -0.0000
    -0.0000  -0.0000  -0.0000  -0.0000  -0.0000  -0.0000  -0.0000  -0.0000
    -0.0000  -0.0000  -0.0000  -0.0000  -0.0000  -0.0000  -0.0000  -0.0000
    -0.0000  -0.0000  -0.0000  -0.0000  -0.0000  -0.0000  -0.0000  -0.0000
    -0.0000  -0.0000  -0.0000  -0.0000  -0.0000  -0.0000  -0.0000  -0.0000
    -0.0000  -0.0000  -0.0000  -0.0000

          k = 1.1862 0.2424-0.1685 (  9868 PWs)   bands (ev):

   -39.2435 -39.2435 -39.2431 -39.2431 -39.2407 -39.2407 -39.2404 -39.2404
   -39.0323 -39.0323 -38.9923 -38.9923 -38.3500 -38.3500 -38.3495 -38.3495
   -38.3478 -38.3478 -38.3475 -38.3475 -38.3461 -38.3461 -38.3459 -38.3459
   -38.1408 -38.1408 -38.1239 -38.1239 -38.0891 -38.0891 -15.7536 -15.7536
   -15.7512 -15.7512 -15.7442 -15.7442 -15.7432 -15.7432 -12.7805 -12.7805
   -12.7769 -12.7769 -12.7658 -12.7658 -12.7638 -12.7638 -12.7535 -12.7535
   -12.7516 -12.7516  -3.9913  -3.9913  -3.6992  -3.6992  -3.4975  -3.4975
    -1.6690  -1.6690  -1.4111  -1.4111   3.7604   3.7604   4.6696   4.6696
     5.0006   5.0006   5.4619   5.4619   5.7747   5.7747   6.1118   6.1118
     6.9226   6.9226   7.8148   7.8148   7.9786   7.9786   9.9917   9.9917
    10.4100  10.4100  11.5889  11.5889  12.1314  12.1314  12.7375  12.7375
    13.1866  13.1866  13.5393  13.5393  15.6739  15.6739  15.9353  15.9353
    16.6765  16.6765  17.4647  17.4647  17.8968  17.8968  19.0939  19.0939
    19.2942  19.2942  19.4821  19.4821  20.1234  20.1234  20.5333  20.5333
    20.8586  20.8586  21.1875  21.1875  21.8481  21.8481  22.1787  22.1787
    22.5396  22.5396  23.0015  23.0017

     occupation numbers 
     1.0000   1.0000   1.0000   1.0000   1.0000   1.0000   1.0000   1.0000
     1.0000   1.0000   1.0000   1.0000   1.0000   1.0000   1.0000   1.0000
     1.0000   1.0000   1.0000   1.0000   1.0000   1.0000   1.0000   1.0000
     1.0000   1.0000   1.0000   1.0000   1.0000   1.0000   1.0000   1.0000
     1.0000   1.0000   1.0000   1.0000   1.0000   1.0000   1.0000   1.0000
     1.0000   1.0000   1.0000   1.0000   1.0000   1.0000   1.0000   1.0000
     1.0000   1.0000   1.0000   1.0000   1.0000   1.0000   1.0000   1.0000
     1.0000   1.0000   1.0000   1.0000   1.0000   1.0000   1.0000   1.0000
     1.0000   1.0000   1.0000   1.0000   1.0000   1.0000   1.0000   1.0000
     1.0000   1.0000   1.0000   1.0000   1.0000   1.0000  -0.0000  -0.0000
    -0.0000  -0.0000  -0.0000  -0.0000  -0.0000  -0.0000  -0.0000  -0.0000
    -0.0000  -0.0000  -0.0000  -0.0000  -0.0000  -0.0000  -0.0000  -0.0000
    -0.0000  -0.0000  -0.0000  -0.0000  -0.0000  -0.0000  -0.0000  -0.0000
    -0.0000  -0.0000  -0.0000  -0.0000  -0.0000  -0.0000  -0.0000  -0.0000
    -0.0000  -0.0000  -0.0000  -0.0000  -0.0000  -0.0000  -0.0000  -0.0000
    -0.0000  -0.0000  -0.0000  -0.0000

          k = 0.8147 0.4849-0.0015 (  9894 PWs)   bands (ev):

   -39.2441 -39.2441 -39.2436 -39.2436 -39.2411 -39.2411 -39.2404 -39.2404
   -39.0326 -39.0326 -38.9929 -38.9929 -38.3507 -38.3507 -38.3501 -38.3501
   -38.3481 -38.3481 -38.3476 -38.3476 -38.3466 -38.3466 -38.3459 -38.3459
   -38.1411 -38.1411 -38.1241 -38.1241 -38.0897 -38.0897 -15.7537 -15.7537
   -15.7535 -15.7535 -15.7440 -15.7439 -15.7429 -15.7429 -12.7810 -12.7810
   -12.7786 -12.7786 -12.7649 -12.7649 -12.7632 -12.7632 -12.7548 -12.7548
   -12.7522 -12.7522  -4.4815  -4.4815  -4.0798  -4.0798  -3.5433  -3.5433
    -1.2926  -1.2926  -0.9439  -0.9439   3.9247   3.9247   5.0341   5.0341
     5.5891   5.5891   5.8579   5.8579   6.3316   6.3316   6.6505   6.6505
     7.2116   7.2116   7.3254   7.3254   7.5459   7.5459   9.9420   9.9420
    10.8007  10.8007  11.1958  11.1958  11.8458  11.8458  12.3031  12.3031
    12.8478  12.8478  13.1596  13.1596  15.4223  15.4223  16.4612  16.4612
    16.8242  16.8242  17.0987  17.0987  17.4984  17.4984  17.8230  17.8230
    18.5894  18.5894  19.0565  19.0565  19.5083  19.5083  20.1389  20.1389
    20.4611  20.4611  20.8935  20.8935  21.7425  21.7425  22.0667  22.0667
    22.8774  22.8774  23.1781  23.1782

     occupation numbers 
     1.0000   1.0000   1.0000   1.0000   1.0000   1.0000   1.0000   1.0000
     1.0000   1.0000   1.0000   1.0000   1.0000   1.0000   1.0000   1.0000
     1.0000   1.0000   1.0000   1.0000   1.0000   1.0000   1.0000   1.0000
     1.0000   1.0000   1.0000   1.0000   1.0000   1.0000   1.0000   1.0000
     1.0000   1.0000   1.0000   1.0000   1.0000   1.0000   1.0000   1.0000
     1.0000   1.0000   1.0000   1.0000   1.0000   1.0000   1.0000   1.0000
     1.0000   1.0000   1.0000   1.0000   1.0000   1.0000   1.0000   1.0000
     1.0000   1.0000   1.0000   1.0000   1.0000   1.0000   1.0000   1.0000
     1.0000   1.0000   1.0000   1.0000   1.0000   1.0000   1.0000   1.0000
     1.0000   1.0000   1.0000   1.0000   1.0000   1.0000  -0.0000  -0.0000
    -0.0000  -0.0000  -0.0000  -0.0000  -0.0000  -0.0000  -0.0000  -0.0000
    -0.0000  -0.0000  -0.0000  -0.0000  -0.0000  -0.0000  -0.0000  -0.0000
    -0.0000  -0.0000  -0.0000  -0.0000  -0.0000  -0.0000  -0.0000  -0.0000
    -0.0000  -0.0000  -0.0000  -0.0000  -0.0000  -0.0000  -0.0000  -0.0000
    -0.0000  -0.0000  -0.0000  -0.0000  -0.0000  -0.0000  -0.0000  -0.0000
    -0.0000  -0.0000  -0.0000  -0.0000

          k = 0.4432 0.2638 0.1659 (  9919 PWs)   bands (ev):

   -39.2445 -39.2445 -39.2441 -39.2441 -39.2412 -39.2412 -39.2406 -39.2406
   -39.0326 -39.0326 -38.9933 -38.9933 -38.3511 -38.3511 -38.3508 -38.3508
   -38.3481 -38.3481 -38.3476 -38.3476 -38.3468 -38.3468 -38.3462 -38.3462
   -38.1413 -38.1413 -38.1242 -38.1242 -38.0903 -38.0903 -15.7557 -15.7557
   -15.7555 -15.7555 -15.7441 -15.7441 -15.7426 -15.7426 -12.7804 -12.7804
   -12.7785 -12.7785 -12.7628 -12.7628 -12.7625 -12.7625 -12.7587 -12.7587
   -12.7569 -12.7569  -5.0801  -5.0801  -4.6692  -4.6692  -3.6790  -3.6790
    -0.9605  -0.9605  -0.1168  -0.1168   5.2036   5.2036   5.8262   5.8262
     6.0476   6.0476   6.4813   6.4813   6.7150   6.7151   7.0306   7.0306
     7.5384   7.5384   7.9465   7.9465   8.2061   8.2061   9.2938   9.2938
     9.9477   9.9477  10.7511  10.7511  11.2865  11.2865  12.0340  12.0340
    12.3470  12.3470  14.3519  14.3519  14.8371  14.8371  15.8104  15.8104
    15.9891  15.9891  16.3749  16.3749  16.9323  16.9323  17.6195  17.6195
    17.7235  17.7235  17.8337  17.8337  17.9812  17.9812  18.7985  18.7985
    19.2085  19.2085  19.4606  19.4606  20.4447  20.4447  20.6393  20.6393
    21.3597  21.3598  21.6348  21.6349

     occupation numbers 
     1.0000   1.0000   1.0000   1.0000   1.0000   1.0000   1.0000   1.0000
     1.0000   1.0000   1.0000   1.0000   1.0000   1.0000   1.0000   1.0000
     1.0000   1.0000   1.0000   1.0000   1.0000   1.0000   1.0000   1.0000
     1.0000   1.0000   1.0000   1.0000   1.0000   1.0000   1.0000   1.0000
     1.0000   1.0000   1.0000   1.0000   1.0000   1.0000   1.0000   1.0000
     1.0000   1.0000   1.0000   1.0000   1.0000   1.0000   1.0000   1.0000
     1.0000   1.0000   1.0000   1.0000   1.0000   1.0000   1.0000   1.0000
     1.0000   1.0000   1.0000   1.0000   1.0000   1.0000   1.0000   1.0000
     1.0000   1.0000   1.0000   1.0000   1.0000   1.0000   1.0000   1.0000
     1.0000   1.0000   1.0000   1.0000   1.0002   1.0002  -0.0000  -0.0000
    -0.0000  -0.0000  -0.0000  -0.0000  -0.0000  -0.0000  -0.0000  -0.0000
    -0.0000  -0.0000  -0.0000  -0.0000  -0.0000  -0.0000  -0.0000  -0.0000
    -0.0000  -0.0000  -0.0000  -0.0000  -0.0000  -0.0000  -0.0000  -0.0000
    -0.0000  -0.0000  -0.0000  -0.0000  -0.0000  -0.0000  -0.0000  -0.0000
    -0.0000  -0.0000  -0.0000  -0.0000  -0.0000  -0.0000  -0.0000  -0.0000
    -0.0000  -0.0000  -0.0000  -0.0000

          k = 0.0717 0.0427 0.3332 (  9910 PWs)   bands (ev):

   -39.2444 -39.2444 -39.2436 -39.2436 -39.2411 -39.2411 -39.2406 -39.2406
   -39.0326 -39.0326 -38.9930 -38.9930 -38.3510 -38.3510 -38.3501 -38.3501
   -38.3484 -38.3484 -38.3476 -38.3476 -38.3465 -38.3465 -38.3462 -38.3462
   -38.1411 -38.1411 -38.1243 -38.1243 -38.0899 -38.0899 -15.7568 -15.7568
   -15.7566 -15.7566 -15.7439 -15.7439 -15.7425 -15.7425 -12.7820 -12.7820
   -12.7806 -12.7806 -12.7611 -12.7611 -12.7608 -12.7608 -12.7594 -12.7594
   -12.7585 -12.7585  -5.2829  -5.2829  -4.9264  -4.9264  -3.7454  -3.7454
    -0.9565  -0.9565   0.3052   0.3052   5.9298   5.9298   6.5507   6.5507
     6.7214   6.7214   7.1309   7.1309   7.1607   7.1607   7.3775   7.3775
     7.4261   7.4261   7.6196   7.6196   8.2875   8.2875   8.8477   8.8477
     9.7540   9.7540  10.2055  10.2055  10.9733  10.9733  11.4771  11.4771
    11.8811  11.8811  14.7087  14.7087  15.5461  15.5461  15.5719  15.5719
    15.6390  15.6390  16.4857  16.4857  16.9217  16.9217  17.2476  17.2476
    17.3068  17.3068  17.6040  17.6040  18.0450  18.0450  18.1024  18.1024
    18.5625  18.5625  18.7758  18.7758  18.9392  18.9392  19.7687  19.7687
    19.9479  19.9479  20.7659  20.7659

     occupation numbers 
     1.0000   1.0000   1.0000   1.0000   1.0000   1.0000   1.0000   1.0000
     1.0000   1.0000   1.0000   1.0000   1.0000   1.0000   1.0000   1.0000
     1.0000   1.0000   1.0000   1.0000   1.0000   1.0000   1.0000   1.0000
     1.0000   1.0000   1.0000   1.0000   1.0000   1.0000   1.0000   1.0000
     1.0000   1.0000   1.0000   1.0000   1.0000   1.0000   1.0000   1.0000
     1.0000   1.0000   1.0000   1.0000   1.0000   1.0000   1.0000   1.0000
     1.0000   1.0000   1.0000   1.0000   1.0000   1.0000   1.0000   1.0000
     1.0000   1.0000   1.0000   1.0000   1.0000   1.0000   1.0000   1.0000
     1.0000   1.0000   1.0000   1.0000   1.0000   1.0000   1.0000   1.0000
     1.0000   1.0000   1.0000   1.0000   1.0026   1.0026  -0.0141  -0.0141
    -0.0000  -0.0000  -0.0000  -0.0000  -0.0000  -0.0000  -0.0000  -0.0000
    -0.0000  -0.0000  -0.0000  -0.0000  -0.0000  -0.0000  -0.0000  -0.0000
    -0.0000  -0.0000  -0.0000  -0.0000  -0.0000  -0.0000  -0.0000  -0.0000
    -0.0000  -0.0000  -0.0000  -0.0000  -0.0000  -0.0000  -0.0000  -0.0000
    -0.0000  -0.0000  -0.0000  -0.0000  -0.0000  -0.0000  -0.0000  -0.0000
    -0.0000  -0.0000  -0.0000  -0.0000

          k = 1.9291 1.1482-0.5035 (  9928 PWs)   bands (ev):

   -39.2445 -39.2445 -39.2441 -39.2441 -39.2413 -39.2413 -39.2408 -39.2408
   -39.0328 -39.0328 -38.9933 -38.9933 -38.3512 -38.3512 -38.3507 -38.3507
   -38.3482 -38.3482 -38.3478 -38.3478 -38.3469 -38.3469 -38.3464 -38.3464
   -38.1415 -38.1415 -38.1243 -38.1243 -38.0903 -38.0903 -15.7557 -15.7557
   -15.7555 -15.7555 -15.7441 -15.7441 -15.7426 -15.7426 -12.7804 -12.7804
   -12.7785 -12.7785 -12.7628 -12.7628 -12.7624 -12.7624 -12.7587 -12.7587
   -12.7569 -12.7569  -5.0294  -5.0294  -4.7596  -4.7596  -3.6158  -3.6158
    -1.0487  -1.0487  -0.0440  -0.0440   5.1817   5.1817   5.7419   5.7419
     6.0945   6.0945   6.5578   6.5578   6.6591   6.6591   7.1537   7.1537
     7.5952   7.5952   7.6682   7.6682   8.3808   8.3808   9.1510   9.1510
    10.1513  10.1513  10.7488  10.7488  11.3583  11.3583  11.8662  11.8662
    12.2533  12.2533  14.2245  14.2245  15.3146  15.3146  15.5230  15.5230
    15.9968  15.9968  16.2599  16.2599  16.9163  16.9163  16.9458  16.9458
    17.7658  17.7658  18.4863  18.4863  18.5982  18.5982  18.8817  18.8817
    19.4377  19.4377  19.6965  19.6965  19.8183  19.8183  20.3311  20.3311
    21.3209  21.3210  21.7350  21.7350

     occupation numbers 
     1.0000   1.0000   1.0000   1.0000   1.0000   1.0000   1.0000   1.0000
     1.0000   1.0000   1.0000   1.0000   1.0000   1.0000   1.0000   1.0000
     1.0000   1.0000   1.0000   1.0000   1.0000   1.0000   1.0000   1.0000
     1.0000   1.0000   1.0000   1.0000   1.0000   1.0000   1.0000   1.0000
     1.0000   1.0000   1.0000   1.0000   1.0000   1.0000   1.0000   1.0000
     1.0000   1.0000   1.0000   1.0000   1.0000   1.0000   1.0000   1.0000
     1.0000   1.0000   1.0000   1.0000   1.0000   1.0000   1.0000   1.0000
     1.0000   1.0000   1.0000   1.0000   1.0000   1.0000   1.0000   1.0000
     1.0000   1.0000   1.0000   1.0000   1.0000   1.0000   1.0000   1.0000
     1.0000   1.0000   1.0000   1.0000   1.0221   1.0221  -0.0000  -0.0000
    -0.0000  -0.0000  -0.0000  -0.0000  -0.0000  -0.0000  -0.0000  -0.0000
    -0.0000  -0.0000  -0.0000  -0.0000  -0.0000  -0.0000  -0.0000  -0.0000
    -0.0000  -0.0000  -0.0000  -0.0000  -0.0000  -0.0000  -0.0000  -0.0000
    -0.0000  -0.0000  -0.0000  -0.0000  -0.0000  -0.0000  -0.0000  -0.0000
    -0.0000  -0.0000  -0.0000  -0.0000  -0.0000  -0.0000  -0.0000  -0.0000
    -0.0000  -0.0000  -0.0000  -0.0000

          k = 1.5576 0.9271-0.3362 (  9893 PWs)   bands (ev):

   -39.2441 -39.2441 -39.2434 -39.2434 -39.2411 -39.2411 -39.2406 -39.2406
   -39.0326 -39.0326 -38.9928 -38.9928 -38.3506 -38.3506 -38.3499 -38.3499
   -38.3482 -38.3482 -38.3476 -38.3476 -38.3465 -38.3465 -38.3461 -38.3461
   -38.1411 -38.1411 -38.1242 -38.1242 -38.0896 -38.0896 -15.7537 -15.7537
   -15.7535 -15.7535 -15.7440 -15.7439 -15.7430 -15.7429 -12.7810 -12.7809
   -12.7786 -12.7786 -12.7649 -12.7649 -12.7631 -12.7631 -12.7548 -12.7548
   -12.7522 -12.7522  -4.3857  -4.3857  -4.2494  -4.2494  -3.4509  -3.4509
    -1.3412  -1.3412  -0.9185  -0.9185   4.1573   4.1573   4.7618   4.7618
     5.4297   5.4297   5.9090   5.9090   6.0780   6.0780   6.5294   6.5294
     7.4218   7.4218   7.6461   7.6461   8.1538   8.1538   9.3735   9.3735
    10.5744  10.5744  11.0387  11.0387  11.4961  11.4961  12.5721  12.5721
    13.2878  13.2878  13.4243  13.4243  14.9563  14.9563  16.1465  16.1465
    16.8484  16.8484  17.4361  17.4361  17.7814  17.7814  17.8222  17.8222
    18.7136  18.7136  19.0474  19.0474  19.9287  19.9287  20.4418  20.4418
    20.6856  20.6856  21.1200  21.1201  21.3637  21.3637  21.5062  21.5062
    21.9929  21.9929  22.7633  22.7634

     occupation numbers 
     1.0000   1.0000   1.0000   1.0000   1.0000   1.0000   1.0000   1.0000
     1.0000   1.0000   1.0000   1.0000   1.0000   1.0000   1.0000   1.0000
     1.0000   1.0000   1.0000   1.0000   1.0000   1.0000   1.0000   1.0000
     1.0000   1.0000   1.0000   1.0000   1.0000   1.0000   1.0000   1.0000
     1.0000   1.0000   1.0000   1.0000   1.0000   1.0000   1.0000   1.0000
     1.0000   1.0000   1.0000   1.0000   1.0000   1.0000   1.0000   1.0000
     1.0000   1.0000   1.0000   1.0000   1.0000   1.0000   1.0000   1.0000
     1.0000   1.0000   1.0000   1.0000   1.0000   1.0000   1.0000   1.0000
     1.0000   1.0000   1.0000   1.0000   1.0000   1.0000   1.0000   1.0000
     1.0000   1.0000   1.0000   1.0000   1.0000   1.0000  -0.0000  -0.0000
    -0.0000  -0.0000  -0.0000  -0.0000  -0.0000  -0.0000  -0.0000  -0.0000
    -0.0000  -0.0000  -0.0000  -0.0000  -0.0000  -0.0000  -0.0000  -0.0000
    -0.0000  -0.0000  -0.0000  -0.0000  -0.0000  -0.0000  -0.0000  -0.0000
    -0.0000  -0.0000  -0.0000  -0.0000  -0.0000  -0.0000  -0.0000  -0.0000
    -0.0000  -0.0000  -0.0000  -0.0000  -0.0000  -0.0000  -0.0000  -0.0000
    -0.0000  -0.0000  -0.0000  -0.0000

          k = 1.1861 0.7060-0.1688 (  9889 PWs)   bands (ev):

   -39.2436 -39.2436 -39.2435 -39.2435 -39.2411 -39.2411 -39.2406 -39.2406
   -39.0326 -39.0326 -38.9926 -38.9926 -38.3502 -38.3502 -38.3499 -38.3499
   -38.3481 -38.3481 -38.3477 -38.3477 -38.3465 -38.3465 -38.3460 -38.3460
   -38.1411 -38.1411 -38.1242 -38.1242 -38.0893 -38.0893 -15.7527 -15.7527
   -15.7527 -15.7527 -15.7434 -15.7434 -15.7433 -15.7433 -12.7826 -12.7826
   -12.7808 -12.7808 -12.7650 -12.7650 -12.7625 -12.7625 -12.7521 -12.7521
   -12.7490 -12.7490  -3.8384  -3.8384  -3.7134  -3.7134  -3.6428  -3.6428
    -1.7831  -1.7831  -1.3211  -1.3211   3.6720   3.6720   4.7020   4.7020
     4.9683   4.9683   5.5987   5.5987   5.9418   5.9418   6.5884   6.5884
     7.1380   7.1380   7.4522   7.4522   7.6512   7.6512   9.7176   9.7176
    10.7373  10.7373  11.1553  11.1553  11.4787  11.4787  12.5180  12.5180
    12.9431  12.9431  13.7533  13.7533  15.2712  15.2712  16.6989  16.6989
    17.7800  17.7800  18.1704  18.1704  19.0857  19.0857  19.1694  19.1694
    19.3195  19.3195  19.7781  19.7781  20.4585  20.4585  20.6912  20.6912
    20.7242  20.7242  21.1741  21.1741  21.3458  21.3458  21.6925  21.6925
    21.8094  21.8094  22.4736  22.4736

     occupation numbers 
     1.0000   1.0000   1.0000   1.0000   1.0000   1.0000   1.0000   1.0000
     1.0000   1.0000   1.0000   1.0000   1.0000   1.0000   1.0000   1.0000
     1.0000   1.0000   1.0000   1.0000   1.0000   1.0000   1.0000   1.0000
     1.0000   1.0000   1.0000   1.0000   1.0000   1.0000   1.0000   1.0000
     1.0000   1.0000   1.0000   1.0000   1.0000   1.0000   1.0000   1.0000
     1.0000   1.0000   1.0000   1.0000   1.0000   1.0000   1.0000   1.0000
     1.0000   1.0000   1.0000   1.0000   1.0000   1.0000   1.0000   1.0000
     1.0000   1.0000   1.0000   1.0000   1.0000   1.0000   1.0000   1.0000
     1.0000   1.0000   1.0000   1.0000   1.0000   1.0000   1.0000   1.0000
     1.0000   1.0000   1.0000   1.0000   1.0000   1.0000  -0.0000  -0.0000
    -0.0000  -0.0000  -0.0000  -0.0000  -0.0000  -0.0000  -0.0000  -0.0000
    -0.0000  -0.0000  -0.0000  -0.0000  -0.0000  -0.0000  -0.0000  -0.0000
    -0.0000  -0.0000  -0.0000  -0.0000  -0.0000  -0.0000  -0.0000  -0.0000
    -0.0000  -0.0000  -0.0000  -0.0000  -0.0000  -0.0000  -0.0000  -0.0000
    -0.0000  -0.0000  -0.0000  -0.0000  -0.0000  -0.0000  -0.0000  -0.0000
    -0.0000  -0.0000  -0.0000  -0.0000

          k = 0.8151-1.8328 0.0004 (  9871 PWs)   bands (ev):

   -39.2434 -39.2434 -39.2431 -39.2431 -39.2408 -39.2408 -39.2405 -39.2405
   -39.0324 -39.0324 -38.9923 -38.9923 -38.3499 -38.3499 -38.3495 -38.3495
   -38.3477 -38.3477 -38.3475 -38.3475 -38.3463 -38.3463 -38.3460 -38.3460
   -38.1410 -38.1410 -38.1239 -38.1239 -38.0890 -38.0890 -15.7536 -15.7536
   -15.7512 -15.7512 -15.7442 -15.7442 -15.7432 -15.7432 -12.7805 -12.7805
   -12.7769 -12.7769 -12.7658 -12.7658 -12.7638 -12.7638 -12.7535 -12.7535
   -12.7516 -12.7516  -3.9676  -3.9676  -3.7463  -3.7463  -3.4767  -3.4767
    -1.6524  -1.6524  -1.4255  -1.4255   3.8654   3.8654   4.7018   4.7018
     4.9104   4.9104   5.2884   5.2884   5.6519   5.6519   6.0307   6.0307
     7.2918   7.2918   7.9445   7.9445   8.1336   8.1336   9.7560   9.7560
    10.2975  10.2975  11.2441  11.2441  12.1937  12.1937  12.8702  12.8702
    13.3982  13.3982  13.5358  13.5358  15.6363  15.6363  16.1463  16.1463
    16.7490  16.7490  17.1030  17.1030  17.7398  17.7398  19.1734  19.1734
    19.2513  19.2513  19.6895  19.6895  20.4362  20.4362  20.5643  20.5643
    20.9386  20.9386  21.1722  21.1722  21.5840  21.5840  22.2175  22.2176
    22.4226  22.4227  23.0013  23.0045

     occupation numbers 
     1.0000   1.0000   1.0000   1.0000   1.0000   1.0000   1.0000   1.0000
     1.0000   1.0000   1.0000   1.0000   1.0000   1.0000   1.0000   1.0000
     1.0000   1.0000   1.0000   1.0000   1.0000   1.0000   1.0000   1.0000
     1.0000   1.0000   1.0000   1.0000   1.0000   1.0000   1.0000   1.0000
     1.0000   1.0000   1.0000   1.0000   1.0000   1.0000   1.0000   1.0000
     1.0000   1.0000   1.0000   1.0000   1.0000   1.0000   1.0000   1.0000
     1.0000   1.0000   1.0000   1.0000   1.0000   1.0000   1.0000   1.0000
     1.0000   1.0000   1.0000   1.0000   1.0000   1.0000   1.0000   1.0000
     1.0000   1.0000   1.0000   1.0000   1.0000   1.0000   1.0000   1.0000
     1.0000   1.0000   1.0000   1.0000   1.0000   1.0000  -0.0000  -0.0000
    -0.0000  -0.0000  -0.0000  -0.0000  -0.0000  -0.0000  -0.0000  -0.0000
    -0.0000  -0.0000  -0.0000  -0.0000  -0.0000  -0.0000  -0.0000  -0.0000
    -0.0000  -0.0000  -0.0000  -0.0000  -0.0000  -0.0000  -0.0000  -0.0000
    -0.0000  -0.0000  -0.0000  -0.0000  -0.0000  -0.0000  -0.0000  -0.0000
    -0.0000  -0.0000  -0.0000  -0.0000  -0.0000  -0.0000  -0.0000  -0.0000
    -0.0000  -0.0000  -0.0000  -0.0000

          k = 0.4436-2.0539 0.1677 (  9898 PWs)   bands (ev):

   -39.2441 -39.2441 -39.2437 -39.2437 -39.2412 -39.2412 -39.2404 -39.2404
   -39.0326 -39.0326 -38.9929 -38.9929 -38.3506 -38.3506 -38.3503 -38.3503
   -38.3481 -38.3481 -38.3474 -38.3474 -38.3467 -38.3467 -38.3461 -38.3461
   -38.1412 -38.1412 -38.1241 -38.1241 -38.0898 -38.0898 -15.7546 -15.7546
   -15.7533 -15.7533 -15.7441 -15.7441 -15.7429 -15.7429 -12.7802 -12.7802
   -12.7765 -12.7765 -12.7647 -12.7647 -12.7636 -12.7636 -12.7563 -12.7563
   -12.7546 -12.7546  -4.6271  -4.6271  -4.3377  -4.3377  -3.4994  -3.4994
    -1.1967  -1.1967  -0.7043  -0.7043   4.4679   4.4679   4.9273   4.9273
     5.3615   5.3615   5.9599   5.9599   6.3547   6.3547   6.7617   6.7617
     7.3013   7.3013   7.7818   7.7818   7.9204   7.9204  10.0257  10.0257
    10.1935  10.1935  11.2849  11.2849  11.8151  11.8151  12.2409  12.2409
    12.7490  12.7490  14.2711  14.2711  14.3430  14.3430  15.3584  15.3584
    15.9792  15.9792  17.3858  17.3858  17.7120  17.7120  18.2734  18.2734
    18.5836  18.5836  19.0637  19.0637  19.5431  19.5431  19.8478  19.8478
    20.0114  20.0114  20.2563  20.2563  20.7150  20.7150  21.4559  21.4559
    22.1178  22.1178  22.2631  22.2632

     occupation numbers 
     1.0000   1.0000   1.0000   1.0000   1.0000   1.0000   1.0000   1.0000
     1.0000   1.0000   1.0000   1.0000   1.0000   1.0000   1.0000   1.0000
     1.0000   1.0000   1.0000   1.0000   1.0000   1.0000   1.0000   1.0000
     1.0000   1.0000   1.0000   1.0000   1.0000   1.0000   1.0000   1.0000
     1.0000   1.0000   1.0000   1.0000   1.0000   1.0000   1.0000   1.0000
     1.0000   1.0000   1.0000   1.0000   1.0000   1.0000   1.0000   1.0000
     1.0000   1.0000   1.0000   1.0000   1.0000   1.0000   1.0000   1.0000
     1.0000   1.0000   1.0000   1.0000   1.0000   1.0000   1.0000   1.0000
     1.0000   1.0000   1.0000   1.0000   1.0000   1.0000   1.0000   1.0000
     1.0000   1.0000   1.0000   1.0000   1.0000   1.0000  -0.0000  -0.0000
    -0.0000  -0.0000  -0.0000  -0.0000  -0.0000  -0.0000  -0.0000  -0.0000
    -0.0000  -0.0000  -0.0000  -0.0000  -0.0000  -0.0000  -0.0000  -0.0000
    -0.0000  -0.0000  -0.0000  -0.0000  -0.0000  -0.0000  -0.0000  -0.0000
    -0.0000  -0.0000  -0.0000  -0.0000  -0.0000  -0.0000  -0.0000  -0.0000
    -0.0000  -0.0000  -0.0000  -0.0000  -0.0000  -0.0000  -0.0000  -0.0000
    -0.0000  -0.0000  -0.0000  -0.0000

          k = 0.0722-2.2750 0.3351 (  9928 PWs)   bands (ev):

   -39.2445 -39.2445 -39.2441 -39.2441 -39.2413 -39.2413 -39.2408 -39.2408
   -39.0328 -39.0328 -38.9933 -38.9933 -38.3512 -38.3512 -38.3507 -38.3507
   -38.3482 -38.3482 -38.3478 -38.3478 -38.3469 -38.3469 -38.3464 -38.3464
   -38.1415 -38.1415 -38.1243 -38.1243 -38.0903 -38.0903 -15.7557 -15.7557
   -15.7555 -15.7555 -15.7441 -15.7441 -15.7426 -15.7426 -12.7804 -12.7804
   -12.7785 -12.7785 -12.7628 -12.7628 -12.7624 -12.7624 -12.7587 -12.7587
   -12.7569 -12.7569  -5.0294  -5.0294  -4.7596  -4.7596  -3.6158  -3.6158
    -1.0487  -1.0487  -0.0440  -0.0440   5.1817   5.1817   5.7419   5.7419
     6.0945   6.0945   6.5578   6.5578   6.6591   6.6591   7.1537   7.1537
     7.5952   7.5952   7.6682   7.6682   8.3808   8.3808   9.1510   9.1510
    10.1513  10.1513  10.7488  10.7488  11.3583  11.3583  11.8662  11.8662
    12.2533  12.2533  14.2245  14.2245  15.3146  15.3146  15.5230  15.5230
    15.9968  15.9968  16.2599  16.2599  16.9163  16.9163  16.9458  16.9458
    17.7658  17.7658  18.4863  18.4863  18.5982  18.5982  18.8817  18.8817
    19.4377  19.4377  19.6965  19.6965  19.8183  19.8183  20.3311  20.3311
    21.3209  21.3210  21.7351  21.7352

     occupation numbers 
     1.0000   1.0000   1.0000   1.0000   1.0000   1.0000   1.0000   1.0000
     1.0000   1.0000   1.0000   1.0000   1.0000   1.0000   1.0000   1.0000
     1.0000   1.0000   1.0000   1.0000   1.0000   1.0000   1.0000   1.0000
     1.0000   1.0000   1.0000   1.0000   1.0000   1.0000   1.0000   1.0000
     1.0000   1.0000   1.0000   1.0000   1.0000   1.0000   1.0000   1.0000
     1.0000   1.0000   1.0000   1.0000   1.0000   1.0000   1.0000   1.0000
     1.0000   1.0000   1.0000   1.0000   1.0000   1.0000   1.0000   1.0000
     1.0000   1.0000   1.0000   1.0000   1.0000   1.0000   1.0000   1.0000
     1.0000   1.0000   1.0000   1.0000   1.0000   1.0000   1.0000   1.0000
     1.0000   1.0000   1.0000   1.0000   1.0221   1.0221  -0.0000  -0.0000
    -0.0000  -0.0000  -0.0000  -0.0000  -0.0000  -0.0000  -0.0000  -0.0000
    -0.0000  -0.0000  -0.0000  -0.0000  -0.0000  -0.0000  -0.0000  -0.0000
    -0.0000  -0.0000  -0.0000  -0.0000  -0.0000  -0.0000  -0.0000  -0.0000
    -0.0000  -0.0000  -0.0000  -0.0000  -0.0000  -0.0000  -0.0000  -0.0000
    -0.0000  -0.0000  -0.0000  -0.0000  -0.0000  -0.0000  -0.0000  -0.0000
    -0.0000  -0.0000  -0.0000  -0.0000

          k = 1.9295-1.1695-0.5017 (  9923 PWs)   bands (ev):

   -39.2445 -39.2445 -39.2440 -39.2440 -39.2413 -39.2413 -39.2406 -39.2406
   -39.0327 -39.0327 -38.9933 -38.9933 -38.3511 -38.3511 -38.3508 -38.3508
   -38.3482 -38.3482 -38.3475 -38.3475 -38.3470 -38.3470 -38.3463 -38.3463
   -38.1414 -38.1414 -38.1242 -38.1242 -38.0903 -38.0903 -15.7557 -15.7557
   -15.7555 -15.7555 -15.7441 -15.7441 -15.7426 -15.7426 -12.7804 -12.7804
   -12.7785 -12.7785 -12.7628 -12.7628 -12.7625 -12.7624 -12.7587 -12.7587
   -12.7569 -12.7569  -5.0110  -5.0110  -4.7867  -4.7867  -3.6029  -3.6029
    -1.0539  -1.0539  -0.0467  -0.0467   5.1665   5.1665   5.8513   5.8513
     6.0908   6.0909   6.5142   6.5142   6.7114   6.7114   6.9426   6.9426
     7.6322   7.6322   7.7434   7.7434   8.4134   8.4134   9.1146   9.1146
    10.1088  10.1088  10.6890  10.6890  11.3470  11.3470  12.0049  12.0049
    12.3050  12.3050  14.3769  14.3769  15.0388  15.0388  15.5781  15.5781
    16.0804  16.0804  16.3208  16.3208  16.5668  16.5668  17.4151  17.4151
    17.6685  17.6685  18.0135  18.0135  18.2746  18.2746  19.0483  19.0483
    19.2732  19.2732  19.6565  19.6565  20.0366  20.0366  20.9722  20.9722
    21.1639  21.1639  21.6897  21.6897

     occupation numbers 
     1.0000   1.0000   1.0000   1.0000   1.0000   1.0000   1.0000   1.0000
     1.0000   1.0000   1.0000   1.0000   1.0000   1.0000   1.0000   1.0000
     1.0000   1.0000   1.0000   1.0000   1.0000   1.0000   1.0000   1.0000
     1.0000   1.0000   1.0000   1.0000   1.0000   1.0000   1.0000   1.0000
     1.0000   1.0000   1.0000   1.0000   1.0000   1.0000   1.0000   1.0000
     1.0000   1.0000   1.0000   1.0000   1.0000   1.0000   1.0000   1.0000
     1.0000   1.0000   1.0000   1.0000   1.0000   1.0000   1.0000   1.0000
     1.0000   1.0000   1.0000   1.0000   1.0000   1.0000   1.0000   1.0000
     1.0000   1.0000   1.0000   1.0000   1.0000   1.0000   1.0000   1.0000
     1.0000   1.0000   1.0000   1.0000   1.0324   1.0324  -0.0000  -0.0000
    -0.0000  -0.0000  -0.0000  -0.0000  -0.0000  -0.0000  -0.0000  -0.0000
    -0.0000  -0.0000  -0.0000  -0.0000  -0.0000  -0.0000  -0.0000  -0.0000
    -0.0000  -0.0000  -0.0000  -0.0000  -0.0000  -0.0000  -0.0000  -0.0000
    -0.0000  -0.0000  -0.0000  -0.0000  -0.0000  -0.0000  -0.0000  -0.0000
    -0.0000  -0.0000  -0.0000  -0.0000  -0.0000  -0.0000  -0.0000  -0.0000
    -0.0000  -0.0000  -0.0000  -0.0000

          k = 1.5580-1.3906-0.3343 (  9918 PWs)   bands (ev):

   -39.2443 -39.2443 -39.2441 -39.2440 -39.2411 -39.2411 -39.2409 -39.2409
   -39.0328 -39.0328 -38.9932 -38.9932 -38.3509 -38.3509 -38.3506 -38.3506
   -38.3482 -38.3482 -38.3479 -38.3479 -38.3466 -38.3466 -38.3465 -38.3465
   -38.1414 -38.1414 -38.1243 -38.1243 -38.0901 -38.0901 -15.7546 -15.7546
   -15.7533 -15.7533 -15.7441 -15.7441 -15.7429 -15.7429 -12.7802 -12.7802
   -12.7765 -12.7765 -12.7647 -12.7647 -12.7636 -12.7636 -12.7563 -12.7563
   -12.7546 -12.7546  -4.5761  -4.5761  -4.4143  -4.4143  -3.4647  -3.4647
    -1.2205  -1.2205  -0.6892  -0.6892   4.4442   4.4442   4.8829   4.8829
     5.4044   5.4044   6.0378   6.0378   6.3057   6.3057   7.0207   7.0207
     7.1918   7.1918   7.6336   7.6336   7.7979   7.7979  10.1596  10.1596
    10.2673  10.2673  11.4229  11.4229  11.6697  11.6697  12.1958  12.1958
    12.6612  12.6612  14.3952  14.3952  14.5332  14.5332  14.9985  14.9985
    15.7228  15.7228  17.5279  17.5279  17.7273  17.7273  18.4626  18.4626
    18.8148  18.8148  19.1952  19.1952  19.5646  19.5646  19.9624  19.9624
    20.1269  20.1269  20.2318  20.2318  20.6282  20.6282  21.2188  21.2188
    21.8260  21.8260  22.1016  22.1016

     occupation numbers 
     1.0000   1.0000   1.0000   1.0000   1.0000   1.0000   1.0000   1.0000
     1.0000   1.0000   1.0000   1.0000   1.0000   1.0000   1.0000   1.0000
     1.0000   1.0000   1.0000   1.0000   1.0000   1.0000   1.0000   1.0000
     1.0000   1.0000   1.0000   1.0000   1.0000   1.0000   1.0000   1.0000
     1.0000   1.0000   1.0000   1.0000   1.0000   1.0000   1.0000   1.0000
     1.0000   1.0000   1.0000   1.0000   1.0000   1.0000   1.0000   1.0000
     1.0000   1.0000   1.0000   1.0000   1.0000   1.0000   1.0000   1.0000
     1.0000   1.0000   1.0000   1.0000   1.0000   1.0000   1.0000   1.0000
     1.0000   1.0000   1.0000   1.0000   1.0000   1.0000   1.0000   1.0000
     1.0000   1.0000   1.0000   1.0000   1.0000   1.0000  -0.0000  -0.0000
    -0.0000  -0.0000  -0.0000  -0.0000  -0.0000  -0.0000  -0.0000  -0.0000
    -0.0000  -0.0000  -0.0000  -0.0000  -0.0000  -0.0000  -0.0000  -0.0000
    -0.0000  -0.0000  -0.0000  -0.0000  -0.0000  -0.0000  -0.0000  -0.0000
    -0.0000  -0.0000  -0.0000  -0.0000  -0.0000  -0.0000  -0.0000  -0.0000
    -0.0000  -0.0000  -0.0000  -0.0000  -0.0000  -0.0000  -0.0000  -0.0000
    -0.0000  -0.0000  -0.0000  -0.0000

          k = 1.1866-1.6117-0.1670 (  9872 PWs)   bands (ev):

   -39.2434 -39.2434 -39.2432 -39.2432 -39.2407 -39.2407 -39.2405 -39.2405
   -39.0324 -39.0324 -38.9923 -38.9923 -38.3499 -38.3499 -38.3496 -38.3496
   -38.3477 -38.3477 -38.3476 -38.3476 -38.3462 -38.3462 -38.3459 -38.3459
   -38.1409 -38.1409 -38.1239 -38.1239 -38.0891 -38.0891 -15.7536 -15.7536
   -15.7512 -15.7512 -15.7442 -15.7442 -15.7432 -15.7432 -12.7805 -12.7805
   -12.7769 -12.7769 -12.7658 -12.7658 -12.7638 -12.7638 -12.7535 -12.7535
   -12.7516 -12.7516  -3.9215  -3.9215  -3.8195  -3.8195  -3.4504  -3.4504
    -1.6370  -1.6370  -1.4400  -1.4400   3.9806   3.9806   4.6141   4.6141
     4.7801   4.7801   5.1502   5.1502   5.7488   5.7488   6.2106   6.2106
     7.4693   7.4693   7.7493   7.7493   8.1229   8.1229   9.7329   9.7329
    10.4372  10.4372  11.0895  11.0895  12.1472  12.1472  12.7703  12.7703
    13.5047  13.5047  13.7073  13.7073  15.3010  15.3010  15.8753  15.8753
    17.0029  17.0029  17.5524  17.5524  17.8500  17.8500  19.1936  19.1936
    19.3080  19.3080  19.7522  19.7522  20.3142  20.3142  20.7054  20.7054
    20.8016  20.8016  21.1923  21.1923  21.2658  21.2658  21.8772  21.8772
    22.4386  22.4387  22.5666  22.5666

     occupation numbers 
     1.0000   1.0000   1.0000   1.0000   1.0000   1.0000   1.0000   1.0000
     1.0000   1.0000   1.0000   1.0000   1.0000   1.0000   1.0000   1.0000
     1.0000   1.0000   1.0000   1.0000   1.0000   1.0000   1.0000   1.0000
     1.0000   1.0000   1.0000   1.0000   1.0000   1.0000   1.0000   1.0000
     1.0000   1.0000   1.0000   1.0000   1.0000   1.0000   1.0000   1.0000
     1.0000   1.0000   1.0000   1.0000   1.0000   1.0000   1.0000   1.0000
     1.0000   1.0000   1.0000   1.0000   1.0000   1.0000   1.0000   1.0000
     1.0000   1.0000   1.0000   1.0000   1.0000   1.0000   1.0000   1.0000
     1.0000   1.0000   1.0000   1.0000   1.0000   1.0000   1.0000   1.0000
     1.0000   1.0000   1.0000   1.0000   1.0000   1.0000  -0.0000  -0.0000
    -0.0000  -0.0000  -0.0000  -0.0000  -0.0000  -0.0000  -0.0000  -0.0000
    -0.0000  -0.0000  -0.0000  -0.0000  -0.0000  -0.0000  -0.0000  -0.0000
    -0.0000  -0.0000  -0.0000  -0.0000  -0.0000  -0.0000  -0.0000  -0.0000
    -0.0000  -0.0000  -0.0000  -0.0000  -0.0000  -0.0000  -0.0000  -0.0000
    -0.0000  -0.0000  -0.0000  -0.0000  -0.0000  -0.0000  -0.0000  -0.0000
    -0.0000  -0.0000  -0.0000  -0.0000

          k = 0.8150-1.3693-0.0000 (  9886 PWs)   bands (ev):

   -39.2437 -39.2437 -39.2436 -39.2436 -39.2407 -39.2407 -39.2405 -39.2405
   -39.0324 -39.0324 -38.9927 -38.9927 -38.3502 -38.3502 -38.3501 -38.3501
   -38.3478 -38.3478 -38.3477 -38.3477 -38.3462 -38.3462 -38.3459 -38.3459
   -38.1409 -38.1409 -38.1240 -38.1240 -38.0895 -38.0895 -15.7534 -15.7533
   -15.7497 -15.7497 -15.7447 -15.7447 -15.7433 -15.7433 -12.7764 -12.7764
   -12.7743 -12.7743 -12.7691 -12.7691 -12.7650 -12.7650 -12.7531 -12.7531
   -12.7530 -12.7530  -3.5746  -3.5745  -3.5450  -3.5450  -3.4602  -3.4602
    -1.8291  -1.8291  -1.8086  -1.8086   3.8643   3.8643   4.3666   4.3666
     4.6159   4.6159   4.9448   4.9448   5.7266   5.7266   6.0966   6.0966
     7.0107   7.0107   7.5515   7.5515   8.0354   8.0354  10.0378  10.0378
    10.8881  10.8881  11.4954  11.4954  12.5644  12.5644  12.8508  12.8508
    13.3055  13.3055  15.0403  15.0403  15.7294  15.7294  15.8448  15.8448
    16.2340  16.2340  16.3256  16.3256  18.0558  18.0558  18.1167  18.1167
    19.5275  19.5275  19.6011  19.6011  20.0575  20.0575  20.4161  20.4161
    20.8476  20.8476  21.4294  21.4294  22.1724  22.1724  22.5992  22.5992
    22.9215  22.9216  23.5005  23.5006

     occupation numbers 
     1.0000   1.0000   1.0000   1.0000   1.0000   1.0000   1.0000   1.0000
     1.0000   1.0000   1.0000   1.0000   1.0000   1.0000   1.0000   1.0000
     1.0000   1.0000   1.0000   1.0000   1.0000   1.0000   1.0000   1.0000
     1.0000   1.0000   1.0000   1.0000   1.0000   1.0000   1.0000   1.0000
     1.0000   1.0000   1.0000   1.0000   1.0000   1.0000   1.0000   1.0000
     1.0000   1.0000   1.0000   1.0000   1.0000   1.0000   1.0000   1.0000
     1.0000   1.0000   1.0000   1.0000   1.0000   1.0000   1.0000   1.0000
     1.0000   1.0000   1.0000   1.0000   1.0000   1.0000   1.0000   1.0000
     1.0000   1.0000   1.0000   1.0000   1.0000   1.0000   1.0000   1.0000
     1.0000   1.0000   1.0000   1.0000   1.0000   1.0000  -0.0000  -0.0000
    -0.0000  -0.0000  -0.0000  -0.0000  -0.0000  -0.0000  -0.0000  -0.0000
    -0.0000  -0.0000  -0.0000  -0.0000  -0.0000  -0.0000  -0.0000  -0.0000
    -0.0000  -0.0000  -0.0000  -0.0000  -0.0000  -0.0000  -0.0000  -0.0000
    -0.0000  -0.0000  -0.0000  -0.0000  -0.0000  -0.0000  -0.0000  -0.0000
    -0.0000  -0.0000  -0.0000  -0.0000  -0.0000  -0.0000  -0.0000  -0.0000
    -0.0000  -0.0000  -0.0000  -0.0000

          k = 0.4435-1.5904 0.1673 (  9895 PWs)   bands (ev):

   -39.2437 -39.2437 -39.2435 -39.2435 -39.2410 -39.2410 -39.2408 -39.2408
   -39.0327 -39.0327 -38.9927 -38.9927 -38.3502 -38.3502 -38.3500 -38.3500
   -38.3480 -38.3480 -38.3479 -38.3479 -38.3464 -38.3464 -38.3463 -38.3463
   -38.1412 -38.1412 -38.1242 -38.1242 -38.0894 -38.0894 -15.7536 -15.7536
   -15.7512 -15.7512 -15.7442 -15.7442 -15.7432 -15.7432 -12.7805 -12.7805
   -12.7769 -12.7769 -12.7658 -12.7658 -12.7638 -12.7638 -12.7535 -12.7535
   -12.7516 -12.7516  -3.9053  -3.9053  -3.8438  -3.8438  -3.4407  -3.4407
    -1.6405  -1.6405  -1.4379  -1.4379   3.9413   3.9413   4.5849   4.5849
     4.7756   4.7756   5.0980   5.0980   5.9898   5.9898   6.5014   6.5014
     7.2670   7.2670   7.4057   7.4057   7.9438   7.9438   9.9732   9.9732
    10.6749  10.6749  11.2410  11.2410  12.0144  12.0144  12.5684  12.5684
    13.4976  13.4976  13.8877  13.8877  14.8617  14.8617  15.7019  15.7019
    17.3440  17.3440  17.7716  17.7716  18.3595  18.3595  19.1625  19.1625
    19.3444  19.3444  19.6779  19.6779  20.0454  20.0454  20.5691  20.5691
    20.6743  20.6743  21.1248  21.1248  21.2469  21.2469  21.4277  21.4277
    22.1332  22.1332  22.6802  22.6802

     occupation numbers 
     1.0000   1.0000   1.0000   1.0000   1.0000   1.0000   1.0000   1.0000
     1.0000   1.0000   1.0000   1.0000   1.0000   1.0000   1.0000   1.0000
     1.0000   1.0000   1.0000   1.0000   1.0000   1.0000   1.0000   1.0000
     1.0000   1.0000   1.0000   1.0000   1.0000   1.0000   1.0000   1.0000
     1.0000   1.0000   1.0000   1.0000   1.0000   1.0000   1.0000   1.0000
     1.0000   1.0000   1.0000   1.0000   1.0000   1.0000   1.0000   1.0000
     1.0000   1.0000   1.0000   1.0000   1.0000   1.0000   1.0000   1.0000
     1.0000   1.0000   1.0000   1.0000   1.0000   1.0000   1.0000   1.0000
     1.0000   1.0000   1.0000   1.0000   1.0000   1.0000   1.0000   1.0000
     1.0000   1.0000   1.0000   1.0000   1.0000   1.0000  -0.0000  -0.0000
    -0.0000  -0.0000  -0.0000  -0.0000  -0.0000  -0.0000  -0.0000  -0.0000
    -0.0000  -0.0000  -0.0000  -0.0000  -0.0000  -0.0000  -0.0000  -0.0000
    -0.0000  -0.0000  -0.0000  -0.0000  -0.0000  -0.0000  -0.0000  -0.0000
    -0.0000  -0.0000  -0.0000  -0.0000  -0.0000  -0.0000  -0.0000  -0.0000
    -0.0000  -0.0000  -0.0000  -0.0000  -0.0000  -0.0000  -0.0000  -0.0000
    -0.0000  -0.0000  -0.0000  -0.0000

          k = 0.0721-1.8115 0.3347 (  9893 PWs)   bands (ev):

   -39.2441 -39.2441 -39.2434 -39.2434 -39.2411 -39.2411 -39.2406 -39.2406
   -39.0326 -39.0326 -38.9928 -38.9928 -38.3506 -38.3506 -38.3499 -38.3499
   -38.3482 -38.3482 -38.3476 -38.3476 -38.3465 -38.3465 -38.3461 -38.3461
   -38.1411 -38.1411 -38.1242 -38.1242 -38.0896 -38.0896 -15.7537 -15.7537
   -15.7535 -15.7535 -15.7440 -15.7439 -15.7430 -15.7429 -12.7810 -12.7809
   -12.7786 -12.7786 -12.7649 -12.7649 -12.7631 -12.7631 -12.7548 -12.7548
   -12.7522 -12.7522  -4.3857  -4.3857  -4.2494  -4.2494  -3.4509  -3.4509
    -1.3412  -1.3412  -0.9185  -0.9185   4.1573   4.1573   4.7618   4.7618
     5.4297   5.4297   5.9090   5.9090   6.0780   6.0780   6.5294   6.5294
     7.4218   7.4218   7.6461   7.6461   8.1538   8.1538   9.3735   9.3735
    10.5744  10.5744  11.0387  11.0387  11.4961  11.4961  12.5721  12.5721
    13.2878  13.2878  13.4243  13.4243  14.9563  14.9563  16.1465  16.1465
    16.8484  16.8484  17.4361  17.4361  17.7814  17.7814  17.8222  17.8222
    18.7136  18.7136  19.0474  19.0474  19.9287  19.9287  20.4418  20.4418
    20.6856  20.6856  21.1200  21.1201  21.3637  21.3637  21.5062  21.5062
    21.9929  21.9929  22.7633  22.7634

     occupation numbers 
     1.0000   1.0000   1.0000   1.0000   1.0000   1.0000   1.0000   1.0000
     1.0000   1.0000   1.0000   1.0000   1.0000   1.0000   1.0000   1.0000
     1.0000   1.0000   1.0000   1.0000   1.0000   1.0000   1.0000   1.0000
     1.0000   1.0000   1.0000   1.0000   1.0000   1.0000   1.0000   1.0000
     1.0000   1.0000   1.0000   1.0000   1.0000   1.0000   1.0000   1.0000
     1.0000   1.0000   1.0000   1.0000   1.0000   1.0000   1.0000   1.0000
     1.0000   1.0000   1.0000   1.0000   1.0000   1.0000   1.0000   1.0000
     1.0000   1.0000   1.0000   1.0000   1.0000   1.0000   1.0000   1.0000
     1.0000   1.0000   1.0000   1.0000   1.0000   1.0000   1.0000   1.0000
     1.0000   1.0000   1.0000   1.0000   1.0000   1.0000  -0.0000  -0.0000
    -0.0000  -0.0000  -0.0000  -0.0000  -0.0000  -0.0000  -0.0000  -0.0000
    -0.0000  -0.0000  -0.0000  -0.0000  -0.0000  -0.0000  -0.0000  -0.0000
    -0.0000  -0.0000  -0.0000  -0.0000  -0.0000  -0.0000  -0.0000  -0.0000
    -0.0000  -0.0000  -0.0000  -0.0000  -0.0000  -0.0000  -0.0000  -0.0000
    -0.0000  -0.0000  -0.0000  -0.0000  -0.0000  -0.0000  -0.0000  -0.0000
    -0.0000  -0.0000  -0.0000  -0.0000

          k = 1.9294-0.7060-0.5020 (  9918 PWs)   bands (ev):

   -39.2443 -39.2443 -39.2441 -39.2440 -39.2411 -39.2411 -39.2409 -39.2409
   -39.0328 -39.0328 -38.9932 -38.9932 -38.3509 -38.3509 -38.3506 -38.3506
   -38.3482 -38.3482 -38.3479 -38.3479 -38.3466 -38.3466 -38.3465 -38.3465
   -38.1414 -38.1414 -38.1243 -38.1243 -38.0901 -38.0901 -15.7546 -15.7546
   -15.7533 -15.7533 -15.7441 -15.7441 -15.7429 -15.7429 -12.7802 -12.7802
   -12.7765 -12.7765 -12.7647 -12.7647 -12.7636 -12.7636 -12.7563 -12.7563
   -12.7546 -12.7546  -4.5761  -4.5761  -4.4143  -4.4143  -3.4647  -3.4647
    -1.2205  -1.2205  -0.6892  -0.6892   4.4442   4.4442   4.8829   4.8829
     5.4044   5.4044   6.0378   6.0378   6.3057   6.3057   7.0207   7.0207
     7.1918   7.1918   7.6336   7.6336   7.7979   7.7979  10.1596  10.1596
    10.2673  10.2673  11.4229  11.4229  11.6697  11.6697  12.1958  12.1958
    12.6612  12.6612  14.3952  14.3952  14.5332  14.5332  14.9985  14.9985
    15.7228  15.7228  17.5279  17.5279  17.7273  17.7273  18.4626  18.4626
    18.8148  18.8148  19.1952  19.1952  19.5646  19.5646  19.9624  19.9624
    20.1269  20.1269  20.2318  20.2318  20.6282  20.6282  21.2188  21.2188
    21.8260  21.8260  22.1016  22.1016

     occupation numbers 
     1.0000   1.0000   1.0000   1.0000   1.0000   1.0000   1.0000   1.0000
     1.0000   1.0000   1.0000   1.0000   1.0000   1.0000   1.0000   1.0000
     1.0000   1.0000   1.0000   1.0000   1.0000   1.0000   1.0000   1.0000
     1.0000   1.0000   1.0000   1.0000   1.0000   1.0000   1.0000   1.0000
     1.0000   1.0000   1.0000   1.0000   1.0000   1.0000   1.0000   1.0000
     1.0000   1.0000   1.0000   1.0000   1.0000   1.0000   1.0000   1.0000
     1.0000   1.0000   1.0000   1.0000   1.0000   1.0000   1.0000   1.0000
     1.0000   1.0000   1.0000   1.0000   1.0000   1.0000   1.0000   1.0000
     1.0000   1.0000   1.0000   1.0000   1.0000   1.0000   1.0000   1.0000
     1.0000   1.0000   1.0000   1.0000   1.0000   1.0000  -0.0000  -0.0000
    -0.0000  -0.0000  -0.0000  -0.0000  -0.0000  -0.0000  -0.0000  -0.0000
    -0.0000  -0.0000  -0.0000  -0.0000  -0.0000  -0.0000  -0.0000  -0.0000
    -0.0000  -0.0000  -0.0000  -0.0000  -0.0000  -0.0000  -0.0000  -0.0000
    -0.0000  -0.0000  -0.0000  -0.0000  -0.0000  -0.0000  -0.0000  -0.0000
    -0.0000  -0.0000  -0.0000  -0.0000  -0.0000  -0.0000  -0.0000  -0.0000
    -0.0000  -0.0000  -0.0000  -0.0000

          k = 1.5579-0.9271-0.3347 (  9893 PWs)   bands (ev):

   -39.2441 -39.2441 -39.2434 -39.2434 -39.2411 -39.2411 -39.2406 -39.2406
   -39.0326 -39.0326 -38.9928 -38.9928 -38.3506 -38.3506 -38.3499 -38.3499
   -38.3482 -38.3482 -38.3476 -38.3476 -38.3465 -38.3465 -38.3461 -38.3461
   -38.1411 -38.1411 -38.1242 -38.1242 -38.0896 -38.0896 -15.7537 -15.7537
   -15.7535 -15.7535 -15.7440 -15.7439 -15.7430 -15.7429 -12.7810 -12.7809
   -12.7786 -12.7786 -12.7649 -12.7649 -12.7631 -12.7631 -12.7548 -12.7548
   -12.7522 -12.7522  -4.3857  -4.3857  -4.2494  -4.2494  -3.4509  -3.4509
    -1.3412  -1.3412  -0.9185  -0.9185   4.1573   4.1573   4.7618   4.7618
     5.4297   5.4297   5.9090   5.9090   6.0780   6.0780   6.5294   6.5294
     7.4218   7.4218   7.6461   7.6461   8.1538   8.1538   9.3735   9.3735
    10.5744  10.5744  11.0387  11.0387  11.4961  11.4961  12.5721  12.5721
    13.2878  13.2878  13.4243  13.4243  14.9563  14.9563  16.1465  16.1465
    16.8484  16.8484  17.4361  17.4361  17.7814  17.7814  17.8222  17.8222
    18.7136  18.7136  19.0474  19.0474  19.9287  19.9287  20.4418  20.4418
    20.6856  20.6856  21.1200  21.1201  21.3637  21.3637  21.5062  21.5062
    21.9929  21.9929  22.7633  22.7633

     occupation numbers 
     1.0000   1.0000   1.0000   1.0000   1.0000   1.0000   1.0000   1.0000
     1.0000   1.0000   1.0000   1.0000   1.0000   1.0000   1.0000   1.0000
     1.0000   1.0000   1.0000   1.0000   1.0000   1.0000   1.0000   1.0000
     1.0000   1.0000   1.0000   1.0000   1.0000   1.0000   1.0000   1.0000
     1.0000   1.0000   1.0000   1.0000   1.0000   1.0000   1.0000   1.0000
     1.0000   1.0000   1.0000   1.0000   1.0000   1.0000   1.0000   1.0000
     1.0000   1.0000   1.0000   1.0000   1.0000   1.0000   1.0000   1.0000
     1.0000   1.0000   1.0000   1.0000   1.0000   1.0000   1.0000   1.0000
     1.0000   1.0000   1.0000   1.0000   1.0000   1.0000   1.0000   1.0000
     1.0000   1.0000   1.0000   1.0000   1.0000   1.0000  -0.0000  -0.0000
    -0.0000  -0.0000  -0.0000  -0.0000  -0.0000  -0.0000  -0.0000  -0.0000
    -0.0000  -0.0000  -0.0000  -0.0000  -0.0000  -0.0000  -0.0000  -0.0000
    -0.0000  -0.0000  -0.0000  -0.0000  -0.0000  -0.0000  -0.0000  -0.0000
    -0.0000  -0.0000  -0.0000  -0.0000  -0.0000  -0.0000  -0.0000  -0.0000
    -0.0000  -0.0000  -0.0000  -0.0000  -0.0000  -0.0000  -0.0000  -0.0000
    -0.0000  -0.0000  -0.0000  -0.0000

          k = 1.1865-1.1482-0.1673 (  9895 PWs)   bands (ev):

   -39.2437 -39.2437 -39.2435 -39.2435 -39.2410 -39.2410 -39.2408 -39.2408
   -39.0327 -39.0327 -38.9927 -38.9927 -38.3502 -38.3502 -38.3500 -38.3500
   -38.3480 -38.3480 -38.3479 -38.3479 -38.3464 -38.3464 -38.3463 -38.3463
   -38.1412 -38.1412 -38.1242 -38.1242 -38.0894 -38.0894 -15.7536 -15.7536
   -15.7512 -15.7512 -15.7442 -15.7442 -15.7432 -15.7432 -12.7805 -12.7805
   -12.7769 -12.7769 -12.7658 -12.7658 -12.7638 -12.7638 -12.7535 -12.7535
   -12.7516 -12.7516  -3.9053  -3.9053  -3.8438  -3.8438  -3.4407  -3.4407
    -1.6405  -1.6405  -1.4379  -1.4379   3.9413   3.9413   4.5849   4.5849
     4.7756   4.7756   5.0980   5.0980   5.9898   5.9898   6.5014   6.5014
     7.2670   7.2670   7.4057   7.4057   7.9438   7.9438   9.9732   9.9732
    10.6749  10.6749  11.2410  11.2410  12.0144  12.0144  12.5684  12.5684
    13.4976  13.4976  13.8877  13.8877  14.8617  14.8617  15.7019  15.7019
    17.3440  17.3440  17.7716  17.7716  18.3595  18.3595  19.1625  19.1625
    19.3444  19.3444  19.6779  19.6779  20.0454  20.0454  20.5691  20.5691
    20.6743  20.6743  21.1248  21.1248  21.2469  21.2469  21.4277  21.4277
    22.1332  22.1332  22.6801  22.6802

     occupation numbers 
     1.0000   1.0000   1.0000   1.0000   1.0000   1.0000   1.0000   1.0000
     1.0000   1.0000   1.0000   1.0000   1.0000   1.0000   1.0000   1.0000
     1.0000   1.0000   1.0000   1.0000   1.0000   1.0000   1.0000   1.0000
     1.0000   1.0000   1.0000   1.0000   1.0000   1.0000   1.0000   1.0000
     1.0000   1.0000   1.0000   1.0000   1.0000   1.0000   1.0000   1.0000
     1.0000   1.0000   1.0000   1.0000   1.0000   1.0000   1.0000   1.0000
     1.0000   1.0000   1.0000   1.0000   1.0000   1.0000   1.0000   1.0000
     1.0000   1.0000   1.0000   1.0000   1.0000   1.0000   1.0000   1.0000
     1.0000   1.0000   1.0000   1.0000   1.0000   1.0000   1.0000   1.0000
     1.0000   1.0000   1.0000   1.0000   1.0000   1.0000  -0.0000  -0.0000
    -0.0000  -0.0000  -0.0000  -0.0000  -0.0000  -0.0000  -0.0000  -0.0000
    -0.0000  -0.0000  -0.0000  -0.0000  -0.0000  -0.0000  -0.0000  -0.0000
    -0.0000  -0.0000  -0.0000  -0.0000  -0.0000  -0.0000  -0.0000  -0.0000
    -0.0000  -0.0000  -0.0000  -0.0000  -0.0000  -0.0000  -0.0000  -0.0000
    -0.0000  -0.0000  -0.0000  -0.0000  -0.0000  -0.0000  -0.0000  -0.0000
    -0.0000  -0.0000  -0.0000  -0.0000

          k = 0.8149-0.9057-0.0004 (  9870 PWs)   bands (ev):

   -39.2435 -39.2435 -39.2432 -39.2432 -39.2407 -39.2407 -39.2404 -39.2404
   -39.0323 -39.0323 -38.9924 -38.9924 -38.3499 -38.3499 -38.3497 -38.3497
   -38.3479 -38.3479 -38.3476 -38.3476 -38.3461 -38.3461 -38.3458 -38.3458
   -38.1408 -38.1408 -38.1240 -38.1240 -38.0891 -38.0891 -15.7536 -15.7536
   -15.7512 -15.7512 -15.7442 -15.7442 -15.7432 -15.7432 -12.7805 -12.7805
   -12.7769 -12.7769 -12.7658 -12.7658 -12.7638 -12.7638 -12.7535 -12.7535
   -12.7515 -12.7515  -3.9877  -3.9877  -3.7159  -3.7159  -3.4827  -3.4827
    -1.6720  -1.6720  -1.4095  -1.4095   3.7420   3.7420   4.5821   4.5821
     4.9718   4.9718   5.4945   5.4945   6.0512   6.0512   6.3038   6.3038
     6.8347   6.8347   7.4769   7.4769   7.7371   7.7371  10.3003  10.3003
    10.6284  10.6284  11.5865  11.5865  12.1670  12.1670  12.5182  12.5182
    13.0651  13.0651  13.7143  13.7143  15.2443  15.2443  15.6550  15.6550
    17.1565  17.1565  17.7904  17.7904  18.4634  18.4634  18.7684  18.7684
    19.2110  19.2110  19.4675  19.4675  20.1693  20.1693  20.4511  20.4511
    20.7203  20.7203  21.1766  21.1766  21.5249  21.5249  21.8720  21.8720
    22.1707  22.1707  22.5371  22.5371

     occupation numbers 
     1.0000   1.0000   1.0000   1.0000   1.0000   1.0000   1.0000   1.0000
     1.0000   1.0000   1.0000   1.0000   1.0000   1.0000   1.0000   1.0000
     1.0000   1.0000   1.0000   1.0000   1.0000   1.0000   1.0000   1.0000
     1.0000   1.0000   1.0000   1.0000   1.0000   1.0000   1.0000   1.0000
     1.0000   1.0000   1.0000   1.0000   1.0000   1.0000   1.0000   1.0000
     1.0000   1.0000   1.0000   1.0000   1.0000   1.0000   1.0000   1.0000
     1.0000   1.0000   1.0000   1.0000   1.0000   1.0000   1.0000   1.0000
     1.0000   1.0000   1.0000   1.0000   1.0000   1.0000   1.0000   1.0000
     1.0000   1.0000   1.0000   1.0000   1.0000   1.0000   1.0000   1.0000
     1.0000   1.0000   1.0000   1.0000   1.0000   1.0000  -0.0000  -0.0000
    -0.0000  -0.0000  -0.0000  -0.0000  -0.0000  -0.0000  -0.0000  -0.0000
    -0.0000  -0.0000  -0.0000  -0.0000  -0.0000  -0.0000  -0.0000  -0.0000
    -0.0000  -0.0000  -0.0000  -0.0000  -0.0000  -0.0000  -0.0000  -0.0000
    -0.0000  -0.0000  -0.0000  -0.0000  -0.0000  -0.0000  -0.0000  -0.0000
    -0.0000  -0.0000  -0.0000  -0.0000  -0.0000  -0.0000  -0.0000  -0.0000
    -0.0000  -0.0000  -0.0000  -0.0000

          k = 0.4435-1.1268 0.1670 (  9868 PWs)   bands (ev):

   -39.2435 -39.2435 -39.2431 -39.2431 -39.2407 -39.2407 -39.2404 -39.2404
   -39.0323 -39.0323 -38.9923 -38.9923 -38.3500 -38.3500 -38.3495 -38.3495
   -38.3478 -38.3478 -38.3475 -38.3475 -38.3461 -38.3461 -38.3459 -38.3459
   -38.1408 -38.1408 -38.1239 -38.1239 -38.0891 -38.0891 -15.7536 -15.7536
   -15.7512 -15.7512 -15.7442 -15.7442 -15.7432 -15.7432 -12.7805 -12.7805
   -12.7769 -12.7769 -12.7658 -12.7658 -12.7638 -12.7638 -12.7535 -12.7535
   -12.7516 -12.7516  -3.9913  -3.9913  -3.6992  -3.6992  -3.4975  -3.4975
    -1.6690  -1.6690  -1.4111  -1.4111   3.7604   3.7604   4.6696   4.6696
     5.0006   5.0006   5.4619   5.4619   5.7747   5.7747   6.1118   6.1118
     6.9226   6.9226   7.8148   7.8148   7.9786   7.9786   9.9917   9.9917
    10.4100  10.4100  11.5889  11.5889  12.1314  12.1314  12.7375  12.7375
    13.1866  13.1866  13.5393  13.5393  15.6739  15.6739  15.9353  15.9353
    16.6765  16.6765  17.4647  17.4647  17.8968  17.8968  19.0939  19.0939
    19.2942  19.2942  19.4821  19.4821  20.1234  20.1234  20.5333  20.5333
    20.8586  20.8586  21.1875  21.1875  21.8481  21.8481  22.1787  22.1787
    22.5396  22.5397  23.0020  23.0022

     occupation numbers 
     1.0000   1.0000   1.0000   1.0000   1.0000   1.0000   1.0000   1.0000
     1.0000   1.0000   1.0000   1.0000   1.0000   1.0000   1.0000   1.0000
     1.0000   1.0000   1.0000   1.0000   1.0000   1.0000   1.0000   1.0000
     1.0000   1.0000   1.0000   1.0000   1.0000   1.0000   1.0000   1.0000
     1.0000   1.0000   1.0000   1.0000   1.0000   1.0000   1.0000   1.0000
     1.0000   1.0000   1.0000   1.0000   1.0000   1.0000   1.0000   1.0000
     1.0000   1.0000   1.0000   1.0000   1.0000   1.0000   1.0000   1.0000
     1.0000   1.0000   1.0000   1.0000   1.0000   1.0000   1.0000   1.0000
     1.0000   1.0000   1.0000   1.0000   1.0000   1.0000   1.0000   1.0000
     1.0000   1.0000   1.0000   1.0000   1.0000   1.0000  -0.0000  -0.0000
    -0.0000  -0.0000  -0.0000  -0.0000  -0.0000  -0.0000  -0.0000  -0.0000
    -0.0000  -0.0000  -0.0000  -0.0000  -0.0000  -0.0000  -0.0000  -0.0000
    -0.0000  -0.0000  -0.0000  -0.0000  -0.0000  -0.0000  -0.0000  -0.0000
    -0.0000  -0.0000  -0.0000  -0.0000  -0.0000  -0.0000  -0.0000  -0.0000
    -0.0000  -0.0000  -0.0000  -0.0000  -0.0000  -0.0000  -0.0000  -0.0000
    -0.0000  -0.0000  -0.0000  -0.0000

          k = 0.0720-1.3479 0.3343 (  9889 PWs)   bands (ev):

   -39.2436 -39.2436 -39.2435 -39.2435 -39.2411 -39.2411 -39.2406 -39.2406
   -39.0326 -39.0326 -38.9926 -38.9926 -38.3502 -38.3502 -38.3499 -38.3499
   -38.3481 -38.3481 -38.3477 -38.3477 -38.3465 -38.3465 -38.3460 -38.3460
   -38.1411 -38.1411 -38.1242 -38.1242 -38.0893 -38.0893 -15.7527 -15.7527
   -15.7527 -15.7527 -15.7434 -15.7434 -15.7433 -15.7433 -12.7826 -12.7826
   -12.7808 -12.7808 -12.7650 -12.7650 -12.7625 -12.7625 -12.7521 -12.7521
   -12.7490 -12.7490  -3.8384  -3.8384  -3.7134  -3.7134  -3.6428  -3.6428
    -1.7831  -1.7831  -1.3211  -1.3211   3.6720   3.6720   4.7020   4.7020
     4.9683   4.9683   5.5987   5.5987   5.9418   5.9418   6.5884   6.5884
     7.1380   7.1380   7.4522   7.4522   7.6512   7.6512   9.7176   9.7176
    10.7373  10.7373  11.1553  11.1553  11.4787  11.4787  12.5180  12.5180
    12.9431  12.9431  13.7533  13.7533  15.2712  15.2712  16.6989  16.6989
    17.7800  17.7800  18.1704  18.1704  19.0857  19.0857  19.1694  19.1694
    19.3195  19.3195  19.7781  19.7781  20.4585  20.4585  20.6912  20.6912
    20.7242  20.7242  21.1741  21.1741  21.3458  21.3458  21.6925  21.6925
    21.8094  21.8094  22.4736  22.4737

     occupation numbers 
     1.0000   1.0000   1.0000   1.0000   1.0000   1.0000   1.0000   1.0000
     1.0000   1.0000   1.0000   1.0000   1.0000   1.0000   1.0000   1.0000
     1.0000   1.0000   1.0000   1.0000   1.0000   1.0000   1.0000   1.0000
     1.0000   1.0000   1.0000   1.0000   1.0000   1.0000   1.0000   1.0000
     1.0000   1.0000   1.0000   1.0000   1.0000   1.0000   1.0000   1.0000
     1.0000   1.0000   1.0000   1.0000   1.0000   1.0000   1.0000   1.0000
     1.0000   1.0000   1.0000   1.0000   1.0000   1.0000   1.0000   1.0000
     1.0000   1.0000   1.0000   1.0000   1.0000   1.0000   1.0000   1.0000
     1.0000   1.0000   1.0000   1.0000   1.0000   1.0000   1.0000   1.0000
     1.0000   1.0000   1.0000   1.0000   1.0000   1.0000  -0.0000  -0.0000
    -0.0000  -0.0000  -0.0000  -0.0000  -0.0000  -0.0000  -0.0000  -0.0000
    -0.0000  -0.0000  -0.0000  -0.0000  -0.0000  -0.0000  -0.0000  -0.0000
    -0.0000  -0.0000  -0.0000  -0.0000  -0.0000  -0.0000  -0.0000  -0.0000
    -0.0000  -0.0000  -0.0000  -0.0000  -0.0000  -0.0000  -0.0000  -0.0000
    -0.0000  -0.0000  -0.0000  -0.0000  -0.0000  -0.0000  -0.0000  -0.0000
    -0.0000  -0.0000  -0.0000  -0.0000

          k = 1.9293-0.2425-0.5024 (  9872 PWs)   bands (ev):

   -39.2434 -39.2434 -39.2432 -39.2432 -39.2407 -39.2407 -39.2405 -39.2405
   -39.0324 -39.0324 -38.9923 -38.9923 -38.3499 -38.3499 -38.3496 -38.3496
   -38.3477 -38.3477 -38.3476 -38.3476 -38.3462 -38.3462 -38.3459 -38.3459
   -38.1409 -38.1409 -38.1239 -38.1239 -38.0891 -38.0891 -15.7536 -15.7536
   -15.7512 -15.7512 -15.7442 -15.7442 -15.7432 -15.7432 -12.7805 -12.7805
   -12.7769 -12.7769 -12.7658 -12.7658 -12.7638 -12.7638 -12.7535 -12.7535
   -12.7516 -12.7516  -3.9215  -3.9215  -3.8195  -3.8195  -3.4504  -3.4504
    -1.6370  -1.6370  -1.4400  -1.4400   3.9806   3.9806   4.6141   4.6141
     4.7801   4.7801   5.1502   5.1502   5.7488   5.7488   6.2106   6.2106
     7.4693   7.4693   7.7493   7.7493   8.1229   8.1229   9.7329   9.7329
    10.4372  10.4372  11.0895  11.0895  12.1472  12.1472  12.7703  12.7703
    13.5047  13.5047  13.7073  13.7073  15.3010  15.3010  15.8753  15.8753
    17.0029  17.0029  17.5524  17.5524  17.8500  17.8500  19.1936  19.1936
    19.3080  19.3080  19.7522  19.7522  20.3142  20.3142  20.7054  20.7054
    20.8016  20.8016  21.1923  21.1923  21.2658  21.2658  21.8772  21.8772
    22.4385  22.4386  22.5665  22.5666

     occupation numbers 
     1.0000   1.0000   1.0000   1.0000   1.0000   1.0000   1.0000   1.0000
     1.0000   1.0000   1.0000   1.0000   1.0000   1.0000   1.0000   1.0000
     1.0000   1.0000   1.0000   1.0000   1.0000   1.0000   1.0000   1.0000
     1.0000   1.0000   1.0000   1.0000   1.0000   1.0000   1.0000   1.0000
     1.0000   1.0000   1.0000   1.0000   1.0000   1.0000   1.0000   1.0000
     1.0000   1.0000   1.0000   1.0000   1.0000   1.0000   1.0000   1.0000
     1.0000   1.0000   1.0000   1.0000   1.0000   1.0000   1.0000   1.0000
     1.0000   1.0000   1.0000   1.0000   1.0000   1.0000   1.0000   1.0000
     1.0000   1.0000   1.0000   1.0000   1.0000   1.0000   1.0000   1.0000
     1.0000   1.0000   1.0000   1.0000   1.0000   1.0000  -0.0000  -0.0000
    -0.0000  -0.0000  -0.0000  -0.0000  -0.0000  -0.0000  -0.0000  -0.0000
    -0.0000  -0.0000  -0.0000  -0.0000  -0.0000  -0.0000  -0.0000  -0.0000
    -0.0000  -0.0000  -0.0000  -0.0000  -0.0000  -0.0000  -0.0000  -0.0000
    -0.0000  -0.0000  -0.0000  -0.0000  -0.0000  -0.0000  -0.0000  -0.0000
    -0.0000  -0.0000  -0.0000  -0.0000  -0.0000  -0.0000  -0.0000  -0.0000
    -0.0000  -0.0000  -0.0000  -0.0000

          k = 1.5579-0.4635-0.3351 (  9895 PWs)   bands (ev):

   -39.2437 -39.2437 -39.2435 -39.2435 -39.2410 -39.2410 -39.2408 -39.2408
   -39.0327 -39.0327 -38.9927 -38.9927 -38.3502 -38.3502 -38.3500 -38.3500
   -38.3480 -38.3480 -38.3479 -38.3479 -38.3464 -38.3464 -38.3463 -38.3463
   -38.1412 -38.1412 -38.1242 -38.1242 -38.0894 -38.0894 -15.7536 -15.7536
   -15.7512 -15.7512 -15.7442 -15.7442 -15.7432 -15.7432 -12.7805 -12.7805
   -12.7769 -12.7769 -12.7658 -12.7658 -12.7638 -12.7638 -12.7535 -12.7535
   -12.7516 -12.7516  -3.9053  -3.9053  -3.8438  -3.8438  -3.4407  -3.4407
    -1.6405  -1.6405  -1.4379  -1.4379   3.9413   3.9413   4.5849   4.5849
     4.7756   4.7756   5.0980   5.0980   5.9898   5.9898   6.5014   6.5014
     7.2670   7.2670   7.4057   7.4057   7.9438   7.9438   9.9732   9.9732
    10.6749  10.6749  11.2410  11.2410  12.0144  12.0144  12.5684  12.5684
    13.4976  13.4976  13.8877  13.8877  14.8617  14.8617  15.7019  15.7019
    17.3440  17.3440  17.7716  17.7716  18.3595  18.3595  19.1625  19.1625
    19.3444  19.3444  19.6779  19.6779  20.0454  20.0454  20.5691  20.5691
    20.6743  20.6743  21.1248  21.1248  21.2469  21.2469  21.4277  21.4277
    22.1332  22.1332  22.6801  22.6801

     occupation numbers 
     1.0000   1.0000   1.0000   1.0000   1.0000   1.0000   1.0000   1.0000
     1.0000   1.0000   1.0000   1.0000   1.0000   1.0000   1.0000   1.0000
     1.0000   1.0000   1.0000   1.0000   1.0000   1.0000   1.0000   1.0000
     1.0000   1.0000   1.0000   1.0000   1.0000   1.0000   1.0000   1.0000
     1.0000   1.0000   1.0000   1.0000   1.0000   1.0000   1.0000   1.0000
     1.0000   1.0000   1.0000   1.0000   1.0000   1.0000   1.0000   1.0000
     1.0000   1.0000   1.0000   1.0000   1.0000   1.0000   1.0000   1.0000
     1.0000   1.0000   1.0000   1.0000   1.0000   1.0000   1.0000   1.0000
     1.0000   1.0000   1.0000   1.0000   1.0000   1.0000   1.0000   1.0000
     1.0000   1.0000   1.0000   1.0000   1.0000   1.0000  -0.0000  -0.0000
    -0.0000  -0.0000  -0.0000  -0.0000  -0.0000  -0.0000  -0.0000  -0.0000
    -0.0000  -0.0000  -0.0000  -0.0000  -0.0000  -0.0000  -0.0000  -0.0000
    -0.0000  -0.0000  -0.0000  -0.0000  -0.0000  -0.0000  -0.0000  -0.0000
    -0.0000  -0.0000  -0.0000  -0.0000  -0.0000  -0.0000  -0.0000  -0.0000
    -0.0000  -0.0000  -0.0000  -0.0000  -0.0000  -0.0000  -0.0000  -0.0000
    -0.0000  -0.0000  -0.0000  -0.0000

          k = 1.1864-0.6846-0.1677 (  9866 PWs)   bands (ev):

   -39.2436 -39.2436 -39.2433 -39.2433 -39.2406 -39.2406 -39.2401 -39.2401
   -39.0322 -39.0322 -38.9924 -38.9924 -38.3502 -38.3502 -38.3499 -38.3499
   -38.3476 -38.3476 -38.3472 -38.3472 -38.3461 -38.3461 -38.3456 -38.3456
   -38.1407 -38.1407 -38.1237 -38.1237 -38.0893 -38.0893 -15.7527 -15.7527
   -15.7527 -15.7527 -15.7434 -15.7434 -15.7433 -15.7433 -12.7826 -12.7826
   -12.7808 -12.7808 -12.7650 -12.7650 -12.7624 -12.7624 -12.7521 -12.7521
   -12.7490 -12.7490  -3.8355  -3.8355  -3.7188  -3.7188  -3.6426  -3.6426
    -1.7497  -1.7497  -1.3546  -1.3546   3.5470   3.5470   4.9452   4.9452
     5.1316   5.1316   5.6939   5.6939   5.7809   5.7809   6.2710   6.2710
     6.9547   6.9547   7.4838   7.4838   7.9570   7.9570   9.4851   9.4851
    10.8384  10.8384  11.1841  11.1841  11.6529  11.6529  12.5847  12.5847
    13.0340  13.0340  13.4463  13.4463  15.0199  15.0199  17.2084  17.2084
    18.0476  18.0476  18.1583  18.1583  18.9415  18.9415  19.1510  19.1510
    19.3418  19.3418  19.6786  19.6786  20.3358  20.3358  20.4029  20.4029
    20.6018  20.6018  21.3045  21.3045  21.3645  21.3645  21.5283  21.5284
    21.8465  21.8465  22.1764  22.1764

     occupation numbers 
     1.0000   1.0000   1.0000   1.0000   1.0000   1.0000   1.0000   1.0000
     1.0000   1.0000   1.0000   1.0000   1.0000   1.0000   1.0000   1.0000
     1.0000   1.0000   1.0000   1.0000   1.0000   1.0000   1.0000   1.0000
     1.0000   1.0000   1.0000   1.0000   1.0000   1.0000   1.0000   1.0000
     1.0000   1.0000   1.0000   1.0000   1.0000   1.0000   1.0000   1.0000
     1.0000   1.0000   1.0000   1.0000   1.0000   1.0000   1.0000   1.0000
     1.0000   1.0000   1.0000   1.0000   1.0000   1.0000   1.0000   1.0000
     1.0000   1.0000   1.0000   1.0000   1.0000   1.0000   1.0000   1.0000
     1.0000   1.0000   1.0000   1.0000   1.0000   1.0000   1.0000   1.0000
     1.0000   1.0000   1.0000   1.0000   1.0000   1.0000  -0.0000  -0.0000
    -0.0000  -0.0000  -0.0000  -0.0000  -0.0000  -0.0000  -0.0000  -0.0000
    -0.0000  -0.0000  -0.0000  -0.0000  -0.0000  -0.0000  -0.0000  -0.0000
    -0.0000  -0.0000  -0.0000  -0.0000  -0.0000  -0.0000  -0.0000  -0.0000
    -0.0000  -0.0000  -0.0000  -0.0000  -0.0000  -0.0000  -0.0000  -0.0000
    -0.0000  -0.0000  -0.0000  -0.0000  -0.0000  -0.0000  -0.0000  -0.0000
    -0.0000  -0.0000  -0.0000  -0.0000

          k =-1.2223 0.6633 0.0011 (  9850 PWs)   bands (ev):

   -39.2431 -39.2431 -39.2431 -39.2431 -39.2404 -39.2404 -39.2401 -39.2401
   -39.0321 -39.0321 -38.9921 -38.9921 -38.3497 -38.3497 -38.3497 -38.3497
   -38.3473 -38.3473 -38.3471 -38.3471 -38.3459 -38.3459 -38.3457 -38.3457
   -38.1407 -38.1407 -38.1235 -38.1235 -38.0889 -38.0889 -15.7527 -15.7527
   -15.7527 -15.7527 -15.7434 -15.7434 -15.7433 -15.7433 -12.7826 -12.7826
   -12.7807 -12.7807 -12.7650 -12.7650 -12.7624 -12.7624 -12.7521 -12.7521
   -12.7490 -12.7490  -3.8340  -3.8340  -3.7218  -3.7218  -3.6424  -3.6424
    -1.7308  -1.7308  -1.3735  -1.3735   3.4970   3.4970   5.1215   5.1215
     5.1490   5.1490   5.7409   5.7409   5.7839   5.7839   6.1221   6.1221
     6.7241   6.7241   7.5482   7.5482   8.1679   8.1679   9.3043   9.3043
    10.7889  10.7889  11.2773  11.2773  11.8769  11.8769  12.5502  12.5502
    13.0049  13.0049  13.3014  13.3014  14.9731  14.9731  17.3584  17.3584
    17.9899  17.9899  18.5758  18.5758  18.8070  18.8070  19.0222  19.0222
    19.4564  19.4564  19.6392  19.6392  20.2305  20.2305  20.3494  20.3494
    20.4900  20.4900  20.9071  20.9071  21.4608  21.4609  21.5413  21.5413
    21.9032  21.9033  22.0708  22.0708

     occupation numbers 
     1.0000   1.0000   1.0000   1.0000   1.0000   1.0000   1.0000   1.0000
     1.0000   1.0000   1.0000   1.0000   1.0000   1.0000   1.0000   1.0000
     1.0000   1.0000   1.0000   1.0000   1.0000   1.0000   1.0000   1.0000
     1.0000   1.0000   1.0000   1.0000   1.0000   1.0000   1.0000   1.0000
     1.0000   1.0000   1.0000   1.0000   1.0000   1.0000   1.0000   1.0000
     1.0000   1.0000   1.0000   1.0000   1.0000   1.0000   1.0000   1.0000
     1.0000   1.0000   1.0000   1.0000   1.0000   1.0000   1.0000   1.0000
     1.0000   1.0000   1.0000   1.0000   1.0000   1.0000   1.0000   1.0000
     1.0000   1.0000   1.0000   1.0000   1.0000   1.0000   1.0000   1.0000
     1.0000   1.0000   1.0000   1.0000   1.0000   1.0000  -0.0000  -0.0000
    -0.0000  -0.0000  -0.0000  -0.0000  -0.0000  -0.0000  -0.0000  -0.0000
    -0.0000  -0.0000  -0.0000  -0.0000  -0.0000  -0.0000  -0.0000  -0.0000
    -0.0000  -0.0000  -0.0000  -0.0000  -0.0000  -0.0000  -0.0000  -0.0000
    -0.0000  -0.0000  -0.0000  -0.0000  -0.0000  -0.0000  -0.0000  -0.0000
    -0.0000  -0.0000  -0.0000  -0.0000  -0.0000  -0.0000  -0.0000  -0.0000
    -0.0000  -0.0000  -0.0000  -0.0000

          k =-1.5937 0.4422 0.1685 (  9884 PWs)   bands (ev):

   -39.2437 -39.2437 -39.2433 -39.2433 -39.2408 -39.2408 -39.2407 -39.2407
   -39.0325 -39.0325 -38.9925 -38.9925 -38.3502 -38.3502 -38.3498 -38.3498
   -38.3480 -38.3480 -38.3478 -38.3478 -38.3462 -38.3462 -38.3461 -38.3461
   -38.1410 -38.1410 -38.1241 -38.1241 -38.0893 -38.0893 -15.7536 -15.7536
   -15.7512 -15.7512 -15.7442 -15.7442 -15.7432 -15.7432 -12.7805 -12.7805
   -12.7769 -12.7769 -12.7658 -12.7658 -12.7638 -12.7638 -12.7535 -12.7535
   -12.7515 -12.7515  -3.9566  -3.9566  -3.7768  -3.7768  -3.4538  -3.4538
    -1.6588  -1.6588  -1.4219  -1.4219   3.8160   3.8160   4.5480   4.5480
     4.9034   4.9034   5.2566   5.2566   6.1601   6.1601   6.5694   6.5694
     7.0585   7.0585   7.1979   7.1979   7.6886   7.6886  10.3162  10.3162
    10.7486  10.7486  11.4326  11.4326  12.0039  12.0039  12.4730  12.4730
    13.2642  13.2642  13.9447  13.9447  14.7728  14.7728  15.6354  15.6354
    17.5737  17.5737  17.8177  17.8177  18.3960  18.3960  19.1057  19.1057
    19.4170  19.4170  19.6330  19.6331  19.7563  19.7563  20.4918  20.4918
    20.7834  20.7834  21.0687  21.0687  21.2298  21.2298  21.5067  21.5067
    21.8311  21.8311  22.6188  22.6189

     occupation numbers 
     1.0000   1.0000   1.0000   1.0000   1.0000   1.0000   1.0000   1.0000
     1.0000   1.0000   1.0000   1.0000   1.0000   1.0000   1.0000   1.0000
     1.0000   1.0000   1.0000   1.0000   1.0000   1.0000   1.0000   1.0000
     1.0000   1.0000   1.0000   1.0000   1.0000   1.0000   1.0000   1.0000
     1.0000   1.0000   1.0000   1.0000   1.0000   1.0000   1.0000   1.0000
     1.0000   1.0000   1.0000   1.0000   1.0000   1.0000   1.0000   1.0000
     1.0000   1.0000   1.0000   1.0000   1.0000   1.0000   1.0000   1.0000
     1.0000   1.0000   1.0000   1.0000   1.0000   1.0000   1.0000   1.0000
     1.0000   1.0000   1.0000   1.0000   1.0000   1.0000   1.0000   1.0000
     1.0000   1.0000   1.0000   1.0000   1.0000   1.0000  -0.0000  -0.0000
    -0.0000  -0.0000  -0.0000  -0.0000  -0.0000  -0.0000  -0.0000  -0.0000
    -0.0000  -0.0000  -0.0000  -0.0000  -0.0000  -0.0000  -0.0000  -0.0000
    -0.0000  -0.0000  -0.0000  -0.0000  -0.0000  -0.0000  -0.0000  -0.0000
    -0.0000  -0.0000  -0.0000  -0.0000  -0.0000  -0.0000  -0.0000  -0.0000
    -0.0000  -0.0000  -0.0000  -0.0000  -0.0000  -0.0000  -0.0000  -0.0000
    -0.0000  -0.0000  -0.0000  -0.0000

          k =-1.9652 0.2211 0.3358 (  9871 PWs)   bands (ev):

   -39.2434 -39.2434 -39.2431 -39.2431 -39.2408 -39.2408 -39.2405 -39.2405
   -39.0324 -39.0324 -38.9923 -38.9923 -38.3499 -38.3499 -38.3495 -38.3495
   -38.3477 -38.3477 -38.3475 -38.3475 -38.3463 -38.3463 -38.3460 -38.3460
   -38.1410 -38.1410 -38.1239 -38.1239 -38.0890 -38.0890 -15.7536 -15.7536
   -15.7512 -15.7512 -15.7442 -15.7442 -15.7432 -15.7432 -12.7805 -12.7805
   -12.7769 -12.7769 -12.7658 -12.7658 -12.7638 -12.7638 -12.7535 -12.7535
   -12.7516 -12.7516  -3.9676  -3.9676  -3.7463  -3.7463  -3.4767  -3.4767
    -1.6524  -1.6524  -1.4255  -1.4255   3.8654   3.8654   4.7018   4.7018
     4.9104   4.9104   5.2884   5.2884   5.6519   5.6519   6.0307   6.0307
     7.2918   7.2918   7.9445   7.9445   8.1336   8.1336   9.7560   9.7560
    10.2975  10.2975  11.2441  11.2441  12.1937  12.1937  12.8702  12.8702
    13.3982  13.3982  13.5358  13.5358  15.6363  15.6363  16.1463  16.1463
    16.7490  16.7490  17.1030  17.1030  17.7398  17.7398  19.1734  19.1734
    19.2513  19.2513  19.6895  19.6895  20.4362  20.4362  20.5643  20.5643
    20.9386  20.9386  21.1722  21.1722  21.5840  21.5840  22.2175  22.2176
    22.4226  22.4227  22.9987  23.0013

     occupation numbers 
     1.0000   1.0000   1.0000   1.0000   1.0000   1.0000   1.0000   1.0000
     1.0000   1.0000   1.0000   1.0000   1.0000   1.0000   1.0000   1.0000
     1.0000   1.0000   1.0000   1.0000   1.0000   1.0000   1.0000   1.0000
     1.0000   1.0000   1.0000   1.0000   1.0000   1.0000   1.0000   1.0000
     1.0000   1.0000   1.0000   1.0000   1.0000   1.0000   1.0000   1.0000
     1.0000   1.0000   1.0000   1.0000   1.0000   1.0000   1.0000   1.0000
     1.0000   1.0000   1.0000   1.0000   1.0000   1.0000   1.0000   1.0000
     1.0000   1.0000   1.0000   1.0000   1.0000   1.0000   1.0000   1.0000
     1.0000   1.0000   1.0000   1.0000   1.0000   1.0000   1.0000   1.0000
     1.0000   1.0000   1.0000   1.0000   1.0000   1.0000  -0.0000  -0.0000
    -0.0000  -0.0000  -0.0000  -0.0000  -0.0000  -0.0000  -0.0000  -0.0000
    -0.0000  -0.0000  -0.0000  -0.0000  -0.0000  -0.0000  -0.0000  -0.0000
    -0.0000  -0.0000  -0.0000  -0.0000  -0.0000  -0.0000  -0.0000  -0.0000
    -0.0000  -0.0000  -0.0000  -0.0000  -0.0000  -0.0000  -0.0000  -0.0000
    -0.0000  -0.0000  -0.0000  -0.0000  -0.0000  -0.0000  -0.0000  -0.0000
    -0.0000  -0.0000  -0.0000  -0.0000

          k =-0.1079 1.3266-0.5009 (  9892 PWs)   bands (ev):

   -39.2436 -39.2436 -39.2434 -39.2434 -39.2410 -39.2410 -39.2409 -39.2409
   -39.0327 -39.0327 -38.9926 -38.9926 -38.3502 -38.3502 -38.3498 -38.3498
   -38.3479 -38.3479 -38.3479 -38.3479 -38.3464 -38.3464 -38.3464 -38.3464
   -38.1412 -38.1412 -38.1242 -38.1242 -38.0892 -38.0892 -15.7527 -15.7527
   -15.7527 -15.7527 -15.7434 -15.7434 -15.7433 -15.7433 -12.7826 -12.7826
   -12.7808 -12.7808 -12.7649 -12.7649 -12.7625 -12.7625 -12.7521 -12.7521
   -12.7490 -12.7490  -3.8396  -3.8396  -3.7108  -3.7108  -3.6428  -3.6428
    -1.7981  -1.7981  -1.3061  -1.3061   3.7579   3.7579   4.5588   4.5588
     4.9047   4.9047   5.5619   5.5619   6.0429   6.0429   6.9092   6.9092
     6.9844   6.9844   7.2468   7.2468   7.7716   7.7716   9.7418   9.7418
    10.7105  10.7105  11.0925  11.0925  11.5160  11.5160  12.5098  12.5098
    12.8055  12.8055  13.8980  13.8980  15.6007  15.6007  16.2276  16.2276
    17.6914  17.6914  18.2207  18.2207  19.0800  19.0800  19.2567  19.2567
    19.3025  19.3025  19.8079  19.8079  20.6974  20.6975  20.7739  20.7739
    20.7994  20.7994  20.9800  20.9800  21.3839  21.3839  21.5502  21.5502
    21.6345  21.6345  22.7293  22.7296

     occupation numbers 
     1.0000   1.0000   1.0000   1.0000   1.0000   1.0000   1.0000   1.0000
     1.0000   1.0000   1.0000   1.0000   1.0000   1.0000   1.0000   1.0000
     1.0000   1.0000   1.0000   1.0000   1.0000   1.0000   1.0000   1.0000
     1.0000   1.0000   1.0000   1.0000   1.0000   1.0000   1.0000   1.0000
     1.0000   1.0000   1.0000   1.0000   1.0000   1.0000   1.0000   1.0000
     1.0000   1.0000   1.0000   1.0000   1.0000   1.0000   1.0000   1.0000
     1.0000   1.0000   1.0000   1.0000   1.0000   1.0000   1.0000   1.0000
     1.0000   1.0000   1.0000   1.0000   1.0000   1.0000   1.0000   1.0000
     1.0000   1.0000   1.0000   1.0000   1.0000   1.0000   1.0000   1.0000
     1.0000   1.0000   1.0000   1.0000   1.0000   1.0000  -0.0000  -0.0000
    -0.0000  -0.0000  -0.0000  -0.0000  -0.0000  -0.0000  -0.0000  -0.0000
    -0.0000  -0.0000  -0.0000  -0.0000  -0.0000  -0.0000  -0.0000  -0.0000
    -0.0000  -0.0000  -0.0000  -0.0000  -0.0000  -0.0000  -0.0000  -0.0000
    -0.0000  -0.0000  -0.0000  -0.0000  -0.0000  -0.0000  -0.0000  -0.0000
    -0.0000  -0.0000  -0.0000  -0.0000  -0.0000  -0.0000  -0.0000  -0.0000
    -0.0000  -0.0000  -0.0000  -0.0000

          k =-0.4793 1.1055-0.3336 (  9871 PWs)   bands (ev):

   -39.2434 -39.2434 -39.2431 -39.2431 -39.2408 -39.2408 -39.2405 -39.2405
   -39.0324 -39.0324 -38.9923 -38.9923 -38.3499 -38.3499 -38.3495 -38.3495
   -38.3477 -38.3477 -38.3475 -38.3475 -38.3463 -38.3463 -38.3460 -38.3460
   -38.1410 -38.1410 -38.1239 -38.1239 -38.0890 -38.0890 -15.7536 -15.7536
   -15.7512 -15.7512 -15.7442 -15.7442 -15.7432 -15.7432 -12.7805 -12.7805
   -12.7769 -12.7769 -12.7658 -12.7658 -12.7638 -12.7638 -12.7535 -12.7535
   -12.7516 -12.7516  -3.9676  -3.9676  -3.7463  -3.7463  -3.4767  -3.4767
    -1.6524  -1.6524  -1.4255  -1.4255   3.8654   3.8654   4.7018   4.7018
     4.9104   4.9104   5.2884   5.2884   5.6519   5.6519   6.0307   6.0307
     7.2918   7.2918   7.9445   7.9445   8.1336   8.1336   9.7560   9.7560
    10.2975  10.2975  11.2441  11.2441  12.1937  12.1937  12.8702  12.8702
    13.3982  13.3982  13.5358  13.5358  15.6363  15.6363  16.1463  16.1463
    16.7490  16.7490  17.1030  17.1030  17.7398  17.7398  19.1734  19.1734
    19.2513  19.2513  19.6895  19.6895  20.4362  20.4362  20.5643  20.5643
    20.9386  20.9386  21.1722  21.1722  21.5840  21.5840  22.2175  22.2175
    22.4226  22.4226  22.9987  22.9995

     occupation numbers 
     1.0000   1.0000   1.0000   1.0000   1.0000   1.0000   1.0000   1.0000
     1.0000   1.0000   1.0000   1.0000   1.0000   1.0000   1.0000   1.0000
     1.0000   1.0000   1.0000   1.0000   1.0000   1.0000   1.0000   1.0000
     1.0000   1.0000   1.0000   1.0000   1.0000   1.0000   1.0000   1.0000
     1.0000   1.0000   1.0000   1.0000   1.0000   1.0000   1.0000   1.0000
     1.0000   1.0000   1.0000   1.0000   1.0000   1.0000   1.0000   1.0000
     1.0000   1.0000   1.0000   1.0000   1.0000   1.0000   1.0000   1.0000
     1.0000   1.0000   1.0000   1.0000   1.0000   1.0000   1.0000   1.0000
     1.0000   1.0000   1.0000   1.0000   1.0000   1.0000   1.0000   1.0000
     1.0000   1.0000   1.0000   1.0000   1.0000   1.0000  -0.0000  -0.0000
    -0.0000  -0.0000  -0.0000  -0.0000  -0.0000  -0.0000  -0.0000  -0.0000
    -0.0000  -0.0000  -0.0000  -0.0000  -0.0000  -0.0000  -0.0000  -0.0000
    -0.0000  -0.0000  -0.0000  -0.0000  -0.0000  -0.0000  -0.0000  -0.0000
    -0.0000  -0.0000  -0.0000  -0.0000  -0.0000  -0.0000  -0.0000  -0.0000
    -0.0000  -0.0000  -0.0000  -0.0000  -0.0000  -0.0000  -0.0000  -0.0000
    -0.0000  -0.0000  -0.0000  -0.0000

          k =-0.8508 0.8844-0.1662 (  9884 PWs)   bands (ev):

   -39.2437 -39.2437 -39.2433 -39.2433 -39.2408 -39.2408 -39.2407 -39.2407
   -39.0325 -39.0325 -38.9925 -38.9925 -38.3502 -38.3502 -38.3498 -38.3498
   -38.3480 -38.3480 -38.3478 -38.3478 -38.3462 -38.3462 -38.3461 -38.3461
   -38.1410 -38.1410 -38.1241 -38.1241 -38.0893 -38.0893 -15.7536 -15.7536
   -15.7512 -15.7512 -15.7442 -15.7442 -15.7432 -15.7432 -12.7805 -12.7805
   -12.7769 -12.7769 -12.7658 -12.7658 -12.7638 -12.7638 -12.7535 -12.7535
   -12.7515 -12.7515  -3.9566  -3.9566  -3.7768  -3.7768  -3.4538  -3.4538
    -1.6588  -1.6588  -1.4219  -1.4219   3.8160   3.8160   4.5480   4.5480
     4.9034   4.9034   5.2566   5.2566   6.1601   6.1601   6.5694   6.5694
     7.0585   7.0585   7.1979   7.1979   7.6886   7.6886  10.3162  10.3162
    10.7486  10.7486  11.4326  11.4326  12.0039  12.0039  12.4730  12.4730
    13.2642  13.2642  13.9447  13.9447  14.7728  14.7728  15.6354  15.6354
    17.5737  17.5737  17.8177  17.8177  18.3960  18.3960  19.1057  19.1057
    19.4170  19.4170  19.6330  19.6331  19.7563  19.7563  20.4918  20.4918
    20.7834  20.7834  21.0687  21.0687  21.2298  21.2298  21.5067  21.5067
    21.8311  21.8311  22.6189  22.6189

     occupation numbers 
     1.0000   1.0000   1.0000   1.0000   1.0000   1.0000   1.0000   1.0000
     1.0000   1.0000   1.0000   1.0000   1.0000   1.0000   1.0000   1.0000
     1.0000   1.0000   1.0000   1.0000   1.0000   1.0000   1.0000   1.0000
     1.0000   1.0000   1.0000   1.0000   1.0000   1.0000   1.0000   1.0000
     1.0000   1.0000   1.0000   1.0000   1.0000   1.0000   1.0000   1.0000
     1.0000   1.0000   1.0000   1.0000   1.0000   1.0000   1.0000   1.0000
     1.0000   1.0000   1.0000   1.0000   1.0000   1.0000   1.0000   1.0000
     1.0000   1.0000   1.0000   1.0000   1.0000   1.0000   1.0000   1.0000
     1.0000   1.0000   1.0000   1.0000   1.0000   1.0000   1.0000   1.0000
     1.0000   1.0000   1.0000   1.0000   1.0000   1.0000  -0.0000  -0.0000
    -0.0000  -0.0000  -0.0000  -0.0000  -0.0000  -0.0000  -0.0000  -0.0000
    -0.0000  -0.0000  -0.0000  -0.0000  -0.0000  -0.0000  -0.0000  -0.0000
    -0.0000  -0.0000  -0.0000  -0.0000  -0.0000  -0.0000  -0.0000  -0.0000
    -0.0000  -0.0000  -0.0000  -0.0000  -0.0000  -0.0000  -0.0000  -0.0000
    -0.0000  -0.0000  -0.0000  -0.0000  -0.0000  -0.0000  -0.0000  -0.0000
    -0.0000  -0.0000  -0.0000  -0.0000

          k =-1.2223 1.1268 0.0007 (  9884 PWs)   bands (ev):

   -39.2437 -39.2437 -39.2433 -39.2433 -39.2408 -39.2408 -39.2407 -39.2407
   -39.0325 -39.0325 -38.9925 -38.9925 -38.3502 -38.3502 -38.3498 -38.3498
   -38.3480 -38.3480 -38.3478 -38.3478 -38.3462 -38.3462 -38.3461 -38.3461
   -38.1410 -38.1410 -38.1241 -38.1241 -38.0893 -38.0893 -15.7536 -15.7536
   -15.7512 -15.7512 -15.7442 -15.7442 -15.7432 -15.7432 -12.7805 -12.7805
   -12.7769 -12.7769 -12.7658 -12.7658 -12.7638 -12.7638 -12.7535 -12.7535
   -12.7515 -12.7515  -3.9566  -3.9566  -3.7768  -3.7768  -3.4538  -3.4538
    -1.6588  -1.6588  -1.4219  -1.4219   3.8160   3.8160   4.5480   4.5480
     4.9034   4.9034   5.2566   5.2566   6.1601   6.1601   6.5694   6.5694
     7.0585   7.0585   7.1979   7.1979   7.6886   7.6886  10.3162  10.3162
    10.7486  10.7486  11.4326  11.4326  12.0039  12.0039  12.4730  12.4730
    13.2642  13.2642  13.9447  13.9447  14.7728  14.7728  15.6354  15.6354
    17.5737  17.5737  17.8177  17.8177  18.3960  18.3960  19.1057  19.1057
    19.4170  19.4170  19.6330  19.6331  19.7563  19.7563  20.4918  20.4918
    20.7834  20.7834  21.0687  21.0687  21.2298  21.2298  21.5067  21.5067
    21.8311  21.8311  22.6188  22.6189

     occupation numbers 
     1.0000   1.0000   1.0000   1.0000   1.0000   1.0000   1.0000   1.0000
     1.0000   1.0000   1.0000   1.0000   1.0000   1.0000   1.0000   1.0000
     1.0000   1.0000   1.0000   1.0000   1.0000   1.0000   1.0000   1.0000
     1.0000   1.0000   1.0000   1.0000   1.0000   1.0000   1.0000   1.0000
     1.0000   1.0000   1.0000   1.0000   1.0000   1.0000   1.0000   1.0000
     1.0000   1.0000   1.0000   1.0000   1.0000   1.0000   1.0000   1.0000
     1.0000   1.0000   1.0000   1.0000   1.0000   1.0000   1.0000   1.0000
     1.0000   1.0000   1.0000   1.0000   1.0000   1.0000   1.0000   1.0000
     1.0000   1.0000   1.0000   1.0000   1.0000   1.0000   1.0000   1.0000
     1.0000   1.0000   1.0000   1.0000   1.0000   1.0000  -0.0000  -0.0000
    -0.0000  -0.0000  -0.0000  -0.0000  -0.0000  -0.0000  -0.0000  -0.0000
    -0.0000  -0.0000  -0.0000  -0.0000  -0.0000  -0.0000  -0.0000  -0.0000
    -0.0000  -0.0000  -0.0000  -0.0000  -0.0000  -0.0000  -0.0000  -0.0000
    -0.0000  -0.0000  -0.0000  -0.0000  -0.0000  -0.0000  -0.0000  -0.0000
    -0.0000  -0.0000  -0.0000  -0.0000  -0.0000  -0.0000  -0.0000  -0.0000
    -0.0000  -0.0000  -0.0000  -0.0000

          k =-1.5938 0.9057 0.1681 (  9894 PWs)   bands (ev):

   -39.2441 -39.2441 -39.2434 -39.2434 -39.2410 -39.2410 -39.2407 -39.2407
   -39.0326 -39.0326 -38.9928 -38.9928 -38.3506 -38.3506 -38.3499 -38.3499
   -38.3481 -38.3481 -38.3477 -38.3477 -38.3464 -38.3464 -38.3462 -38.3462
   -38.1411 -38.1411 -38.1242 -38.1242 -38.0896 -38.0896 -15.7537 -15.7537
   -15.7535 -15.7535 -15.7440 -15.7439 -15.7429 -15.7429 -12.7810 -12.7810
   -12.7786 -12.7786 -12.7649 -12.7649 -12.7631 -12.7631 -12.7549 -12.7549
   -12.7521 -12.7521  -4.4440  -4.4440  -4.1659  -4.1659  -3.4768  -3.4768
    -1.3740  -1.3740  -0.8829  -0.8829   4.1906   4.1906   4.7634   4.7634
     5.4052   5.4052   5.8742   5.8743   6.0881   6.0881   6.3974   6.3974
     7.5118   7.5118   7.7213   7.7213   8.3152   8.3152   9.1990   9.1990
    10.5010  10.5010  10.9950  10.9950  11.5265  11.5265  12.6218  12.6218
    13.2781  13.2781  13.4167  13.4167  15.0634  15.0634  15.9789  15.9789
    17.1550  17.1550  17.5291  17.5291  17.6168  17.6168  18.1076  18.1076
    18.8213  18.8213  19.3060  19.3060  19.4968  19.4968  20.0392  20.0392
    20.3431  20.3431  20.7542  20.7542  21.2899  21.2899  21.6602  21.6602
    21.9574  21.9574  22.6339  22.6339

     occupation numbers 
     1.0000   1.0000   1.0000   1.0000   1.0000   1.0000   1.0000   1.0000
     1.0000   1.0000   1.0000   1.0000   1.0000   1.0000   1.0000   1.0000
     1.0000   1.0000   1.0000   1.0000   1.0000   1.0000   1.0000   1.0000
     1.0000   1.0000   1.0000   1.0000   1.0000   1.0000   1.0000   1.0000
     1.0000   1.0000   1.0000   1.0000   1.0000   1.0000   1.0000   1.0000
     1.0000   1.0000   1.0000   1.0000   1.0000   1.0000   1.0000   1.0000
     1.0000   1.0000   1.0000   1.0000   1.0000   1.0000   1.0000   1.0000
     1.0000   1.0000   1.0000   1.0000   1.0000   1.0000   1.0000   1.0000
     1.0000   1.0000   1.0000   1.0000   1.0000   1.0000   1.0000   1.0000
     1.0000   1.0000   1.0000   1.0000   1.0056   1.0056  -0.0000  -0.0000
    -0.0000  -0.0000  -0.0000  -0.0000  -0.0000  -0.0000  -0.0000  -0.0000
    -0.0000  -0.0000  -0.0000  -0.0000  -0.0000  -0.0000  -0.0000  -0.0000
    -0.0000  -0.0000  -0.0000  -0.0000  -0.0000  -0.0000  -0.0000  -0.0000
    -0.0000  -0.0000  -0.0000  -0.0000  -0.0000  -0.0000  -0.0000  -0.0000
    -0.0000  -0.0000  -0.0000  -0.0000  -0.0000  -0.0000  -0.0000  -0.0000
    -0.0000  -0.0000  -0.0000  -0.0000

          k =-1.9653 0.6846 0.3354 (  9898 PWs)   bands (ev):

   -39.2441 -39.2441 -39.2437 -39.2437 -39.2412 -39.2412 -39.2404 -39.2404
   -39.0326 -39.0326 -38.9929 -38.9929 -38.3506 -38.3506 -38.3503 -38.3503
   -38.3481 -38.3481 -38.3474 -38.3474 -38.3467 -38.3467 -38.3461 -38.3461
   -38.1412 -38.1412 -38.1241 -38.1241 -38.0898 -38.0898 -15.7546 -15.7546
   -15.7533 -15.7533 -15.7441 -15.7441 -15.7429 -15.7429 -12.7802 -12.7802
   -12.7765 -12.7765 -12.7647 -12.7647 -12.7636 -12.7636 -12.7563 -12.7563
   -12.7546 -12.7546  -4.6271  -4.6271  -4.3377  -4.3377  -3.4994  -3.4994
    -1.1967  -1.1967  -0.7043  -0.7043   4.4679   4.4679   4.9273   4.9273
     5.3615   5.3615   5.9599   5.9599   6.3547   6.3547   6.7617   6.7617
     7.3013   7.3013   7.7818   7.7818   7.9204   7.9204  10.0257  10.0257
    10.1935  10.1935  11.2849  11.2849  11.8151  11.8151  12.2409  12.2409
    12.7490  12.7490  14.2711  14.2711  14.3430  14.3430  15.3584  15.3584
    15.9792  15.9792  17.3858  17.3858  17.7120  17.7120  18.2734  18.2734
    18.5836  18.5836  19.0637  19.0637  19.5431  19.5431  19.8478  19.8478
    20.0114  20.0114  20.2563  20.2563  20.7150  20.7150  21.4559  21.4559
    22.1176  22.1176  22.2628  22.2628

     occupation numbers 
     1.0000   1.0000   1.0000   1.0000   1.0000   1.0000   1.0000   1.0000
     1.0000   1.0000   1.0000   1.0000   1.0000   1.0000   1.0000   1.0000
     1.0000   1.0000   1.0000   1.0000   1.0000   1.0000   1.0000   1.0000
     1.0000   1.0000   1.0000   1.0000   1.0000   1.0000   1.0000   1.0000
     1.0000   1.0000   1.0000   1.0000   1.0000   1.0000   1.0000   1.0000
     1.0000   1.0000   1.0000   1.0000   1.0000   1.0000   1.0000   1.0000
     1.0000   1.0000   1.0000   1.0000   1.0000   1.0000   1.0000   1.0000
     1.0000   1.0000   1.0000   1.0000   1.0000   1.0000   1.0000   1.0000
     1.0000   1.0000   1.0000   1.0000   1.0000   1.0000   1.0000   1.0000
     1.0000   1.0000   1.0000   1.0000   1.0000   1.0000  -0.0000  -0.0000
    -0.0000  -0.0000  -0.0000  -0.0000  -0.0000  -0.0000  -0.0000  -0.0000
    -0.0000  -0.0000  -0.0000  -0.0000  -0.0000  -0.0000  -0.0000  -0.0000
    -0.0000  -0.0000  -0.0000  -0.0000  -0.0000  -0.0000  -0.0000  -0.0000
    -0.0000  -0.0000  -0.0000  -0.0000  -0.0000  -0.0000  -0.0000  -0.0000
    -0.0000  -0.0000  -0.0000  -0.0000  -0.0000  -0.0000  -0.0000  -0.0000
    -0.0000  -0.0000  -0.0000  -0.0000

          k =-0.1079 1.7901-0.5013 (  9880 PWs)   bands (ev):

   -39.2439 -39.2439 -39.2433 -39.2433 -39.2409 -39.2409 -39.2405 -39.2405
   -39.0325 -39.0325 -38.9926 -38.9926 -38.3504 -38.3504 -38.3498 -38.3498
   -38.3479 -38.3479 -38.3474 -38.3474 -38.3465 -38.3465 -38.3461 -38.3461
   -38.1411 -38.1411 -38.1239 -38.1239 -38.0895 -38.0895 -15.7537 -15.7537
   -15.7535 -15.7535 -15.7440 -15.7439 -15.7429 -15.7429 -12.7810 -12.7809
   -12.7786 -12.7786 -12.7649 -12.7649 -12.7632 -12.7632 -12.7548 -12.7548
   -12.7522 -12.7522  -4.4232  -4.4232  -4.1918  -4.1918  -3.4800  -3.4800
    -1.2970  -1.2970  -0.9524  -0.9524   4.0078   4.0078   4.9384   4.9384
     5.4667   5.4667   5.8908   5.8908   6.2037   6.2037   6.7785   6.7785
     7.1721   7.1721   7.3878   7.3878   7.8444   7.8444   9.7227   9.7227
    10.8260  10.8260  11.0543  11.0543  11.6134  11.6134  12.4264  12.4264
    13.0670  13.0670  13.3360  13.3360  15.0935  15.0935  16.3691  16.3691
    16.7131  16.7131  17.5152  17.5152  17.6074  17.6074  17.8310  17.8310
    18.1425  18.1425  18.9816  18.9816  20.0441  20.0441  20.4387  20.4387
    20.9799  20.9799  21.0679  21.0679  21.2601  21.2601  22.1494  22.1494
    22.4698  22.4699  22.8956  22.8957

     occupation numbers 
     1.0000   1.0000   1.0000   1.0000   1.0000   1.0000   1.0000   1.0000
     1.0000   1.0000   1.0000   1.0000   1.0000   1.0000   1.0000   1.0000
     1.0000   1.0000   1.0000   1.0000   1.0000   1.0000   1.0000   1.0000
     1.0000   1.0000   1.0000   1.0000   1.0000   1.0000   1.0000   1.0000
     1.0000   1.0000   1.0000   1.0000   1.0000   1.0000   1.0000   1.0000
     1.0000   1.0000   1.0000   1.0000   1.0000   1.0000   1.0000   1.0000
     1.0000   1.0000   1.0000   1.0000   1.0000   1.0000   1.0000   1.0000
     1.0000   1.0000   1.0000   1.0000   1.0000   1.0000   1.0000   1.0000
     1.0000   1.0000   1.0000   1.0000   1.0000   1.0000   1.0000   1.0000
     1.0000   1.0000   1.0000   1.0000   1.0000   1.0000  -0.0000  -0.0000
    -0.0000  -0.0000  -0.0000  -0.0000  -0.0000  -0.0000  -0.0000  -0.0000
    -0.0000  -0.0000  -0.0000  -0.0000  -0.0000  -0.0000  -0.0000  -0.0000
    -0.0000  -0.0000  -0.0000  -0.0000  -0.0000  -0.0000  -0.0000  -0.0000
    -0.0000  -0.0000  -0.0000  -0.0000  -0.0000  -0.0000  -0.0000  -0.0000
    -0.0000  -0.0000  -0.0000  -0.0000  -0.0000  -0.0000  -0.0000  -0.0000
    -0.0000  -0.0000  -0.0000  -0.0000

          k =-0.4794 1.5690-0.3339 (  9872 PWs)   bands (ev):

   -39.2434 -39.2434 -39.2432 -39.2432 -39.2407 -39.2407 -39.2405 -39.2405
   -39.0324 -39.0324 -38.9923 -38.9923 -38.3499 -38.3499 -38.3496 -38.3496
   -38.3477 -38.3477 -38.3476 -38.3476 -38.3462 -38.3462 -38.3459 -38.3459
   -38.1409 -38.1409 -38.1239 -38.1239 -38.0891 -38.0891 -15.7536 -15.7536
   -15.7512 -15.7512 -15.7442 -15.7442 -15.7432 -15.7432 -12.7805 -12.7805
   -12.7769 -12.7769 -12.7658 -12.7658 -12.7638 -12.7638 -12.7535 -12.7535
   -12.7516 -12.7516  -3.9215  -3.9215  -3.8195  -3.8195  -3.4504  -3.4504
    -1.6370  -1.6370  -1.4400  -1.4400   3.9806   3.9806   4.6141   4.6141
     4.7801   4.7801   5.1502   5.1502   5.7488   5.7488   6.2106   6.2106
     7.4693   7.4693   7.7493   7.7493   8.1229   8.1229   9.7329   9.7329
    10.4372  10.4372  11.0895  11.0895  12.1472  12.1472  12.7703  12.7703
    13.5047  13.5047  13.7073  13.7073  15.3010  15.3010  15.8753  15.8753
    17.0029  17.0029  17.5524  17.5524  17.8500  17.8500  19.1936  19.1936
    19.3080  19.3080  19.7522  19.7522  20.3142  20.3142  20.7054  20.7054
    20.8016  20.8016  21.1923  21.1923  21.2658  21.2658  21.8772  21.8772
    22.4386  22.4387  22.5666  22.5666

     occupation numbers 
     1.0000   1.0000   1.0000   1.0000   1.0000   1.0000   1.0000   1.0000
     1.0000   1.0000   1.0000   1.0000   1.0000   1.0000   1.0000   1.0000
     1.0000   1.0000   1.0000   1.0000   1.0000   1.0000   1.0000   1.0000
     1.0000   1.0000   1.0000   1.0000   1.0000   1.0000   1.0000   1.0000
     1.0000   1.0000   1.0000   1.0000   1.0000   1.0000   1.0000   1.0000
     1.0000   1.0000   1.0000   1.0000   1.0000   1.0000   1.0000   1.0000
     1.0000   1.0000   1.0000   1.0000   1.0000   1.0000   1.0000   1.0000
     1.0000   1.0000   1.0000   1.0000   1.0000   1.0000   1.0000   1.0000
     1.0000   1.0000   1.0000   1.0000   1.0000   1.0000   1.0000   1.0000
     1.0000   1.0000   1.0000   1.0000   1.0000   1.0000  -0.0000  -0.0000
    -0.0000  -0.0000  -0.0000  -0.0000  -0.0000  -0.0000  -0.0000  -0.0000
    -0.0000  -0.0000  -0.0000  -0.0000  -0.0000  -0.0000  -0.0000  -0.0000
    -0.0000  -0.0000  -0.0000  -0.0000  -0.0000  -0.0000  -0.0000  -0.0000
    -0.0000  -0.0000  -0.0000  -0.0000  -0.0000  -0.0000  -0.0000  -0.0000
    -0.0000  -0.0000  -0.0000  -0.0000  -0.0000  -0.0000  -0.0000  -0.0000
    -0.0000  -0.0000  -0.0000  -0.0000

          k =-0.8509 1.3479-0.1666 (  9892 PWs)   bands (ev):

   -39.2437 -39.2437 -39.2435 -39.2435 -39.2410 -39.2410 -39.2405 -39.2405
   -39.0325 -39.0325 -38.9927 -38.9927 -38.3502 -38.3502 -38.3501 -38.3501
   -38.3479 -38.3479 -38.3475 -38.3475 -38.3465 -38.3465 -38.3462 -38.3461
   -38.1411 -38.1411 -38.1240 -38.1240 -38.0895 -38.0895 -15.7534 -15.7533
   -15.7497 -15.7497 -15.7447 -15.7447 -15.7433 -15.7433 -12.7764 -12.7764
   -12.7743 -12.7743 -12.7691 -12.7691 -12.7650 -12.7650 -12.7531 -12.7531
   -12.7530 -12.7530  -3.5746  -3.5745  -3.5450  -3.5450  -3.4602  -3.4602
    -1.8291  -1.8291  -1.8086  -1.8086   3.8638   3.8638   4.3799   4.3799
     4.5826   4.5826   4.9836   4.9836   5.6588   5.6588   6.1823   6.1823
     6.9185   6.9185   7.6780   7.6780   7.9589   7.9589  10.0631  10.0631
    10.8387  10.8387  11.5429  11.5429  12.5083  12.5083  12.9012  12.9012
    13.2937  13.2937  15.0402  15.0402  15.7057  15.7057  15.9262  15.9262
    16.0847  16.0847  16.4324  16.4324  17.8204  17.8204  18.5085  18.5085
    19.0322  19.0322  19.9328  19.9328  20.0913  20.0913  20.5526  20.5526
    20.7331  20.7331  21.3015  21.3015  22.2672  22.2672  22.3993  22.3993
    23.2931  23.2931  23.4172  23.4172

     occupation numbers 
     1.0000   1.0000   1.0000   1.0000   1.0000   1.0000   1.0000   1.0000
     1.0000   1.0000   1.0000   1.0000   1.0000   1.0000   1.0000   1.0000
     1.0000   1.0000   1.0000   1.0000   1.0000   1.0000   1.0000   1.0000
     1.0000   1.0000   1.0000   1.0000   1.0000   1.0000   1.0000   1.0000
     1.0000   1.0000   1.0000   1.0000   1.0000   1.0000   1.0000   1.0000
     1.0000   1.0000   1.0000   1.0000   1.0000   1.0000   1.0000   1.0000
     1.0000   1.0000   1.0000   1.0000   1.0000   1.0000   1.0000   1.0000
     1.0000   1.0000   1.0000   1.0000   1.0000   1.0000   1.0000   1.0000
     1.0000   1.0000   1.0000   1.0000   1.0000   1.0000   1.0000   1.0000
     1.0000   1.0000   1.0000   1.0000   1.0000   1.0000  -0.0000  -0.0000
    -0.0000  -0.0000  -0.0000  -0.0000  -0.0000  -0.0000  -0.0000  -0.0000
    -0.0000  -0.0000  -0.0000  -0.0000  -0.0000  -0.0000  -0.0000  -0.0000
    -0.0000  -0.0000  -0.0000  -0.0000  -0.0000  -0.0000  -0.0000  -0.0000
    -0.0000  -0.0000  -0.0000  -0.0000  -0.0000  -0.0000  -0.0000  -0.0000
    -0.0000  -0.0000  -0.0000  -0.0000  -0.0000  -0.0000  -0.0000  -0.0000
    -0.0000  -0.0000  -0.0000  -0.0000

          k =-1.2224 1.5904 0.0004 (  9871 PWs)   bands (ev):

   -39.2434 -39.2434 -39.2431 -39.2431 -39.2408 -39.2408 -39.2405 -39.2405
   -39.0324 -39.0324 -38.9923 -38.9923 -38.3499 -38.3499 -38.3495 -38.3495
   -38.3477 -38.3477 -38.3475 -38.3475 -38.3463 -38.3463 -38.3460 -38.3460
   -38.1410 -38.1410 -38.1239 -38.1239 -38.0890 -38.0890 -15.7536 -15.7536
   -15.7512 -15.7512 -15.7442 -15.7442 -15.7432 -15.7432 -12.7805 -12.7805
   -12.7769 -12.7769 -12.7658 -12.7658 -12.7638 -12.7638 -12.7535 -12.7535
   -12.7516 -12.7516  -3.9676  -3.9676  -3.7463  -3.7463  -3.4767  -3.4767
    -1.6524  -1.6524  -1.4255  -1.4255   3.8654   3.8654   4.7018   4.7018
     4.9104   4.9104   5.2884   5.2884   5.6519   5.6519   6.0307   6.0307
     7.2918   7.2918   7.9445   7.9445   8.1336   8.1336   9.7560   9.7560
    10.2975  10.2975  11.2441  11.2441  12.1937  12.1937  12.8702  12.8702
    13.3982  13.3982  13.5358  13.5358  15.6363  15.6363  16.1463  16.1463
    16.7490  16.7490  17.1030  17.1030  17.7398  17.7398  19.1734  19.1734
    19.2513  19.2513  19.6895  19.6895  20.4362  20.4362  20.5643  20.5643
    20.9386  20.9386  21.1722  21.1722  21.5840  21.5840  22.2176  22.2176
    22.4226  22.4226  23.0045  23.0062

     occupation numbers 
     1.0000   1.0000   1.0000   1.0000   1.0000   1.0000   1.0000   1.0000
     1.0000   1.0000   1.0000   1.0000   1.0000   1.0000   1.0000   1.0000
     1.0000   1.0000   1.0000   1.0000   1.0000   1.0000   1.0000   1.0000
     1.0000   1.0000   1.0000   1.0000   1.0000   1.0000   1.0000   1.0000
     1.0000   1.0000   1.0000   1.0000   1.0000   1.0000   1.0000   1.0000
     1.0000   1.0000   1.0000   1.0000   1.0000   1.0000   1.0000   1.0000
     1.0000   1.0000   1.0000   1.0000   1.0000   1.0000   1.0000   1.0000
     1.0000   1.0000   1.0000   1.0000   1.0000   1.0000   1.0000   1.0000
     1.0000   1.0000   1.0000   1.0000   1.0000   1.0000   1.0000   1.0000
     1.0000   1.0000   1.0000   1.0000   1.0000   1.0000  -0.0000  -0.0000
    -0.0000  -0.0000  -0.0000  -0.0000  -0.0000  -0.0000  -0.0000  -0.0000
    -0.0000  -0.0000  -0.0000  -0.0000  -0.0000  -0.0000  -0.0000  -0.0000
    -0.0000  -0.0000  -0.0000  -0.0000  -0.0000  -0.0000  -0.0000  -0.0000
    -0.0000  -0.0000  -0.0000  -0.0000  -0.0000  -0.0000  -0.0000  -0.0000
    -0.0000  -0.0000  -0.0000  -0.0000  -0.0000  -0.0000  -0.0000  -0.0000
    -0.0000  -0.0000  -0.0000  -0.0000

          k =-1.5939 1.3693 0.1677 (  9898 PWs)   bands (ev):

   -39.2441 -39.2441 -39.2437 -39.2437 -39.2412 -39.2412 -39.2404 -39.2404
   -39.0326 -39.0326 -38.9929 -38.9929 -38.3506 -38.3506 -38.3503 -38.3503
   -38.3481 -38.3481 -38.3474 -38.3474 -38.3467 -38.3467 -38.3461 -38.3461
   -38.1412 -38.1412 -38.1241 -38.1241 -38.0898 -38.0898 -15.7546 -15.7546
   -15.7533 -15.7533 -15.7441 -15.7441 -15.7429 -15.7429 -12.7802 -12.7802
   -12.7765 -12.7765 -12.7647 -12.7647 -12.7636 -12.7636 -12.7563 -12.7563
   -12.7546 -12.7546  -4.6271  -4.6271  -4.3377  -4.3377  -3.4994  -3.4994
    -1.1967  -1.1967  -0.7043  -0.7043   4.4679   4.4679   4.9273   4.9273
     5.3615   5.3615   5.9599   5.9599   6.3547   6.3547   6.7617   6.7617
     7.3013   7.3013   7.7818   7.7818   7.9204   7.9204  10.0257  10.0257
    10.1935  10.1935  11.2849  11.2849  11.8151  11.8151  12.2409  12.2409
    12.7490  12.7490  14.2711  14.2711  14.3430  14.3430  15.3584  15.3584
    15.9792  15.9792  17.3858  17.3858  17.7120  17.7120  18.2734  18.2734
    18.5836  18.5836  19.0637  19.0637  19.5431  19.5431  19.8478  19.8478
    20.0114  20.0114  20.2563  20.2563  20.7150  20.7150  21.4559  21.4559
    22.1177  22.1178  22.2630  22.2632

     occupation numbers 
     1.0000   1.0000   1.0000   1.0000   1.0000   1.0000   1.0000   1.0000
     1.0000   1.0000   1.0000   1.0000   1.0000   1.0000   1.0000   1.0000
     1.0000   1.0000   1.0000   1.0000   1.0000   1.0000   1.0000   1.0000
     1.0000   1.0000   1.0000   1.0000   1.0000   1.0000   1.0000   1.0000
     1.0000   1.0000   1.0000   1.0000   1.0000   1.0000   1.0000   1.0000
     1.0000   1.0000   1.0000   1.0000   1.0000   1.0000   1.0000   1.0000
     1.0000   1.0000   1.0000   1.0000   1.0000   1.0000   1.0000   1.0000
     1.0000   1.0000   1.0000   1.0000   1.0000   1.0000   1.0000   1.0000
     1.0000   1.0000   1.0000   1.0000   1.0000   1.0000   1.0000   1.0000
     1.0000   1.0000   1.0000   1.0000   1.0000   1.0000  -0.0000  -0.0000
    -0.0000  -0.0000  -0.0000  -0.0000  -0.0000  -0.0000  -0.0000  -0.0000
    -0.0000  -0.0000  -0.0000  -0.0000  -0.0000  -0.0000  -0.0000  -0.0000
    -0.0000  -0.0000  -0.0000  -0.0000  -0.0000  -0.0000  -0.0000  -0.0000
    -0.0000  -0.0000  -0.0000  -0.0000  -0.0000  -0.0000  -0.0000  -0.0000
    -0.0000  -0.0000  -0.0000  -0.0000  -0.0000  -0.0000  -0.0000  -0.0000
    -0.0000  -0.0000  -0.0000  -0.0000

          k =-1.9654 1.1482 0.3351 (  9928 PWs)   bands (ev):

   -39.2445 -39.2445 -39.2441 -39.2441 -39.2413 -39.2413 -39.2408 -39.2408
   -39.0328 -39.0328 -38.9933 -38.9933 -38.3512 -38.3512 -38.3507 -38.3507
   -38.3482 -38.3482 -38.3478 -38.3478 -38.3469 -38.3469 -38.3464 -38.3464
   -38.1415 -38.1415 -38.1243 -38.1243 -38.0903 -38.0903 -15.7557 -15.7557
   -15.7555 -15.7555 -15.7441 -15.7441 -15.7426 -15.7426 -12.7804 -12.7804
   -12.7785 -12.7785 -12.7628 -12.7628 -12.7624 -12.7624 -12.7587 -12.7587
   -12.7569 -12.7569  -5.0294  -5.0294  -4.7596  -4.7596  -3.6158  -3.6158
    -1.0487  -1.0487  -0.0440  -0.0440   5.1817   5.1817   5.7419   5.7419
     6.0945   6.0945   6.5578   6.5578   6.6591   6.6591   7.1537   7.1537
     7.5952   7.5952   7.6682   7.6682   8.3808   8.3808   9.1510   9.1510
    10.1513  10.1513  10.7488  10.7488  11.3583  11.3583  11.8662  11.8662
    12.2533  12.2533  14.2245  14.2245  15.3146  15.3146  15.5230  15.5230
    15.9968  15.9968  16.2599  16.2599  16.9163  16.9163  16.9458  16.9458
    17.7658  17.7658  18.4863  18.4863  18.5982  18.5982  18.8817  18.8817
    19.4377  19.4377  19.6965  19.6965  19.8183  19.8183  20.3311  20.3311
    21.3209  21.3210  21.7350  21.7351

     occupation numbers 
     1.0000   1.0000   1.0000   1.0000   1.0000   1.0000   1.0000   1.0000
     1.0000   1.0000   1.0000   1.0000   1.0000   1.0000   1.0000   1.0000
     1.0000   1.0000   1.0000   1.0000   1.0000   1.0000   1.0000   1.0000
     1.0000   1.0000   1.0000   1.0000   1.0000   1.0000   1.0000   1.0000
     1.0000   1.0000   1.0000   1.0000   1.0000   1.0000   1.0000   1.0000
     1.0000   1.0000   1.0000   1.0000   1.0000   1.0000   1.0000   1.0000
     1.0000   1.0000   1.0000   1.0000   1.0000   1.0000   1.0000   1.0000
     1.0000   1.0000   1.0000   1.0000   1.0000   1.0000   1.0000   1.0000
     1.0000   1.0000   1.0000   1.0000   1.0000   1.0000   1.0000   1.0000
     1.0000   1.0000   1.0000   1.0000   1.0221   1.0221  -0.0000  -0.0000
    -0.0000  -0.0000  -0.0000  -0.0000  -0.0000  -0.0000  -0.0000  -0.0000
    -0.0000  -0.0000  -0.0000  -0.0000  -0.0000  -0.0000  -0.0000  -0.0000
    -0.0000  -0.0000  -0.0000  -0.0000  -0.0000  -0.0000  -0.0000  -0.0000
    -0.0000  -0.0000  -0.0000  -0.0000  -0.0000  -0.0000  -0.0000  -0.0000
    -0.0000  -0.0000  -0.0000  -0.0000  -0.0000  -0.0000  -0.0000  -0.0000
    -0.0000  -0.0000  -0.0000  -0.0000

          k =-0.1080 2.2537-0.5017 (  9923 PWs)   bands (ev):

   -39.2445 -39.2445 -39.2440 -39.2440 -39.2413 -39.2413 -39.2406 -39.2406
   -39.0327 -39.0327 -38.9933 -38.9933 -38.3511 -38.3511 -38.3508 -38.3508
   -38.3482 -38.3482 -38.3475 -38.3475 -38.3470 -38.3470 -38.3463 -38.3463
   -38.1414 -38.1414 -38.1242 -38.1242 -38.0903 -38.0903 -15.7557 -15.7557
   -15.7555 -15.7555 -15.7441 -15.7441 -15.7426 -15.7426 -12.7804 -12.7804
   -12.7785 -12.7785 -12.7628 -12.7628 -12.7625 -12.7624 -12.7587 -12.7587
   -12.7569 -12.7569  -5.0110  -5.0110  -4.7867  -4.7867  -3.6029  -3.6029
    -1.0539  -1.0539  -0.0467  -0.0467   5.1665   5.1665   5.8513   5.8513
     6.0908   6.0909   6.5142   6.5142   6.7114   6.7114   6.9426   6.9426
     7.6322   7.6322   7.7434   7.7434   8.4134   8.4134   9.1146   9.1146
    10.1088  10.1088  10.6890  10.6890  11.3470  11.3470  12.0049  12.0049
    12.3050  12.3050  14.3769  14.3769  15.0388  15.0388  15.5781  15.5781
    16.0804  16.0804  16.3208  16.3208  16.5668  16.5668  17.4151  17.4151
    17.6685  17.6685  18.0135  18.0135  18.2746  18.2746  19.0483  19.0483
    19.2732  19.2732  19.6565  19.6565  20.0366  20.0366  20.9722  20.9722
    21.1639  21.1639  21.6897  21.6897

     occupation numbers 
     1.0000   1.0000   1.0000   1.0000   1.0000   1.0000   1.0000   1.0000
     1.0000   1.0000   1.0000   1.0000   1.0000   1.0000   1.0000   1.0000
     1.0000   1.0000   1.0000   1.0000   1.0000   1.0000   1.0000   1.0000
     1.0000   1.0000   1.0000   1.0000   1.0000   1.0000   1.0000   1.0000
     1.0000   1.0000   1.0000   1.0000   1.0000   1.0000   1.0000   1.0000
     1.0000   1.0000   1.0000   1.0000   1.0000   1.0000   1.0000   1.0000
     1.0000   1.0000   1.0000   1.0000   1.0000   1.0000   1.0000   1.0000
     1.0000   1.0000   1.0000   1.0000   1.0000   1.0000   1.0000   1.0000
     1.0000   1.0000   1.0000   1.0000   1.0000   1.0000   1.0000   1.0000
     1.0000   1.0000   1.0000   1.0000   1.0324   1.0324  -0.0000  -0.0000
    -0.0000  -0.0000  -0.0000  -0.0000  -0.0000  -0.0000  -0.0000  -0.0000
    -0.0000  -0.0000  -0.0000  -0.0000  -0.0000  -0.0000  -0.0000  -0.0000
    -0.0000  -0.0000  -0.0000  -0.0000  -0.0000  -0.0000  -0.0000  -0.0000
    -0.0000  -0.0000  -0.0000  -0.0000  -0.0000  -0.0000  -0.0000  -0.0000
    -0.0000  -0.0000  -0.0000  -0.0000  -0.0000  -0.0000  -0.0000  -0.0000
    -0.0000  -0.0000  -0.0000  -0.0000

          k =-0.4795 2.0326-0.3343 (  9918 PWs)   bands (ev):

   -39.2443 -39.2443 -39.2441 -39.2440 -39.2411 -39.2411 -39.2409 -39.2409
   -39.0328 -39.0328 -38.9932 -38.9932 -38.3509 -38.3509 -38.3506 -38.3506
   -38.3482 -38.3482 -38.3479 -38.3479 -38.3466 -38.3466 -38.3465 -38.3465
   -38.1414 -38.1414 -38.1243 -38.1243 -38.0901 -38.0901 -15.7546 -15.7546
   -15.7533 -15.7533 -15.7441 -15.7441 -15.7429 -15.7429 -12.7802 -12.7802
   -12.7765 -12.7765 -12.7647 -12.7647 -12.7636 -12.7636 -12.7563 -12.7563
   -12.7546 -12.7546  -4.5761  -4.5761  -4.4143  -4.4143  -3.4647  -3.4647
    -1.2205  -1.2205  -0.6892  -0.6892   4.4442   4.4442   4.8829   4.8829
     5.4044   5.4044   6.0378   6.0378   6.3057   6.3057   7.0207   7.0207
     7.1918   7.1918   7.6336   7.6336   7.7979   7.7979  10.1596  10.1596
    10.2673  10.2673  11.4229  11.4229  11.6697  11.6697  12.1958  12.1958
    12.6612  12.6612  14.3952  14.3952  14.5332  14.5332  14.9985  14.9985
    15.7228  15.7228  17.5279  17.5279  17.7273  17.7273  18.4626  18.4626
    18.8148  18.8148  19.1952  19.1952  19.5646  19.5646  19.9624  19.9624
    20.1269  20.1269  20.2318  20.2318  20.6282  20.6282  21.2188  21.2188
    21.8260  21.8260  22.1016  22.1016

     occupation numbers 
     1.0000   1.0000   1.0000   1.0000   1.0000   1.0000   1.0000   1.0000
     1.0000   1.0000   1.0000   1.0000   1.0000   1.0000   1.0000   1.0000
     1.0000   1.0000   1.0000   1.0000   1.0000   1.0000   1.0000   1.0000
     1.0000   1.0000   1.0000   1.0000   1.0000   1.0000   1.0000   1.0000
     1.0000   1.0000   1.0000   1.0000   1.0000   1.0000   1.0000   1.0000
     1.0000   1.0000   1.0000   1.0000   1.0000   1.0000   1.0000   1.0000
     1.0000   1.0000   1.0000   1.0000   1.0000   1.0000   1.0000   1.0000
     1.0000   1.0000   1.0000   1.0000   1.0000   1.0000   1.0000   1.0000
     1.0000   1.0000   1.0000   1.0000   1.0000   1.0000   1.0000   1.0000
     1.0000   1.0000   1.0000   1.0000   1.0000   1.0000  -0.0000  -0.0000
    -0.0000  -0.0000  -0.0000  -0.0000  -0.0000  -0.0000  -0.0000  -0.0000
    -0.0000  -0.0000  -0.0000  -0.0000  -0.0000  -0.0000  -0.0000  -0.0000
    -0.0000  -0.0000  -0.0000  -0.0000  -0.0000  -0.0000  -0.0000  -0.0000
    -0.0000  -0.0000  -0.0000  -0.0000  -0.0000  -0.0000  -0.0000  -0.0000
    -0.0000  -0.0000  -0.0000  -0.0000  -0.0000  -0.0000  -0.0000  -0.0000
    -0.0000  -0.0000  -0.0000  -0.0000

          k =-0.8510 1.8115-0.1670 (  9872 PWs)   bands (ev):

   -39.2434 -39.2434 -39.2432 -39.2432 -39.2407 -39.2407 -39.2405 -39.2405
   -39.0324 -39.0324 -38.9923 -38.9923 -38.3499 -38.3499 -38.3496 -38.3496
   -38.3477 -38.3477 -38.3476 -38.3476 -38.3462 -38.3462 -38.3459 -38.3459
   -38.1409 -38.1409 -38.1239 -38.1239 -38.0891 -38.0891 -15.7536 -15.7536
   -15.7512 -15.7512 -15.7442 -15.7442 -15.7432 -15.7432 -12.7805 -12.7805
   -12.7769 -12.7769 -12.7658 -12.7658 -12.7638 -12.7638 -12.7535 -12.7535
   -12.7516 -12.7516  -3.9215  -3.9215  -3.8195  -3.8195  -3.4504  -3.4504
    -1.6370  -1.6370  -1.4400  -1.4400   3.9806   3.9806   4.6141   4.6141
     4.7801   4.7801   5.1502   5.1502   5.7488   5.7488   6.2106   6.2106
     7.4693   7.4693   7.7493   7.7493   8.1229   8.1229   9.7329   9.7329
    10.4372  10.4372  11.0895  11.0895  12.1472  12.1472  12.7703  12.7703
    13.5047  13.5047  13.7073  13.7073  15.3010  15.3010  15.8753  15.8753
    17.0029  17.0029  17.5524  17.5524  17.8500  17.8500  19.1936  19.1936
    19.3080  19.3080  19.7522  19.7522  20.3142  20.3142  20.7054  20.7054
    20.8016  20.8016  21.1923  21.1923  21.2658  21.2658  21.8772  21.8772
    22.4386  22.4387  22.5666  22.5667

     occupation numbers 
     1.0000   1.0000   1.0000   1.0000   1.0000   1.0000   1.0000   1.0000
     1.0000   1.0000   1.0000   1.0000   1.0000   1.0000   1.0000   1.0000
     1.0000   1.0000   1.0000   1.0000   1.0000   1.0000   1.0000   1.0000
     1.0000   1.0000   1.0000   1.0000   1.0000   1.0000   1.0000   1.0000
     1.0000   1.0000   1.0000   1.0000   1.0000   1.0000   1.0000   1.0000
     1.0000   1.0000   1.0000   1.0000   1.0000   1.0000   1.0000   1.0000
     1.0000   1.0000   1.0000   1.0000   1.0000   1.0000   1.0000   1.0000
     1.0000   1.0000   1.0000   1.0000   1.0000   1.0000   1.0000   1.0000
     1.0000   1.0000   1.0000   1.0000   1.0000   1.0000   1.0000   1.0000
     1.0000   1.0000   1.0000   1.0000   1.0000   1.0000  -0.0000  -0.0000
    -0.0000  -0.0000  -0.0000  -0.0000  -0.0000  -0.0000  -0.0000  -0.0000
    -0.0000  -0.0000  -0.0000  -0.0000  -0.0000  -0.0000  -0.0000  -0.0000
    -0.0000  -0.0000  -0.0000  -0.0000  -0.0000  -0.0000  -0.0000  -0.0000
    -0.0000  -0.0000  -0.0000  -0.0000  -0.0000  -0.0000  -0.0000  -0.0000
    -0.0000  -0.0000  -0.0000  -0.0000  -0.0000  -0.0000  -0.0000  -0.0000
    -0.0000  -0.0000  -0.0000  -0.0000

          k =-1.2220-0.7274 0.0022 (  9892 PWs)   bands (ev):

   -39.2436 -39.2436 -39.2434 -39.2434 -39.2410 -39.2410 -39.2409 -39.2409
   -39.0327 -39.0327 -38.9926 -38.9926 -38.3502 -38.3502 -38.3498 -38.3498
   -38.3479 -38.3479 -38.3479 -38.3479 -38.3464 -38.3464 -38.3464 -38.3464
   -38.1412 -38.1412 -38.1242 -38.1242 -38.0892 -38.0892 -15.7527 -15.7527
   -15.7527 -15.7527 -15.7434 -15.7434 -15.7433 -15.7433 -12.7826 -12.7826
   -12.7808 -12.7808 -12.7649 -12.7649 -12.7625 -12.7625 -12.7521 -12.7521
   -12.7490 -12.7490  -3.8396  -3.8396  -3.7108  -3.7108  -3.6428  -3.6428
    -1.7981  -1.7981  -1.3061  -1.3061   3.7579   3.7579   4.5588   4.5588
     4.9047   4.9047   5.5619   5.5619   6.0429   6.0429   6.9092   6.9092
     6.9844   6.9844   7.2468   7.2468   7.7716   7.7716   9.7418   9.7418
    10.7105  10.7105  11.0925  11.0925  11.5160  11.5160  12.5098  12.5098
    12.8055  12.8055  13.8980  13.8980  15.6007  15.6007  16.2276  16.2276
    17.6914  17.6914  18.2207  18.2207  19.0800  19.0800  19.2567  19.2567
    19.3025  19.3025  19.8079  19.8079  20.6975  20.6975  20.7739  20.7739
    20.7994  20.7994  20.9800  20.9800  21.3839  21.3839  21.5502  21.5502
    21.6345  21.6345  22.7293  22.7297

     occupation numbers 
     1.0000   1.0000   1.0000   1.0000   1.0000   1.0000   1.0000   1.0000
     1.0000   1.0000   1.0000   1.0000   1.0000   1.0000   1.0000   1.0000
     1.0000   1.0000   1.0000   1.0000   1.0000   1.0000   1.0000   1.0000
     1.0000   1.0000   1.0000   1.0000   1.0000   1.0000   1.0000   1.0000
     1.0000   1.0000   1.0000   1.0000   1.0000   1.0000   1.0000   1.0000
     1.0000   1.0000   1.0000   1.0000   1.0000   1.0000   1.0000   1.0000
     1.0000   1.0000   1.0000   1.0000   1.0000   1.0000   1.0000   1.0000
     1.0000   1.0000   1.0000   1.0000   1.0000   1.0000   1.0000   1.0000
     1.0000   1.0000   1.0000   1.0000   1.0000   1.0000   1.0000   1.0000
     1.0000   1.0000   1.0000   1.0000   1.0000   1.0000  -0.0000  -0.0000
    -0.0000  -0.0000  -0.0000  -0.0000  -0.0000  -0.0000  -0.0000  -0.0000
    -0.0000  -0.0000  -0.0000  -0.0000  -0.0000  -0.0000  -0.0000  -0.0000
    -0.0000  -0.0000  -0.0000  -0.0000  -0.0000  -0.0000  -0.0000  -0.0000
    -0.0000  -0.0000  -0.0000  -0.0000  -0.0000  -0.0000  -0.0000  -0.0000
    -0.0000  -0.0000  -0.0000  -0.0000  -0.0000  -0.0000  -0.0000  -0.0000
    -0.0000  -0.0000  -0.0000  -0.0000

          k =-1.5935-0.9484 0.1696 (  9880 PWs)   bands (ev):

   -39.2439 -39.2439 -39.2433 -39.2433 -39.2409 -39.2409 -39.2405 -39.2405
   -39.0325 -39.0325 -38.9926 -38.9926 -38.3504 -38.3504 -38.3498 -38.3498
   -38.3479 -38.3479 -38.3474 -38.3474 -38.3465 -38.3465 -38.3461 -38.3461
   -38.1411 -38.1411 -38.1239 -38.1239 -38.0895 -38.0895 -15.7537 -15.7537
   -15.7535 -15.7535 -15.7440 -15.7439 -15.7429 -15.7429 -12.7810 -12.7809
   -12.7786 -12.7786 -12.7649 -12.7649 -12.7632 -12.7632 -12.7548 -12.7548
   -12.7522 -12.7522  -4.4232  -4.4232  -4.1918  -4.1918  -3.4800  -3.4800
    -1.2970  -1.2970  -0.9524  -0.9524   4.0078   4.0078   4.9384   4.9384
     5.4667   5.4667   5.8908   5.8908   6.2037   6.2037   6.7785   6.7785
     7.1721   7.1721   7.3878   7.3878   7.8444   7.8444   9.7227   9.7227
    10.8260  10.8260  11.0543  11.0543  11.6134  11.6134  12.4264  12.4264
    13.0670  13.0670  13.3360  13.3360  15.0935  15.0935  16.3691  16.3691
    16.7131  16.7131  17.5152  17.5152  17.6074  17.6074  17.8310  17.8310
    18.1425  18.1425  18.9816  18.9816  20.0441  20.0441  20.4387  20.4387
    20.9799  20.9799  21.0679  21.0679  21.2601  21.2601  22.1494  22.1494
    22.4699  22.4699  22.8957  22.8957

     occupation numbers 
     1.0000   1.0000   1.0000   1.0000   1.0000   1.0000   1.0000   1.0000
     1.0000   1.0000   1.0000   1.0000   1.0000   1.0000   1.0000   1.0000
     1.0000   1.0000   1.0000   1.0000   1.0000   1.0000   1.0000   1.0000
     1.0000   1.0000   1.0000   1.0000   1.0000   1.0000   1.0000   1.0000
     1.0000   1.0000   1.0000   1.0000   1.0000   1.0000   1.0000   1.0000
     1.0000   1.0000   1.0000   1.0000   1.0000   1.0000   1.0000   1.0000
     1.0000   1.0000   1.0000   1.0000   1.0000   1.0000   1.0000   1.0000
     1.0000   1.0000   1.0000   1.0000   1.0000   1.0000   1.0000   1.0000
     1.0000   1.0000   1.0000   1.0000   1.0000   1.0000   1.0000   1.0000
     1.0000   1.0000   1.0000   1.0000   1.0000   1.0000  -0.0000  -0.0000
    -0.0000  -0.0000  -0.0000  -0.0000  -0.0000  -0.0000  -0.0000  -0.0000
    -0.0000  -0.0000  -0.0000  -0.0000  -0.0000  -0.0000  -0.0000  -0.0000
    -0.0000  -0.0000  -0.0000  -0.0000  -0.0000  -0.0000  -0.0000  -0.0000
    -0.0000  -0.0000  -0.0000  -0.0000  -0.0000  -0.0000  -0.0000  -0.0000
    -0.0000  -0.0000  -0.0000  -0.0000  -0.0000  -0.0000  -0.0000  -0.0000
    -0.0000  -0.0000  -0.0000  -0.0000

          k =-1.9650-1.1695 0.3369 (  9923 PWs)   bands (ev):

   -39.2445 -39.2445 -39.2440 -39.2440 -39.2413 -39.2413 -39.2406 -39.2406
   -39.0327 -39.0327 -38.9933 -38.9933 -38.3511 -38.3511 -38.3508 -38.3508
   -38.3482 -38.3482 -38.3475 -38.3475 -38.3470 -38.3470 -38.3463 -38.3463
   -38.1414 -38.1414 -38.1242 -38.1242 -38.0903 -38.0903 -15.7557 -15.7557
   -15.7555 -15.7555 -15.7441 -15.7441 -15.7426 -15.7426 -12.7804 -12.7804
   -12.7785 -12.7785 -12.7628 -12.7628 -12.7625 -12.7624 -12.7587 -12.7587
   -12.7569 -12.7569  -5.0110  -5.0110  -4.7867  -4.7867  -3.6029  -3.6029
    -1.0539  -1.0539  -0.0467  -0.0467   5.1665   5.1665   5.8513   5.8513
     6.0908   6.0909   6.5142   6.5142   6.7114   6.7114   6.9426   6.9426
     7.6322   7.6322   7.7434   7.7434   8.4134   8.4134   9.1146   9.1146
    10.1088  10.1088  10.6890  10.6890  11.3470  11.3470  12.0049  12.0049
    12.3050  12.3050  14.3769  14.3769  15.0388  15.0388  15.5781  15.5781
    16.0804  16.0804  16.3208  16.3208  16.5668  16.5668  17.4151  17.4151
    17.6685  17.6685  18.0135  18.0135  18.2746  18.2746  19.0483  19.0483
    19.2732  19.2732  19.6565  19.6565  20.0366  20.0366  20.9722  20.9722
    21.1639  21.1639  21.6897  21.6897

     occupation numbers 
     1.0000   1.0000   1.0000   1.0000   1.0000   1.0000   1.0000   1.0000
     1.0000   1.0000   1.0000   1.0000   1.0000   1.0000   1.0000   1.0000
     1.0000   1.0000   1.0000   1.0000   1.0000   1.0000   1.0000   1.0000
     1.0000   1.0000   1.0000   1.0000   1.0000   1.0000   1.0000   1.0000
     1.0000   1.0000   1.0000   1.0000   1.0000   1.0000   1.0000   1.0000
     1.0000   1.0000   1.0000   1.0000   1.0000   1.0000   1.0000   1.0000
     1.0000   1.0000   1.0000   1.0000   1.0000   1.0000   1.0000   1.0000
     1.0000   1.0000   1.0000   1.0000   1.0000   1.0000   1.0000   1.0000
     1.0000   1.0000   1.0000   1.0000   1.0000   1.0000   1.0000   1.0000
     1.0000   1.0000   1.0000   1.0000   1.0324   1.0324  -0.0000  -0.0000
    -0.0000  -0.0000  -0.0000  -0.0000  -0.0000  -0.0000  -0.0000  -0.0000
    -0.0000  -0.0000  -0.0000  -0.0000  -0.0000  -0.0000  -0.0000  -0.0000
    -0.0000  -0.0000  -0.0000  -0.0000  -0.0000  -0.0000  -0.0000  -0.0000
    -0.0000  -0.0000  -0.0000  -0.0000  -0.0000  -0.0000  -0.0000  -0.0000
    -0.0000  -0.0000  -0.0000  -0.0000  -0.0000  -0.0000  -0.0000  -0.0000
    -0.0000  -0.0000  -0.0000  -0.0000

          k =-0.1076-0.0641-0.4998 (  9894 PWs)   bands (ev):

   -39.2437 -39.2437 -39.2436 -39.2436 -39.2411 -39.2411 -39.2407 -39.2407
   -39.0326 -39.0326 -38.9927 -38.9927 -38.3503 -38.3503 -38.3502 -38.3502
   -38.3479 -38.3479 -38.3475 -38.3475 -38.3467 -38.3467 -38.3463 -38.3463
   -38.1413 -38.1413 -38.1240 -38.1240 -38.0896 -38.0896 -15.7568 -15.7568
   -15.7566 -15.7566 -15.7439 -15.7439 -15.7425 -15.7425 -12.7821 -12.7821
   -12.7806 -12.7806 -12.7611 -12.7611 -12.7608 -12.7608 -12.7594 -12.7594
   -12.7585 -12.7585  -5.2292  -5.2292  -5.0112  -5.0112  -3.6922  -3.6922
    -1.0283  -1.0283   0.3642   0.3642   5.8835   5.8835   6.6117   6.6117
     6.6919   6.6919   7.1207   7.1207   7.1417   7.1417   7.4297   7.4297
     7.4565   7.4565   7.5718   7.5718   8.2446   8.2446   8.9148   8.9148
     9.7006   9.7006  10.2584  10.2584  11.0441  11.0441  11.4374  11.4374
    11.7972  11.7972  14.6824  14.6824  15.5161  15.5161  15.5825  15.5825
    15.7785  15.7785  16.0860  16.0860  17.2615  17.2615  17.5627  17.5627
    17.6424  17.6424  17.7971  17.7971  17.9636  17.9636  18.0163  18.0163
    18.2599  18.2599  18.8277  18.8277  18.8941  18.8941  19.0894  19.0894
    19.2840  19.2840  21.9819  21.9824

     occupation numbers 
     1.0000   1.0000   1.0000   1.0000   1.0000   1.0000   1.0000   1.0000
     1.0000   1.0000   1.0000   1.0000   1.0000   1.0000   1.0000   1.0000
     1.0000   1.0000   1.0000   1.0000   1.0000   1.0000   1.0000   1.0000
     1.0000   1.0000   1.0000   1.0000   1.0000   1.0000   1.0000   1.0000
     1.0000   1.0000   1.0000   1.0000   1.0000   1.0000   1.0000   1.0000
     1.0000   1.0000   1.0000   1.0000   1.0000   1.0000   1.0000   1.0000
     1.0000   1.0000   1.0000   1.0000   1.0000   1.0000   1.0000   1.0000
     1.0000   1.0000   1.0000   1.0000   1.0000   1.0000   1.0000   1.0000
     1.0000   1.0000   1.0000   1.0000   1.0000   1.0000   1.0000   1.0000
     1.0000   1.0000   1.0000   1.0000   1.0007   1.0007  -0.0027  -0.0027
    -0.0000  -0.0000  -0.0000  -0.0000  -0.0000  -0.0000  -0.0000  -0.0000
    -0.0000  -0.0000  -0.0000  -0.0000  -0.0000  -0.0000  -0.0000  -0.0000
    -0.0000  -0.0000  -0.0000  -0.0000  -0.0000  -0.0000  -0.0000  -0.0000
    -0.0000  -0.0000  -0.0000  -0.0000  -0.0000  -0.0000  -0.0000  -0.0000
    -0.0000  -0.0000  -0.0000  -0.0000  -0.0000  -0.0000  -0.0000  -0.0000
    -0.0000  -0.0000  -0.0000  -0.0000

          k =-0.4791-0.2852-0.3325 (  9923 PWs)   bands (ev):

   -39.2445 -39.2445 -39.2440 -39.2440 -39.2413 -39.2413 -39.2406 -39.2406
   -39.0327 -39.0327 -38.9933 -38.9933 -38.3511 -38.3511 -38.3508 -38.3508
   -38.3482 -38.3482 -38.3475 -38.3475 -38.3470 -38.3470 -38.3463 -38.3463
   -38.1414 -38.1414 -38.1242 -38.1242 -38.0903 -38.0903 -15.7557 -15.7557
   -15.7555 -15.7555 -15.7441 -15.7441 -15.7426 -15.7426 -12.7804 -12.7804
   -12.7785 -12.7785 -12.7628 -12.7628 -12.7625 -12.7624 -12.7587 -12.7587
   -12.7569 -12.7569  -5.0110  -5.0110  -4.7867  -4.7867  -3.6029  -3.6029
    -1.0539  -1.0539  -0.0467  -0.0467   5.1665   5.1665   5.8513   5.8513
     6.0908   6.0909   6.5142   6.5142   6.7114   6.7114   6.9426   6.9426
     7.6322   7.6322   7.7434   7.7434   8.4134   8.4134   9.1146   9.1146
    10.1088  10.1088  10.6890  10.6890  11.3470  11.3470  12.0049  12.0049
    12.3050  12.3050  14.3769  14.3769  15.0388  15.0388  15.5781  15.5781
    16.0804  16.0804  16.3208  16.3208  16.5668  16.5668  17.4151  17.4151
    17.6685  17.6685  18.0135  18.0135  18.2746  18.2746  19.0483  19.0483
    19.2732  19.2732  19.6565  19.6565  20.0366  20.0366  20.9722  20.9722
    21.1639  21.1639  21.6897  21.6897

     occupation numbers 
     1.0000   1.0000   1.0000   1.0000   1.0000   1.0000   1.0000   1.0000
     1.0000   1.0000   1.0000   1.0000   1.0000   1.0000   1.0000   1.0000
     1.0000   1.0000   1.0000   1.0000   1.0000   1.0000   1.0000   1.0000
     1.0000   1.0000   1.0000   1.0000   1.0000   1.0000   1.0000   1.0000
     1.0000   1.0000   1.0000   1.0000   1.0000   1.0000   1.0000   1.0000
     1.0000   1.0000   1.0000   1.0000   1.0000   1.0000   1.0000   1.0000
     1.0000   1.0000   1.0000   1.0000   1.0000   1.0000   1.0000   1.0000
     1.0000   1.0000   1.0000   1.0000   1.0000   1.0000   1.0000   1.0000
     1.0000   1.0000   1.0000   1.0000   1.0000   1.0000   1.0000   1.0000
     1.0000   1.0000   1.0000   1.0000   1.0324   1.0324  -0.0000  -0.0000
    -0.0000  -0.0000  -0.0000  -0.0000  -0.0000  -0.0000  -0.0000  -0.0000
    -0.0000  -0.0000  -0.0000  -0.0000  -0.0000  -0.0000  -0.0000  -0.0000
    -0.0000  -0.0000  -0.0000  -0.0000  -0.0000  -0.0000  -0.0000  -0.0000
    -0.0000  -0.0000  -0.0000  -0.0000  -0.0000  -0.0000  -0.0000  -0.0000
    -0.0000  -0.0000  -0.0000  -0.0000  -0.0000  -0.0000  -0.0000  -0.0000
    -0.0000  -0.0000  -0.0000  -0.0000

          k =-0.8506-0.5063-0.1651 (  9880 PWs)   bands (ev):

   -39.2439 -39.2439 -39.2433 -39.2433 -39.2409 -39.2409 -39.2405 -39.2405
   -39.0325 -39.0325 -38.9926 -38.9926 -38.3504 -38.3504 -38.3498 -38.3498
   -38.3479 -38.3479 -38.3474 -38.3474 -38.3465 -38.3465 -38.3461 -38.3461
   -38.1411 -38.1411 -38.1239 -38.1239 -38.0895 -38.0895 -15.7537 -15.7537
   -15.7535 -15.7535 -15.7440 -15.7439 -15.7429 -15.7429 -12.7810 -12.7809
   -12.7786 -12.7786 -12.7649 -12.7649 -12.7632 -12.7632 -12.7548 -12.7548
   -12.7522 -12.7522  -4.4232  -4.4232  -4.1918  -4.1918  -3.4800  -3.4800
    -1.2970  -1.2970  -0.9524  -0.9524   4.0078   4.0078   4.9384   4.9384
     5.4667   5.4667   5.8908   5.8908   6.2037   6.2037   6.7785   6.7785
     7.1721   7.1721   7.3878   7.3878   7.8444   7.8444   9.7227   9.7227
    10.8260  10.8260  11.0543  11.0543  11.6134  11.6134  12.4264  12.4264
    13.0670  13.0670  13.3360  13.3360  15.0935  15.0935  16.3691  16.3691
    16.7131  16.7131  17.5152  17.5152  17.6074  17.6074  17.8310  17.8310
    18.1425  18.1425  18.9816  18.9816  20.0441  20.0441  20.4387  20.4387
    20.9799  20.9799  21.0679  21.0679  21.2601  21.2601  22.1494  22.1494
    22.4698  22.4699  22.8956  22.8956

     occupation numbers 
     1.0000   1.0000   1.0000   1.0000   1.0000   1.0000   1.0000   1.0000
     1.0000   1.0000   1.0000   1.0000   1.0000   1.0000   1.0000   1.0000
     1.0000   1.0000   1.0000   1.0000   1.0000   1.0000   1.0000   1.0000
     1.0000   1.0000   1.0000   1.0000   1.0000   1.0000   1.0000   1.0000
     1.0000   1.0000   1.0000   1.0000   1.0000   1.0000   1.0000   1.0000
     1.0000   1.0000   1.0000   1.0000   1.0000   1.0000   1.0000   1.0000
     1.0000   1.0000   1.0000   1.0000   1.0000   1.0000   1.0000   1.0000
     1.0000   1.0000   1.0000   1.0000   1.0000   1.0000   1.0000   1.0000
     1.0000   1.0000   1.0000   1.0000   1.0000   1.0000   1.0000   1.0000
     1.0000   1.0000   1.0000   1.0000   1.0000   1.0000  -0.0000  -0.0000
    -0.0000  -0.0000  -0.0000  -0.0000  -0.0000  -0.0000  -0.0000  -0.0000
    -0.0000  -0.0000  -0.0000  -0.0000  -0.0000  -0.0000  -0.0000  -0.0000
    -0.0000  -0.0000  -0.0000  -0.0000  -0.0000  -0.0000  -0.0000  -0.0000
    -0.0000  -0.0000  -0.0000  -0.0000  -0.0000  -0.0000  -0.0000  -0.0000
    -0.0000  -0.0000  -0.0000  -0.0000  -0.0000  -0.0000  -0.0000  -0.0000
    -0.0000  -0.0000  -0.0000  -0.0000

          k =-1.2221-0.2638 0.0019 (  9871 PWs)   bands (ev):

   -39.2434 -39.2434 -39.2431 -39.2431 -39.2408 -39.2408 -39.2405 -39.2405
   -39.0324 -39.0324 -38.9923 -38.9923 -38.3499 -38.3499 -38.3495 -38.3495
   -38.3477 -38.3477 -38.3475 -38.3475 -38.3463 -38.3463 -38.3460 -38.3460
   -38.1410 -38.1410 -38.1239 -38.1239 -38.0890 -38.0890 -15.7536 -15.7536
   -15.7512 -15.7512 -15.7442 -15.7442 -15.7432 -15.7432 -12.7805 -12.7805
   -12.7769 -12.7769 -12.7658 -12.7658 -12.7638 -12.7638 -12.7535 -12.7535
   -12.7516 -12.7516  -3.9676  -3.9676  -3.7463  -3.7463  -3.4767  -3.4767
    -1.6524  -1.6524  -1.4255  -1.4255   3.8654   3.8654   4.7018   4.7018
     4.9104   4.9104   5.2884   5.2884   5.6519   5.6519   6.0307   6.0307
     7.2918   7.2918   7.9445   7.9445   8.1336   8.1336   9.7560   9.7560
    10.2975  10.2975  11.2441  11.2441  12.1937  12.1937  12.8702  12.8702
    13.3982  13.3982  13.5358  13.5358  15.6363  15.6363  16.1463  16.1463
    16.7490  16.7490  17.1030  17.1030  17.7398  17.7398  19.1734  19.1734
    19.2513  19.2513  19.6895  19.6895  20.4362  20.4362  20.5643  20.5643
    20.9386  20.9386  21.1722  21.1722  21.5840  21.5840  22.2175  22.2175
    22.4226  22.4226  22.9987  22.9987

     occupation numbers 
     1.0000   1.0000   1.0000   1.0000   1.0000   1.0000   1.0000   1.0000
     1.0000   1.0000   1.0000   1.0000   1.0000   1.0000   1.0000   1.0000
     1.0000   1.0000   1.0000   1.0000   1.0000   1.0000   1.0000   1.0000
     1.0000   1.0000   1.0000   1.0000   1.0000   1.0000   1.0000   1.0000
     1.0000   1.0000   1.0000   1.0000   1.0000   1.0000   1.0000   1.0000
     1.0000   1.0000   1.0000   1.0000   1.0000   1.0000   1.0000   1.0000
     1.0000   1.0000   1.0000   1.0000   1.0000   1.0000   1.0000   1.0000
     1.0000   1.0000   1.0000   1.0000   1.0000   1.0000   1.0000   1.0000
     1.0000   1.0000   1.0000   1.0000   1.0000   1.0000   1.0000   1.0000
     1.0000   1.0000   1.0000   1.0000   1.0000   1.0000  -0.0000  -0.0000
    -0.0000  -0.0000  -0.0000  -0.0000  -0.0000  -0.0000  -0.0000  -0.0000
    -0.0000  -0.0000  -0.0000  -0.0000  -0.0000  -0.0000  -0.0000  -0.0000
    -0.0000  -0.0000  -0.0000  -0.0000  -0.0000  -0.0000  -0.0000  -0.0000
    -0.0000  -0.0000  -0.0000  -0.0000  -0.0000  -0.0000  -0.0000  -0.0000
    -0.0000  -0.0000  -0.0000  -0.0000  -0.0000  -0.0000  -0.0000  -0.0000
    -0.0000  -0.0000  -0.0000  -0.0000

          k =-1.5936-0.4849 0.1692 (  9872 PWs)   bands (ev):

   -39.2434 -39.2434 -39.2432 -39.2432 -39.2407 -39.2407 -39.2405 -39.2405
   -39.0324 -39.0324 -38.9923 -38.9923 -38.3499 -38.3499 -38.3496 -38.3496
   -38.3477 -38.3477 -38.3476 -38.3476 -38.3462 -38.3462 -38.3459 -38.3459
   -38.1409 -38.1409 -38.1239 -38.1239 -38.0891 -38.0891 -15.7536 -15.7536
   -15.7512 -15.7512 -15.7442 -15.7442 -15.7432 -15.7432 -12.7805 -12.7805
   -12.7769 -12.7769 -12.7658 -12.7658 -12.7638 -12.7638 -12.7535 -12.7535
   -12.7516 -12.7516  -3.9215  -3.9215  -3.8195  -3.8195  -3.4504  -3.4504
    -1.6370  -1.6370  -1.4400  -1.4400   3.9806   3.9806   4.6141   4.6141
     4.7801   4.7801   5.1502   5.1502   5.7488   5.7488   6.2106   6.2106
     7.4693   7.4693   7.7493   7.7493   8.1229   8.1229   9.7329   9.7329
    10.4372  10.4372  11.0895  11.0895  12.1472  12.1472  12.7703  12.7703
    13.5047  13.5047  13.7073  13.7073  15.3010  15.3010  15.8753  15.8753
    17.0029  17.0029  17.5524  17.5524  17.8500  17.8500  19.1936  19.1936
    19.3080  19.3080  19.7522  19.7522  20.3142  20.3142  20.7054  20.7054
    20.8016  20.8016  21.1923  21.1923  21.2658  21.2658  21.8772  21.8772
    22.4386  22.4387  22.5666  22.5666

     occupation numbers 
     1.0000   1.0000   1.0000   1.0000   1.0000   1.0000   1.0000   1.0000
     1.0000   1.0000   1.0000   1.0000   1.0000   1.0000   1.0000   1.0000
     1.0000   1.0000   1.0000   1.0000   1.0000   1.0000   1.0000   1.0000
     1.0000   1.0000   1.0000   1.0000   1.0000   1.0000   1.0000   1.0000
     1.0000   1.0000   1.0000   1.0000   1.0000   1.0000   1.0000   1.0000
     1.0000   1.0000   1.0000   1.0000   1.0000   1.0000   1.0000   1.0000
     1.0000   1.0000   1.0000   1.0000   1.0000   1.0000   1.0000   1.0000
     1.0000   1.0000   1.0000   1.0000   1.0000   1.0000   1.0000   1.0000
     1.0000   1.0000   1.0000   1.0000   1.0000   1.0000   1.0000   1.0000
     1.0000   1.0000   1.0000   1.0000   1.0000   1.0000  -0.0000  -0.0000
    -0.0000  -0.0000  -0.0000  -0.0000  -0.0000  -0.0000  -0.0000  -0.0000
    -0.0000  -0.0000  -0.0000  -0.0000  -0.0000  -0.0000  -0.0000  -0.0000
    -0.0000  -0.0000  -0.0000  -0.0000  -0.0000  -0.0000  -0.0000  -0.0000
    -0.0000  -0.0000  -0.0000  -0.0000  -0.0000  -0.0000  -0.0000  -0.0000
    -0.0000  -0.0000  -0.0000  -0.0000  -0.0000  -0.0000  -0.0000  -0.0000
    -0.0000  -0.0000  -0.0000  -0.0000

          k =-1.9650-0.7060 0.3366 (  9918 PWs)   bands (ev):

   -39.2443 -39.2443 -39.2441 -39.2440 -39.2411 -39.2411 -39.2409 -39.2409
   -39.0328 -39.0328 -38.9932 -38.9932 -38.3509 -38.3509 -38.3506 -38.3506
   -38.3482 -38.3482 -38.3479 -38.3479 -38.3466 -38.3466 -38.3465 -38.3465
   -38.1414 -38.1414 -38.1243 -38.1243 -38.0901 -38.0901 -15.7546 -15.7546
   -15.7533 -15.7533 -15.7441 -15.7441 -15.7429 -15.7429 -12.7802 -12.7802
   -12.7765 -12.7765 -12.7647 -12.7647 -12.7636 -12.7636 -12.7563 -12.7563
   -12.7546 -12.7546  -4.5761  -4.5761  -4.4143  -4.4143  -3.4647  -3.4647
    -1.2205  -1.2205  -0.6892  -0.6892   4.4442   4.4442   4.8829   4.8829
     5.4044   5.4044   6.0378   6.0378   6.3057   6.3057   7.0207   7.0207
     7.1918   7.1918   7.6336   7.6336   7.7979   7.7979  10.1596  10.1596
    10.2673  10.2673  11.4229  11.4229  11.6697  11.6697  12.1958  12.1958
    12.6612  12.6612  14.3952  14.3952  14.5332  14.5332  14.9985  14.9985
    15.7228  15.7228  17.5279  17.5279  17.7273  17.7273  18.4626  18.4626
    18.8148  18.8148  19.1952  19.1952  19.5646  19.5646  19.9624  19.9624
    20.1269  20.1269  20.2318  20.2318  20.6282  20.6282  21.2188  21.2188
    21.8260  21.8260  22.1016  22.1016

     occupation numbers 
     1.0000   1.0000   1.0000   1.0000   1.0000   1.0000   1.0000   1.0000
     1.0000   1.0000   1.0000   1.0000   1.0000   1.0000   1.0000   1.0000
     1.0000   1.0000   1.0000   1.0000   1.0000   1.0000   1.0000   1.0000
     1.0000   1.0000   1.0000   1.0000   1.0000   1.0000   1.0000   1.0000
     1.0000   1.0000   1.0000   1.0000   1.0000   1.0000   1.0000   1.0000
     1.0000   1.0000   1.0000   1.0000   1.0000   1.0000   1.0000   1.0000
     1.0000   1.0000   1.0000   1.0000   1.0000   1.0000   1.0000   1.0000
     1.0000   1.0000   1.0000   1.0000   1.0000   1.0000   1.0000   1.0000
     1.0000   1.0000   1.0000   1.0000   1.0000   1.0000   1.0000   1.0000
     1.0000   1.0000   1.0000   1.0000   1.0000   1.0000  -0.0000  -0.0000
    -0.0000  -0.0000  -0.0000  -0.0000  -0.0000  -0.0000  -0.0000  -0.0000
    -0.0000  -0.0000  -0.0000  -0.0000  -0.0000  -0.0000  -0.0000  -0.0000
    -0.0000  -0.0000  -0.0000  -0.0000  -0.0000  -0.0000  -0.0000  -0.0000
    -0.0000  -0.0000  -0.0000  -0.0000  -0.0000  -0.0000  -0.0000  -0.0000
    -0.0000  -0.0000  -0.0000  -0.0000  -0.0000  -0.0000  -0.0000  -0.0000
    -0.0000  -0.0000  -0.0000  -0.0000

          k =-0.1077 0.3995-0.5002 (  9923 PWs)   bands (ev):

   -39.2445 -39.2445 -39.2440 -39.2440 -39.2413 -39.2413 -39.2406 -39.2406
   -39.0327 -39.0327 -38.9933 -38.9933 -38.3511 -38.3511 -38.3508 -38.3508
   -38.3482 -38.3482 -38.3475 -38.3475 -38.3470 -38.3470 -38.3463 -38.3463
   -38.1414 -38.1414 -38.1242 -38.1242 -38.0903 -38.0903 -15.7557 -15.7557
   -15.7555 -15.7555 -15.7441 -15.7441 -15.7426 -15.7426 -12.7804 -12.7804
   -12.7785 -12.7785 -12.7628 -12.7628 -12.7625 -12.7624 -12.7587 -12.7587
   -12.7569 -12.7569  -5.0110  -5.0110  -4.7867  -4.7867  -3.6029  -3.6029
    -1.0539  -1.0539  -0.0467  -0.0467   5.1665   5.1665   5.8513   5.8513
     6.0908   6.0909   6.5142   6.5142   6.7114   6.7114   6.9426   6.9426
     7.6322   7.6322   7.7434   7.7434   8.4134   8.4134   9.1146   9.1146
    10.1088  10.1088  10.6890  10.6890  11.3470  11.3470  12.0049  12.0049
    12.3050  12.3050  14.3769  14.3769  15.0388  15.0388  15.5781  15.5781
    16.0804  16.0804  16.3208  16.3208  16.5668  16.5668  17.4151  17.4151
    17.6685  17.6685  18.0135  18.0135  18.2746  18.2746  19.0483  19.0483
    19.2732  19.2732  19.6565  19.6565  20.0366  20.0366  20.9722  20.9722
    21.1639  21.1639  21.6897  21.6897

     occupation numbers 
     1.0000   1.0000   1.0000   1.0000   1.0000   1.0000   1.0000   1.0000
     1.0000   1.0000   1.0000   1.0000   1.0000   1.0000   1.0000   1.0000
     1.0000   1.0000   1.0000   1.0000   1.0000   1.0000   1.0000   1.0000
     1.0000   1.0000   1.0000   1.0000   1.0000   1.0000   1.0000   1.0000
     1.0000   1.0000   1.0000   1.0000   1.0000   1.0000   1.0000   1.0000
     1.0000   1.0000   1.0000   1.0000   1.0000   1.0000   1.0000   1.0000
     1.0000   1.0000   1.0000   1.0000   1.0000   1.0000   1.0000   1.0000
     1.0000   1.0000   1.0000   1.0000   1.0000   1.0000   1.0000   1.0000
     1.0000   1.0000   1.0000   1.0000   1.0000   1.0000   1.0000   1.0000
     1.0000   1.0000   1.0000   1.0000   1.0324   1.0324  -0.0000  -0.0000
    -0.0000  -0.0000  -0.0000  -0.0000  -0.0000  -0.0000  -0.0000  -0.0000
    -0.0000  -0.0000  -0.0000  -0.0000  -0.0000  -0.0000  -0.0000  -0.0000
    -0.0000  -0.0000  -0.0000  -0.0000  -0.0000  -0.0000  -0.0000  -0.0000
    -0.0000  -0.0000  -0.0000  -0.0000  -0.0000  -0.0000  -0.0000  -0.0000
    -0.0000  -0.0000  -0.0000  -0.0000  -0.0000  -0.0000  -0.0000  -0.0000
    -0.0000  -0.0000  -0.0000  -0.0000

          k =-0.4792 0.1784-0.3328 (  9928 PWs)   bands (ev):

   -39.2445 -39.2445 -39.2441 -39.2441 -39.2413 -39.2413 -39.2408 -39.2408
   -39.0328 -39.0328 -38.9933 -38.9933 -38.3512 -38.3512 -38.3507 -38.3507
   -38.3482 -38.3482 -38.3478 -38.3478 -38.3469 -38.3469 -38.3464 -38.3464
   -38.1415 -38.1415 -38.1243 -38.1243 -38.0903 -38.0903 -15.7557 -15.7557
   -15.7555 -15.7555 -15.7441 -15.7441 -15.7426 -15.7426 -12.7804 -12.7804
   -12.7785 -12.7785 -12.7628 -12.7628 -12.7624 -12.7624 -12.7587 -12.7587
   -12.7569 -12.7569  -5.0294  -5.0294  -4.7596  -4.7596  -3.6158  -3.6158
    -1.0487  -1.0487  -0.0440  -0.0440   5.1817   5.1817   5.7419   5.7419
     6.0945   6.0945   6.5578   6.5578   6.6591   6.6591   7.1537   7.1537
     7.5952   7.5952   7.6682   7.6682   8.3808   8.3808   9.1510   9.1510
    10.1513  10.1513  10.7488  10.7488  11.3583  11.3583  11.8662  11.8662
    12.2533  12.2533  14.2245  14.2245  15.3146  15.3146  15.5230  15.5230
    15.9968  15.9968  16.2599  16.2599  16.9163  16.9163  16.9458  16.9458
    17.7658  17.7658  18.4863  18.4863  18.5982  18.5982  18.8817  18.8817
    19.4377  19.4377  19.6965  19.6965  19.8183  19.8183  20.3311  20.3311
    21.3209  21.3209  21.7350  21.7351

     occupation numbers 
     1.0000   1.0000   1.0000   1.0000   1.0000   1.0000   1.0000   1.0000
     1.0000   1.0000   1.0000   1.0000   1.0000   1.0000   1.0000   1.0000
     1.0000   1.0000   1.0000   1.0000   1.0000   1.0000   1.0000   1.0000
     1.0000   1.0000   1.0000   1.0000   1.0000   1.0000   1.0000   1.0000
     1.0000   1.0000   1.0000   1.0000   1.0000   1.0000   1.0000   1.0000
     1.0000   1.0000   1.0000   1.0000   1.0000   1.0000   1.0000   1.0000
     1.0000   1.0000   1.0000   1.0000   1.0000   1.0000   1.0000   1.0000
     1.0000   1.0000   1.0000   1.0000   1.0000   1.0000   1.0000   1.0000
     1.0000   1.0000   1.0000   1.0000   1.0000   1.0000   1.0000   1.0000
     1.0000   1.0000   1.0000   1.0000   1.0221   1.0221  -0.0000  -0.0000
    -0.0000  -0.0000  -0.0000  -0.0000  -0.0000  -0.0000  -0.0000  -0.0000
    -0.0000  -0.0000  -0.0000  -0.0000  -0.0000  -0.0000  -0.0000  -0.0000
    -0.0000  -0.0000  -0.0000  -0.0000  -0.0000  -0.0000  -0.0000  -0.0000
    -0.0000  -0.0000  -0.0000  -0.0000  -0.0000  -0.0000  -0.0000  -0.0000
    -0.0000  -0.0000  -0.0000  -0.0000  -0.0000  -0.0000  -0.0000  -0.0000
    -0.0000  -0.0000  -0.0000  -0.0000

          k =-0.8506-0.0427-0.1655 (  9898 PWs)   bands (ev):

   -39.2441 -39.2441 -39.2437 -39.2437 -39.2412 -39.2412 -39.2404 -39.2404
   -39.0326 -39.0326 -38.9929 -38.9929 -38.3506 -38.3506 -38.3503 -38.3503
   -38.3481 -38.3481 -38.3474 -38.3474 -38.3467 -38.3467 -38.3461 -38.3461
   -38.1412 -38.1412 -38.1241 -38.1241 -38.0898 -38.0898 -15.7546 -15.7546
   -15.7533 -15.7533 -15.7441 -15.7441 -15.7429 -15.7429 -12.7802 -12.7802
   -12.7765 -12.7765 -12.7647 -12.7647 -12.7636 -12.7636 -12.7563 -12.7563
   -12.7546 -12.7546  -4.6271  -4.6271  -4.3377  -4.3377  -3.4994  -3.4994
    -1.1967  -1.1967  -0.7043  -0.7043   4.4679   4.4679   4.9273   4.9273
     5.3615   5.3615   5.9599   5.9599   6.3547   6.3547   6.7617   6.7617
     7.3013   7.3013   7.7818   7.7818   7.9204   7.9204  10.0257  10.0257
    10.1935  10.1935  11.2849  11.2849  11.8151  11.8151  12.2409  12.2409
    12.7490  12.7490  14.2711  14.2711  14.3430  14.3430  15.3584  15.3584
    15.9792  15.9792  17.3858  17.3858  17.7120  17.7120  18.2734  18.2734
    18.5836  18.5836  19.0637  19.0637  19.5431  19.5431  19.8478  19.8478
    20.0114  20.0114  20.2563  20.2563  20.7150  20.7150  21.4559  21.4559
    22.1177  22.1178  22.2629  22.2631

     occupation numbers 
     1.0000   1.0000   1.0000   1.0000   1.0000   1.0000   1.0000   1.0000
     1.0000   1.0000   1.0000   1.0000   1.0000   1.0000   1.0000   1.0000
     1.0000   1.0000   1.0000   1.0000   1.0000   1.0000   1.0000   1.0000
     1.0000   1.0000   1.0000   1.0000   1.0000   1.0000   1.0000   1.0000
     1.0000   1.0000   1.0000   1.0000   1.0000   1.0000   1.0000   1.0000
     1.0000   1.0000   1.0000   1.0000   1.0000   1.0000   1.0000   1.0000
     1.0000   1.0000   1.0000   1.0000   1.0000   1.0000   1.0000   1.0000
     1.0000   1.0000   1.0000   1.0000   1.0000   1.0000   1.0000   1.0000
     1.0000   1.0000   1.0000   1.0000   1.0000   1.0000   1.0000   1.0000
     1.0000   1.0000   1.0000   1.0000   1.0000   1.0000  -0.0000  -0.0000
    -0.0000  -0.0000  -0.0000  -0.0000  -0.0000  -0.0000  -0.0000  -0.0000
    -0.0000  -0.0000  -0.0000  -0.0000  -0.0000  -0.0000  -0.0000  -0.0000
    -0.0000  -0.0000  -0.0000  -0.0000  -0.0000  -0.0000  -0.0000  -0.0000
    -0.0000  -0.0000  -0.0000  -0.0000  -0.0000  -0.0000  -0.0000  -0.0000
    -0.0000  -0.0000  -0.0000  -0.0000  -0.0000  -0.0000  -0.0000  -0.0000
    -0.0000  -0.0000  -0.0000  -0.0000

          k =-1.2222 0.1997 0.0015 (  9884 PWs)   bands (ev):

   -39.2437 -39.2437 -39.2433 -39.2433 -39.2408 -39.2408 -39.2407 -39.2407
   -39.0325 -39.0325 -38.9925 -38.9925 -38.3502 -38.3502 -38.3498 -38.3498
   -38.3480 -38.3480 -38.3478 -38.3478 -38.3462 -38.3462 -38.3461 -38.3461
   -38.1410 -38.1410 -38.1241 -38.1241 -38.0893 -38.0893 -15.7536 -15.7536
   -15.7512 -15.7512 -15.7442 -15.7442 -15.7432 -15.7432 -12.7805 -12.7805
   -12.7769 -12.7769 -12.7658 -12.7658 -12.7638 -12.7638 -12.7535 -12.7535
   -12.7515 -12.7515  -3.9566  -3.9566  -3.7768  -3.7768  -3.4538  -3.4538
    -1.6588  -1.6588  -1.4219  -1.4219   3.8160   3.8160   4.5480   4.5480
     4.9034   4.9034   5.2566   5.2566   6.1601   6.1601   6.5694   6.5694
     7.0585   7.0585   7.1979   7.1979   7.6886   7.6886  10.3162  10.3162
    10.7486  10.7486  11.4326  11.4326  12.0039  12.0039  12.4730  12.4730
    13.2642  13.2642  13.9447  13.9447  14.7728  14.7728  15.6354  15.6354
    17.5737  17.5737  17.8177  17.8177  18.3960  18.3960  19.1057  19.1057
    19.4170  19.4170  19.6330  19.6331  19.7563  19.7563  20.4918  20.4918
    20.7834  20.7834  21.0687  21.0687  21.2298  21.2298  21.5067  21.5067
    21.8311  21.8311  22.6189  22.6189

     occupation numbers 
     1.0000   1.0000   1.0000   1.0000   1.0000   1.0000   1.0000   1.0000
     1.0000   1.0000   1.0000   1.0000   1.0000   1.0000   1.0000   1.0000
     1.0000   1.0000   1.0000   1.0000   1.0000   1.0000   1.0000   1.0000
     1.0000   1.0000   1.0000   1.0000   1.0000   1.0000   1.0000   1.0000
     1.0000   1.0000   1.0000   1.0000   1.0000   1.0000   1.0000   1.0000
     1.0000   1.0000   1.0000   1.0000   1.0000   1.0000   1.0000   1.0000
     1.0000   1.0000   1.0000   1.0000   1.0000   1.0000   1.0000   1.0000
     1.0000   1.0000   1.0000   1.0000   1.0000   1.0000   1.0000   1.0000
     1.0000   1.0000   1.0000   1.0000   1.0000   1.0000   1.0000   1.0000
     1.0000   1.0000   1.0000   1.0000   1.0000   1.0000  -0.0000  -0.0000
    -0.0000  -0.0000  -0.0000  -0.0000  -0.0000  -0.0000  -0.0000  -0.0000
    -0.0000  -0.0000  -0.0000  -0.0000  -0.0000  -0.0000  -0.0000  -0.0000
    -0.0000  -0.0000  -0.0000  -0.0000  -0.0000  -0.0000  -0.0000  -0.0000
    -0.0000  -0.0000  -0.0000  -0.0000  -0.0000  -0.0000  -0.0000  -0.0000
    -0.0000  -0.0000  -0.0000  -0.0000  -0.0000  -0.0000  -0.0000  -0.0000
    -0.0000  -0.0000  -0.0000  -0.0000

          k =-1.5937-0.0214 0.1688 (  9892 PWs)   bands (ev):

   -39.2437 -39.2437 -39.2435 -39.2435 -39.2410 -39.2410 -39.2405 -39.2405
   -39.0325 -39.0325 -38.9927 -38.9927 -38.3502 -38.3502 -38.3501 -38.3501
   -38.3479 -38.3479 -38.3475 -38.3475 -38.3465 -38.3465 -38.3462 -38.3461
   -38.1411 -38.1411 -38.1240 -38.1240 -38.0895 -38.0895 -15.7534 -15.7533
   -15.7497 -15.7497 -15.7447 -15.7447 -15.7433 -15.7433 -12.7764 -12.7764
   -12.7743 -12.7743 -12.7691 -12.7691 -12.7650 -12.7650 -12.7531 -12.7531
   -12.7530 -12.7530  -3.5746  -3.5745  -3.5450  -3.5450  -3.4602  -3.4602
    -1.8291  -1.8291  -1.8086  -1.8086   3.8638   3.8638   4.3799   4.3799
     4.5826   4.5826   4.9836   4.9836   5.6588   5.6588   6.1823   6.1823
     6.9185   6.9185   7.6780   7.6780   7.9589   7.9589  10.0631  10.0631
    10.8387  10.8387  11.5429  11.5429  12.5083  12.5083  12.9012  12.9012
    13.2937  13.2937  15.0402  15.0402  15.7057  15.7057  15.9262  15.9262
    16.0847  16.0847  16.4324  16.4324  17.8204  17.8204  18.5085  18.5085
    19.0322  19.0322  19.9328  19.9328  20.0913  20.0913  20.5526  20.5526
    20.7331  20.7331  21.3015  21.3015  22.2672  22.2672  22.3993  22.3993
    23.2931  23.2931  23.4172  23.4172

     occupation numbers 
     1.0000   1.0000   1.0000   1.0000   1.0000   1.0000   1.0000   1.0000
     1.0000   1.0000   1.0000   1.0000   1.0000   1.0000   1.0000   1.0000
     1.0000   1.0000   1.0000   1.0000   1.0000   1.0000   1.0000   1.0000
     1.0000   1.0000   1.0000   1.0000   1.0000   1.0000   1.0000   1.0000
     1.0000   1.0000   1.0000   1.0000   1.0000   1.0000   1.0000   1.0000
     1.0000   1.0000   1.0000   1.0000   1.0000   1.0000   1.0000   1.0000
     1.0000   1.0000   1.0000   1.0000   1.0000   1.0000   1.0000   1.0000
     1.0000   1.0000   1.0000   1.0000   1.0000   1.0000   1.0000   1.0000
     1.0000   1.0000   1.0000   1.0000   1.0000   1.0000   1.0000   1.0000
     1.0000   1.0000   1.0000   1.0000   1.0000   1.0000  -0.0000  -0.0000
    -0.0000  -0.0000  -0.0000  -0.0000  -0.0000  -0.0000  -0.0000  -0.0000
    -0.0000  -0.0000  -0.0000  -0.0000  -0.0000  -0.0000  -0.0000  -0.0000
    -0.0000  -0.0000  -0.0000  -0.0000  -0.0000  -0.0000  -0.0000  -0.0000
    -0.0000  -0.0000  -0.0000  -0.0000  -0.0000  -0.0000  -0.0000  -0.0000
    -0.0000  -0.0000  -0.0000  -0.0000  -0.0000  -0.0000  -0.0000  -0.0000
    -0.0000  -0.0000  -0.0000  -0.0000

          k =-1.9651-0.2424 0.3362 (  9872 PWs)   bands (ev):

   -39.2434 -39.2434 -39.2432 -39.2432 -39.2407 -39.2407 -39.2405 -39.2405
   -39.0324 -39.0324 -38.9923 -38.9923 -38.3499 -38.3499 -38.3496 -38.3496
   -38.3477 -38.3477 -38.3476 -38.3476 -38.3462 -38.3462 -38.3459 -38.3459
   -38.1409 -38.1409 -38.1239 -38.1239 -38.0891 -38.0891 -15.7536 -15.7536
   -15.7512 -15.7512 -15.7442 -15.7442 -15.7432 -15.7432 -12.7805 -12.7805
   -12.7769 -12.7769 -12.7658 -12.7658 -12.7638 -12.7638 -12.7535 -12.7535
   -12.7516 -12.7516  -3.9215  -3.9215  -3.8195  -3.8195  -3.4504  -3.4504
    -1.6370  -1.6370  -1.4400  -1.4400   3.9806   3.9806   4.6141   4.6141
     4.7801   4.7801   5.1502   5.1502   5.7488   5.7488   6.2106   6.2106
     7.4693   7.4693   7.7493   7.7493   8.1229   8.1229   9.7329   9.7329
    10.4372  10.4372  11.0895  11.0895  12.1472  12.1472  12.7703  12.7703
    13.5047  13.5047  13.7073  13.7073  15.3010  15.3010  15.8753  15.8753
    17.0029  17.0029  17.5524  17.5524  17.8500  17.8500  19.1936  19.1936
    19.3080  19.3080  19.7522  19.7522  20.3142  20.3142  20.7054  20.7054
    20.8016  20.8016  21.1923  21.1923  21.2658  21.2658  21.8772  21.8772
    22.4386  22.4386  22.5666  22.5666

     occupation numbers 
     1.0000   1.0000   1.0000   1.0000   1.0000   1.0000   1.0000   1.0000
     1.0000   1.0000   1.0000   1.0000   1.0000   1.0000   1.0000   1.0000
     1.0000   1.0000   1.0000   1.0000   1.0000   1.0000   1.0000   1.0000
     1.0000   1.0000   1.0000   1.0000   1.0000   1.0000   1.0000   1.0000
     1.0000   1.0000   1.0000   1.0000   1.0000   1.0000   1.0000   1.0000
     1.0000   1.0000   1.0000   1.0000   1.0000   1.0000   1.0000   1.0000
     1.0000   1.0000   1.0000   1.0000   1.0000   1.0000   1.0000   1.0000
     1.0000   1.0000   1.0000   1.0000   1.0000   1.0000   1.0000   1.0000
     1.0000   1.0000   1.0000   1.0000   1.0000   1.0000   1.0000   1.0000
     1.0000   1.0000   1.0000   1.0000   1.0000   1.0000  -0.0000  -0.0000
    -0.0000  -0.0000  -0.0000  -0.0000  -0.0000  -0.0000  -0.0000  -0.0000
    -0.0000  -0.0000  -0.0000  -0.0000  -0.0000  -0.0000  -0.0000  -0.0000
    -0.0000  -0.0000  -0.0000  -0.0000  -0.0000  -0.0000  -0.0000  -0.0000
    -0.0000  -0.0000  -0.0000  -0.0000  -0.0000  -0.0000  -0.0000  -0.0000
    -0.0000  -0.0000  -0.0000  -0.0000  -0.0000  -0.0000  -0.0000  -0.0000
    -0.0000  -0.0000  -0.0000  -0.0000

          k =-0.1078 0.8630-0.5005 (  9880 PWs)   bands (ev):

   -39.2439 -39.2439 -39.2433 -39.2433 -39.2409 -39.2409 -39.2405 -39.2405
   -39.0325 -39.0325 -38.9926 -38.9926 -38.3504 -38.3504 -38.3498 -38.3498
   -38.3479 -38.3479 -38.3474 -38.3474 -38.3465 -38.3465 -38.3461 -38.3461
   -38.1411 -38.1411 -38.1239 -38.1239 -38.0895 -38.0895 -15.7537 -15.7537
   -15.7535 -15.7535 -15.7440 -15.7439 -15.7429 -15.7429 -12.7810 -12.7809
   -12.7786 -12.7786 -12.7649 -12.7649 -12.7632 -12.7632 -12.7548 -12.7548
   -12.7522 -12.7522  -4.4232  -4.4232  -4.1918  -4.1918  -3.4800  -3.4800
    -1.2970  -1.2970  -0.9524  -0.9524   4.0078   4.0078   4.9384   4.9384
     5.4667   5.4667   5.8908   5.8908   6.2037   6.2037   6.7785   6.7785
     7.1721   7.1721   7.3878   7.3878   7.8444   7.8444   9.7227   9.7227
    10.8260  10.8260  11.0543  11.0543  11.6134  11.6134  12.4264  12.4264
    13.0670  13.0670  13.3360  13.3360  15.0935  15.0935  16.3691  16.3691
    16.7131  16.7131  17.5152  17.5152  17.6074  17.6074  17.8310  17.8310
    18.1425  18.1425  18.9816  18.9816  20.0441  20.0441  20.4387  20.4387
    20.9799  20.9799  21.0679  21.0679  21.2601  21.2601  22.1494  22.1494
    22.4698  22.4699  22.8955  22.8958

     occupation numbers 
     1.0000   1.0000   1.0000   1.0000   1.0000   1.0000   1.0000   1.0000
     1.0000   1.0000   1.0000   1.0000   1.0000   1.0000   1.0000   1.0000
     1.0000   1.0000   1.0000   1.0000   1.0000   1.0000   1.0000   1.0000
     1.0000   1.0000   1.0000   1.0000   1.0000   1.0000   1.0000   1.0000
     1.0000   1.0000   1.0000   1.0000   1.0000   1.0000   1.0000   1.0000
     1.0000   1.0000   1.0000   1.0000   1.0000   1.0000   1.0000   1.0000
     1.0000   1.0000   1.0000   1.0000   1.0000   1.0000   1.0000   1.0000
     1.0000   1.0000   1.0000   1.0000   1.0000   1.0000   1.0000   1.0000
     1.0000   1.0000   1.0000   1.0000   1.0000   1.0000   1.0000   1.0000
     1.0000   1.0000   1.0000   1.0000   1.0000   1.0000  -0.0000  -0.0000
    -0.0000  -0.0000  -0.0000  -0.0000  -0.0000  -0.0000  -0.0000  -0.0000
    -0.0000  -0.0000  -0.0000  -0.0000  -0.0000  -0.0000  -0.0000  -0.0000
    -0.0000  -0.0000  -0.0000  -0.0000  -0.0000  -0.0000  -0.0000  -0.0000
    -0.0000  -0.0000  -0.0000  -0.0000  -0.0000  -0.0000  -0.0000  -0.0000
    -0.0000  -0.0000  -0.0000  -0.0000  -0.0000  -0.0000  -0.0000  -0.0000
    -0.0000  -0.0000  -0.0000  -0.0000

          k =-0.4793 0.6419-0.3332 (  9898 PWs)   bands (ev):

   -39.2441 -39.2441 -39.2437 -39.2437 -39.2412 -39.2412 -39.2404 -39.2404
   -39.0326 -39.0326 -38.9929 -38.9929 -38.3506 -38.3506 -38.3503 -38.3503
   -38.3481 -38.3481 -38.3474 -38.3474 -38.3467 -38.3467 -38.3461 -38.3461
   -38.1412 -38.1412 -38.1241 -38.1241 -38.0898 -38.0898 -15.7546 -15.7546
   -15.7533 -15.7533 -15.7441 -15.7441 -15.7429 -15.7429 -12.7802 -12.7802
   -12.7765 -12.7765 -12.7647 -12.7647 -12.7636 -12.7636 -12.7563 -12.7563
   -12.7546 -12.7546  -4.6271  -4.6271  -4.3377  -4.3377  -3.4994  -3.4994
    -1.1967  -1.1967  -0.7043  -0.7043   4.4679   4.4679   4.9273   4.9273
     5.3615   5.3615   5.9599   5.9599   6.3547   6.3547   6.7617   6.7617
     7.3013   7.3013   7.7818   7.7818   7.9204   7.9204  10.0257  10.0257
    10.1935  10.1935  11.2849  11.2849  11.8151  11.8151  12.2409  12.2409
    12.7490  12.7490  14.2711  14.2711  14.3430  14.3430  15.3584  15.3584
    15.9792  15.9792  17.3858  17.3858  17.7120  17.7120  18.2734  18.2734
    18.5836  18.5836  19.0637  19.0637  19.5431  19.5431  19.8478  19.8478
    20.0114  20.0114  20.2563  20.2563  20.7150  20.7150  21.4559  21.4559
    22.1176  22.1176  22.2628  22.2628

     occupation numbers 
     1.0000   1.0000   1.0000   1.0000   1.0000   1.0000   1.0000   1.0000
     1.0000   1.0000   1.0000   1.0000   1.0000   1.0000   1.0000   1.0000
     1.0000   1.0000   1.0000   1.0000   1.0000   1.0000   1.0000   1.0000
     1.0000   1.0000   1.0000   1.0000   1.0000   1.0000   1.0000   1.0000
     1.0000   1.0000   1.0000   1.0000   1.0000   1.0000   1.0000   1.0000
     1.0000   1.0000   1.0000   1.0000   1.0000   1.0000   1.0000   1.0000
     1.0000   1.0000   1.0000   1.0000   1.0000   1.0000   1.0000   1.0000
     1.0000   1.0000   1.0000   1.0000   1.0000   1.0000   1.0000   1.0000
     1.0000   1.0000   1.0000   1.0000   1.0000   1.0000   1.0000   1.0000
     1.0000   1.0000   1.0000   1.0000   1.0000   1.0000  -0.0000  -0.0000
    -0.0000  -0.0000  -0.0000  -0.0000  -0.0000  -0.0000  -0.0000  -0.0000
    -0.0000  -0.0000  -0.0000  -0.0000  -0.0000  -0.0000  -0.0000  -0.0000
    -0.0000  -0.0000  -0.0000  -0.0000  -0.0000  -0.0000  -0.0000  -0.0000
    -0.0000  -0.0000  -0.0000  -0.0000  -0.0000  -0.0000  -0.0000  -0.0000
    -0.0000  -0.0000  -0.0000  -0.0000  -0.0000  -0.0000  -0.0000  -0.0000
    -0.0000  -0.0000  -0.0000  -0.0000

          k =-0.8507 0.4208-0.1659 (  9894 PWs)   bands (ev):

   -39.2441 -39.2441 -39.2434 -39.2434 -39.2410 -39.2410 -39.2407 -39.2407
   -39.0326 -39.0326 -38.9928 -38.9928 -38.3506 -38.3506 -38.3499 -38.3499
   -38.3481 -38.3481 -38.3477 -38.3477 -38.3464 -38.3464 -38.3462 -38.3462
   -38.1411 -38.1411 -38.1242 -38.1242 -38.0896 -38.0896 -15.7537 -15.7537
   -15.7535 -15.7535 -15.7440 -15.7439 -15.7429 -15.7429 -12.7810 -12.7810
   -12.7786 -12.7786 -12.7649 -12.7649 -12.7631 -12.7631 -12.7549 -12.7549
   -12.7521 -12.7521  -4.4440  -4.4440  -4.1659  -4.1659  -3.4768  -3.4768
    -1.3740  -1.3740  -0.8829  -0.8829   4.1906   4.1906   4.7634   4.7634
     5.4052   5.4052   5.8742   5.8743   6.0881   6.0881   6.3974   6.3974
     7.5118   7.5118   7.7213   7.7213   8.3152   8.3152   9.1990   9.1990
    10.5010  10.5010  10.9950  10.9950  11.5265  11.5265  12.6218  12.6218
    13.2781  13.2781  13.4167  13.4167  15.0634  15.0634  15.9789  15.9789
    17.1550  17.1550  17.5291  17.5291  17.6168  17.6168  18.1076  18.1076
    18.8213  18.8213  19.3060  19.3060  19.4968  19.4968  20.0392  20.0392
    20.3431  20.3431  20.7542  20.7542  21.2899  21.2899  21.6602  21.6602
    21.9574  21.9574  22.6339  22.6339

     occupation numbers 
     1.0000   1.0000   1.0000   1.0000   1.0000   1.0000   1.0000   1.0000
     1.0000   1.0000   1.0000   1.0000   1.0000   1.0000   1.0000   1.0000
     1.0000   1.0000   1.0000   1.0000   1.0000   1.0000   1.0000   1.0000
     1.0000   1.0000   1.0000   1.0000   1.0000   1.0000   1.0000   1.0000
     1.0000   1.0000   1.0000   1.0000   1.0000   1.0000   1.0000   1.0000
     1.0000   1.0000   1.0000   1.0000   1.0000   1.0000   1.0000   1.0000
     1.0000   1.0000   1.0000   1.0000   1.0000   1.0000   1.0000   1.0000
     1.0000   1.0000   1.0000   1.0000   1.0000   1.0000   1.0000   1.0000
     1.0000   1.0000   1.0000   1.0000   1.0000   1.0000   1.0000   1.0000
     1.0000   1.0000   1.0000   1.0000   1.0056   1.0056  -0.0000  -0.0000
    -0.0000  -0.0000  -0.0000  -0.0000  -0.0000  -0.0000  -0.0000  -0.0000
    -0.0000  -0.0000  -0.0000  -0.0000  -0.0000  -0.0000  -0.0000  -0.0000
    -0.0000  -0.0000  -0.0000  -0.0000  -0.0000  -0.0000  -0.0000  -0.0000
    -0.0000  -0.0000  -0.0000  -0.0000  -0.0000  -0.0000  -0.0000  -0.0000
    -0.0000  -0.0000  -0.0000  -0.0000  -0.0000  -0.0000  -0.0000  -0.0000
    -0.0000  -0.0000  -0.0000  -0.0000

          k =-0.8148 0.4422 0.0007 (  9889 PWs)   bands (ev):

   -39.2442 -39.2442 -39.2433 -39.2433 -39.2410 -39.2410 -39.2404 -39.2404
   -39.0324 -39.0324 -38.9928 -38.9928 -38.3508 -38.3508 -38.3499 -38.3499
   -38.3481 -38.3481 -38.3475 -38.3475 -38.3465 -38.3465 -38.3459 -38.3459
   -38.1410 -38.1410 -38.1240 -38.1240 -38.0897 -38.0897 -15.7537 -15.7537
   -15.7535 -15.7535 -15.7440 -15.7439 -15.7429 -15.7429 -12.7810 -12.7810
   -12.7786 -12.7786 -12.7649 -12.7649 -12.7631 -12.7631 -12.7549 -12.7549
   -12.7521 -12.7521  -4.4943  -4.4943  -4.0606  -4.0606  -3.5415  -3.5415
    -1.3684  -1.3684  -0.8753  -0.8753   4.0512   4.0512   5.0315   5.0315
     5.3207   5.3207   5.9358   5.9358   6.0417   6.0417   6.5515   6.5515
     7.2978   7.2978   7.5756   7.5756   8.1619   8.1619   9.4224   9.4224
    10.6641  10.6641  11.0360  11.0360  11.6239  11.6239  12.5333  12.5333
    13.1496  13.1496  13.2656  13.2656  15.2988  15.2988  15.9637  15.9637
    17.3943  17.3943  17.4700  17.4700  17.7146  17.7146  18.0189  18.0189
    18.5449  18.5449  19.4325  19.4325  19.5829  19.5829  19.6698  19.6698
    20.0003  20.0003  20.2541  20.2541  21.2021  21.2021  22.2180  22.2180
    22.4231  22.4231  22.7869  22.7869

     occupation numbers 
     1.0000   1.0000   1.0000   1.0000   1.0000   1.0000   1.0000   1.0000
     1.0000   1.0000   1.0000   1.0000   1.0000   1.0000   1.0000   1.0000
     1.0000   1.0000   1.0000   1.0000   1.0000   1.0000   1.0000   1.0000
     1.0000   1.0000   1.0000   1.0000   1.0000   1.0000   1.0000   1.0000
     1.0000   1.0000   1.0000   1.0000   1.0000   1.0000   1.0000   1.0000
     1.0000   1.0000   1.0000   1.0000   1.0000   1.0000   1.0000   1.0000
     1.0000   1.0000   1.0000   1.0000   1.0000   1.0000   1.0000   1.0000
     1.0000   1.0000   1.0000   1.0000   1.0000   1.0000   1.0000   1.0000
     1.0000   1.0000   1.0000   1.0000   1.0000   1.0000   1.0000   1.0000
     1.0000   1.0000   1.0000   1.0000   1.0000   1.0000  -0.0000  -0.0000
    -0.0000  -0.0000  -0.0000  -0.0000  -0.0000  -0.0000  -0.0000  -0.0000
    -0.0000  -0.0000  -0.0000  -0.0000  -0.0000  -0.0000  -0.0000  -0.0000
    -0.0000  -0.0000  -0.0000  -0.0000  -0.0000  -0.0000  -0.0000  -0.0000
    -0.0000  -0.0000  -0.0000  -0.0000  -0.0000  -0.0000  -0.0000  -0.0000
    -0.0000  -0.0000  -0.0000  -0.0000  -0.0000  -0.0000  -0.0000  -0.0000
    -0.0000  -0.0000  -0.0000  -0.0000

          k =-1.1863 0.2211 0.1681 (  9870 PWs)   bands (ev):

   -39.2435 -39.2435 -39.2432 -39.2432 -39.2407 -39.2407 -39.2404 -39.2404
   -39.0323 -39.0323 -38.9924 -38.9924 -38.3499 -38.3499 -38.3497 -38.3497
   -38.3479 -38.3479 -38.3476 -38.3476 -38.3461 -38.3461 -38.3458 -38.3458
   -38.1408 -38.1408 -38.1240 -38.1240 -38.0891 -38.0891 -15.7536 -15.7536
   -15.7512 -15.7512 -15.7442 -15.7442 -15.7432 -15.7432 -12.7805 -12.7805
   -12.7769 -12.7769 -12.7658 -12.7658 -12.7638 -12.7638 -12.7535 -12.7535
   -12.7515 -12.7515  -3.9877  -3.9877  -3.7159  -3.7159  -3.4827  -3.4827
    -1.6720  -1.6720  -1.4095  -1.4095   3.7420   3.7420   4.5821   4.5821
     4.9718   4.9718   5.4945   5.4945   6.0512   6.0512   6.3038   6.3038
     6.8347   6.8347   7.4769   7.4769   7.7371   7.7371  10.3003  10.3003
    10.6284  10.6284  11.5865  11.5865  12.1670  12.1670  12.5182  12.5182
    13.0651  13.0651  13.7143  13.7143  15.2443  15.2443  15.6550  15.6550
    17.1565  17.1565  17.7904  17.7904  18.4634  18.4634  18.7684  18.7684
    19.2110  19.2110  19.4675  19.4675  20.1693  20.1693  20.4511  20.4511
    20.7203  20.7203  21.1766  21.1766  21.5249  21.5249  21.8720  21.8720
    22.1707  22.1707  22.5372  22.5372

     occupation numbers 
     1.0000   1.0000   1.0000   1.0000   1.0000   1.0000   1.0000   1.0000
     1.0000   1.0000   1.0000   1.0000   1.0000   1.0000   1.0000   1.0000
     1.0000   1.0000   1.0000   1.0000   1.0000   1.0000   1.0000   1.0000
     1.0000   1.0000   1.0000   1.0000   1.0000   1.0000   1.0000   1.0000
     1.0000   1.0000   1.0000   1.0000   1.0000   1.0000   1.0000   1.0000
     1.0000   1.0000   1.0000   1.0000   1.0000   1.0000   1.0000   1.0000
     1.0000   1.0000   1.0000   1.0000   1.0000   1.0000   1.0000   1.0000
     1.0000   1.0000   1.0000   1.0000   1.0000   1.0000   1.0000   1.0000
     1.0000   1.0000   1.0000   1.0000   1.0000   1.0000   1.0000   1.0000
     1.0000   1.0000   1.0000   1.0000   1.0000   1.0000  -0.0000  -0.0000
    -0.0000  -0.0000  -0.0000  -0.0000  -0.0000  -0.0000  -0.0000  -0.0000
    -0.0000  -0.0000  -0.0000  -0.0000  -0.0000  -0.0000  -0.0000  -0.0000
    -0.0000  -0.0000  -0.0000  -0.0000  -0.0000  -0.0000  -0.0000  -0.0000
    -0.0000  -0.0000  -0.0000  -0.0000  -0.0000  -0.0000  -0.0000  -0.0000
    -0.0000  -0.0000  -0.0000  -0.0000  -0.0000  -0.0000  -0.0000  -0.0000
    -0.0000  -0.0000  -0.0000  -0.0000

          k =-1.5578 0.0000 0.3354 (  9886 PWs)   bands (ev):

   -39.2437 -39.2437 -39.2436 -39.2436 -39.2407 -39.2407 -39.2405 -39.2405
   -39.0324 -39.0324 -38.9927 -38.9927 -38.3502 -38.3502 -38.3501 -38.3501
   -38.3478 -38.3478 -38.3477 -38.3477 -38.3462 -38.3462 -38.3459 -38.3459
   -38.1409 -38.1409 -38.1240 -38.1240 -38.0895 -38.0895 -15.7534 -15.7533
   -15.7497 -15.7497 -15.7447 -15.7447 -15.7433 -15.7433 -12.7764 -12.7764
   -12.7743 -12.7743 -12.7691 -12.7691 -12.7650 -12.7650 -12.7531 -12.7531
   -12.7530 -12.7530  -3.5746  -3.5745  -3.5450  -3.5450  -3.4602  -3.4602
    -1.8291  -1.8291  -1.8086  -1.8086   3.8643   3.8643   4.3666   4.3666
     4.6159   4.6159   4.9448   4.9448   5.7266   5.7266   6.0966   6.0966
     7.0107   7.0107   7.5515   7.5515   8.0354   8.0354  10.0378  10.0378
    10.8881  10.8881  11.4954  11.4954  12.5644  12.5644  12.8508  12.8508
    13.3055  13.3055  15.0403  15.0403  15.7294  15.7294  15.8448  15.8448
    16.2340  16.2340  16.3256  16.3256  18.0558  18.0558  18.1167  18.1167
    19.5275  19.5275  19.6011  19.6011  20.0575  20.0575  20.4161  20.4161
    20.8476  20.8476  21.4294  21.4294  22.1724  22.1724  22.5992  22.5992
    22.9215  22.9215  23.5006  23.5006

     occupation numbers 
     1.0000   1.0000   1.0000   1.0000   1.0000   1.0000   1.0000   1.0000
     1.0000   1.0000   1.0000   1.0000   1.0000   1.0000   1.0000   1.0000
     1.0000   1.0000   1.0000   1.0000   1.0000   1.0000   1.0000   1.0000
     1.0000   1.0000   1.0000   1.0000   1.0000   1.0000   1.0000   1.0000
     1.0000   1.0000   1.0000   1.0000   1.0000   1.0000   1.0000   1.0000
     1.0000   1.0000   1.0000   1.0000   1.0000   1.0000   1.0000   1.0000
     1.0000   1.0000   1.0000   1.0000   1.0000   1.0000   1.0000   1.0000
     1.0000   1.0000   1.0000   1.0000   1.0000   1.0000   1.0000   1.0000
     1.0000   1.0000   1.0000   1.0000   1.0000   1.0000   1.0000   1.0000
     1.0000   1.0000   1.0000   1.0000   1.0000   1.0000  -0.0000  -0.0000
    -0.0000  -0.0000  -0.0000  -0.0000  -0.0000  -0.0000  -0.0000  -0.0000
    -0.0000  -0.0000  -0.0000  -0.0000  -0.0000  -0.0000  -0.0000  -0.0000
    -0.0000  -0.0000  -0.0000  -0.0000  -0.0000  -0.0000  -0.0000  -0.0000
    -0.0000  -0.0000  -0.0000  -0.0000  -0.0000  -0.0000  -0.0000  -0.0000
    -0.0000  -0.0000  -0.0000  -0.0000  -0.0000  -0.0000  -0.0000  -0.0000
    -0.0000  -0.0000  -0.0000  -0.0000

          k = 0.2996 1.1055-0.5013 (  9871 PWs)   bands (ev):

   -39.2434 -39.2434 -39.2431 -39.2431 -39.2408 -39.2408 -39.2405 -39.2405
   -39.0324 -39.0324 -38.9923 -38.9923 -38.3499 -38.3499 -38.3495 -38.3495
   -38.3477 -38.3477 -38.3475 -38.3475 -38.3463 -38.3463 -38.3460 -38.3460
   -38.1410 -38.1410 -38.1239 -38.1239 -38.0890 -38.0890 -15.7536 -15.7536
   -15.7512 -15.7512 -15.7442 -15.7442 -15.7432 -15.7432 -12.7805 -12.7805
   -12.7769 -12.7769 -12.7658 -12.7658 -12.7638 -12.7638 -12.7535 -12.7535
   -12.7516 -12.7516  -3.9676  -3.9676  -3.7463  -3.7463  -3.4767  -3.4767
    -1.6524  -1.6524  -1.4255  -1.4255   3.8654   3.8654   4.7018   4.7018
     4.9104   4.9104   5.2884   5.2884   5.6519   5.6519   6.0307   6.0307
     7.2918   7.2918   7.9445   7.9445   8.1336   8.1336   9.7560   9.7560
    10.2975  10.2975  11.2441  11.2441  12.1937  12.1937  12.8702  12.8702
    13.3982  13.3982  13.5358  13.5358  15.6363  15.6363  16.1464  16.1464
    16.7490  16.7490  17.1030  17.1030  17.7398  17.7398  19.1734  19.1734
    19.2513  19.2513  19.6895  19.6895  20.4362  20.4362  20.5643  20.5643
    20.9386  20.9386  21.1722  21.1722  21.5840  21.5840  22.2175  22.2176
    22.4226  22.4226  22.9988  23.0020

     occupation numbers 
     1.0000   1.0000   1.0000   1.0000   1.0000   1.0000   1.0000   1.0000
     1.0000   1.0000   1.0000   1.0000   1.0000   1.0000   1.0000   1.0000
     1.0000   1.0000   1.0000   1.0000   1.0000   1.0000   1.0000   1.0000
     1.0000   1.0000   1.0000   1.0000   1.0000   1.0000   1.0000   1.0000
     1.0000   1.0000   1.0000   1.0000   1.0000   1.0000   1.0000   1.0000
     1.0000   1.0000   1.0000   1.0000   1.0000   1.0000   1.0000   1.0000
     1.0000   1.0000   1.0000   1.0000   1.0000   1.0000   1.0000   1.0000
     1.0000   1.0000   1.0000   1.0000   1.0000   1.0000   1.0000   1.0000
     1.0000   1.0000   1.0000   1.0000   1.0000   1.0000   1.0000   1.0000
     1.0000   1.0000   1.0000   1.0000   1.0000   1.0000  -0.0000  -0.0000
    -0.0000  -0.0000  -0.0000  -0.0000  -0.0000  -0.0000  -0.0000  -0.0000
    -0.0000  -0.0000  -0.0000  -0.0000  -0.0000  -0.0000  -0.0000  -0.0000
    -0.0000  -0.0000  -0.0000  -0.0000  -0.0000  -0.0000  -0.0000  -0.0000
    -0.0000  -0.0000  -0.0000  -0.0000  -0.0000  -0.0000  -0.0000  -0.0000
    -0.0000  -0.0000  -0.0000  -0.0000  -0.0000  -0.0000  -0.0000  -0.0000
    -0.0000  -0.0000  -0.0000  -0.0000

          k =-0.0719 0.8844-0.3339 (  9894 PWs)   bands (ev):

   -39.2441 -39.2441 -39.2436 -39.2436 -39.2411 -39.2411 -39.2404 -39.2404
   -39.0326 -39.0326 -38.9929 -38.9929 -38.3507 -38.3507 -38.3501 -38.3501
   -38.3481 -38.3481 -38.3476 -38.3476 -38.3466 -38.3466 -38.3459 -38.3459
   -38.1411 -38.1411 -38.1241 -38.1241 -38.0897 -38.0897 -15.7537 -15.7537
   -15.7535 -15.7535 -15.7440 -15.7439 -15.7429 -15.7429 -12.7810 -12.7810
   -12.7786 -12.7786 -12.7649 -12.7649 -12.7632 -12.7632 -12.7548 -12.7548
   -12.7522 -12.7522  -4.4815  -4.4815  -4.0798  -4.0798  -3.5433  -3.5433
    -1.2926  -1.2926  -0.9439  -0.9439   3.9247   3.9247   5.0341   5.0341
     5.5891   5.5891   5.8579   5.8579   6.3316   6.3316   6.6505   6.6505
     7.2116   7.2116   7.3254   7.3254   7.5459   7.5459   9.9420   9.9420
    10.8007  10.8007  11.1958  11.1958  11.8458  11.8458  12.3031  12.3031
    12.8478  12.8478  13.1596  13.1596  15.4223  15.4223  16.4612  16.4612
    16.8242  16.8242  17.0987  17.0987  17.4984  17.4984  17.8230  17.8230
    18.5893  18.5893  19.0565  19.0565  19.5083  19.5083  20.1389  20.1389
    20.4611  20.4611  20.8935  20.8935  21.7425  21.7425  22.0667  22.0667
    22.8774  22.8774  23.1781  23.1781

     occupation numbers 
     1.0000   1.0000   1.0000   1.0000   1.0000   1.0000   1.0000   1.0000
     1.0000   1.0000   1.0000   1.0000   1.0000   1.0000   1.0000   1.0000
     1.0000   1.0000   1.0000   1.0000   1.0000   1.0000   1.0000   1.0000
     1.0000   1.0000   1.0000   1.0000   1.0000   1.0000   1.0000   1.0000
     1.0000   1.0000   1.0000   1.0000   1.0000   1.0000   1.0000   1.0000
     1.0000   1.0000   1.0000   1.0000   1.0000   1.0000   1.0000   1.0000
     1.0000   1.0000   1.0000   1.0000   1.0000   1.0000   1.0000   1.0000
     1.0000   1.0000   1.0000   1.0000   1.0000   1.0000   1.0000   1.0000
     1.0000   1.0000   1.0000   1.0000   1.0000   1.0000   1.0000   1.0000
     1.0000   1.0000   1.0000   1.0000   1.0000   1.0000  -0.0000  -0.0000
    -0.0000  -0.0000  -0.0000  -0.0000  -0.0000  -0.0000  -0.0000  -0.0000
    -0.0000  -0.0000  -0.0000  -0.0000  -0.0000  -0.0000  -0.0000  -0.0000
    -0.0000  -0.0000  -0.0000  -0.0000  -0.0000  -0.0000  -0.0000  -0.0000
    -0.0000  -0.0000  -0.0000  -0.0000  -0.0000  -0.0000  -0.0000  -0.0000
    -0.0000  -0.0000  -0.0000  -0.0000  -0.0000  -0.0000  -0.0000  -0.0000
    -0.0000  -0.0000  -0.0000  -0.0000

          k =-0.4434 0.6633-0.1666 (  9901 PWs)   bands (ev):

   -39.2441 -39.2441 -39.2438 -39.2438 -39.2411 -39.2411 -39.2405 -39.2405
   -39.0326 -39.0326 -38.9930 -38.9930 -38.3506 -38.3506 -38.3505 -38.3505
   -38.3481 -38.3481 -38.3476 -38.3476 -38.3466 -38.3466 -38.3461 -38.3461
   -38.1412 -38.1412 -38.1241 -38.1241 -38.0899 -38.0899 -15.7546 -15.7546
   -15.7533 -15.7533 -15.7441 -15.7441 -15.7429 -15.7429 -12.7802 -12.7802
   -12.7765 -12.7765 -12.7647 -12.7647 -12.7636 -12.7636 -12.7564 -12.7564
   -12.7546 -12.7546  -4.6853  -4.6853  -4.2181  -4.2181  -3.5783  -3.5783
    -1.1447  -1.1447  -0.7390  -0.7390   4.5284   4.5284   4.9959   4.9959
     5.3056   5.3056   5.8756   5.8756   6.2916   6.2916   6.5050   6.5050
     7.4877   7.4877   8.0150   8.0150   8.0764   8.0764   9.7826   9.7826
    10.0663  10.0663  11.0788  11.0788  11.9561  11.9561  12.3893  12.3893
    12.8948  12.8948  14.1047  14.1047  14.1476  14.1476  15.9893  15.9893
    16.5645  16.5645  17.1382  17.1382  17.4797  17.4797  17.8700  17.8700
    18.3783  18.3783  18.7345  18.7345  18.8130  18.8130  19.6971  19.6971
    20.2932  20.2932  20.5801  20.5801  21.0431  21.0431  21.8286  21.8286
    22.2177  22.2178  22.4272  22.4272

     occupation numbers 
     1.0000   1.0000   1.0000   1.0000   1.0000   1.0000   1.0000   1.0000
     1.0000   1.0000   1.0000   1.0000   1.0000   1.0000   1.0000   1.0000
     1.0000   1.0000   1.0000   1.0000   1.0000   1.0000   1.0000   1.0000
     1.0000   1.0000   1.0000   1.0000   1.0000   1.0000   1.0000   1.0000
     1.0000   1.0000   1.0000   1.0000   1.0000   1.0000   1.0000   1.0000
     1.0000   1.0000   1.0000   1.0000   1.0000   1.0000   1.0000   1.0000
     1.0000   1.0000   1.0000   1.0000   1.0000   1.0000   1.0000   1.0000
     1.0000   1.0000   1.0000   1.0000   1.0000   1.0000   1.0000   1.0000
     1.0000   1.0000   1.0000   1.0000   1.0000   1.0000   1.0000   1.0000
     1.0000   1.0000   1.0000   1.0000   1.0000   1.0000  -0.0000  -0.0000
    -0.0000  -0.0000  -0.0000  -0.0000  -0.0000  -0.0000  -0.0000  -0.0000
    -0.0000  -0.0000  -0.0000  -0.0000  -0.0000  -0.0000  -0.0000  -0.0000
    -0.0000  -0.0000  -0.0000  -0.0000  -0.0000  -0.0000  -0.0000  -0.0000
    -0.0000  -0.0000  -0.0000  -0.0000  -0.0000  -0.0000  -0.0000  -0.0000
    -0.0000  -0.0000  -0.0000  -0.0000  -0.0000  -0.0000  -0.0000  -0.0000
    -0.0000  -0.0000  -0.0000  -0.0000

          k =-0.8149 0.9057 0.0004 (  9870 PWs)   bands (ev):

   -39.2435 -39.2435 -39.2432 -39.2432 -39.2407 -39.2407 -39.2404 -39.2404
   -39.0323 -39.0323 -38.9924 -38.9924 -38.3499 -38.3499 -38.3497 -38.3497
   -38.3479 -38.3479 -38.3476 -38.3476 -38.3461 -38.3461 -38.3458 -38.3458
   -38.1408 -38.1408 -38.1240 -38.1240 -38.0891 -38.0891 -15.7536 -15.7536
   -15.7512 -15.7512 -15.7442 -15.7442 -15.7432 -15.7432 -12.7805 -12.7805
   -12.7769 -12.7769 -12.7658 -12.7658 -12.7638 -12.7638 -12.7535 -12.7535
   -12.7515 -12.7515  -3.9877  -3.9877  -3.7159  -3.7159  -3.4827  -3.4827
    -1.6720  -1.6720  -1.4095  -1.4095   3.7420   3.7420   4.5821   4.5821
     4.9718   4.9718   5.4945   5.4945   6.0512   6.0512   6.3038   6.3038
     6.8347   6.8347   7.4769   7.4769   7.7371   7.7371  10.3003  10.3003
    10.6284  10.6284  11.5865  11.5865  12.1670  12.1670  12.5182  12.5182
    13.0651  13.0651  13.7143  13.7143  15.2443  15.2443  15.6550  15.6550
    17.1565  17.1565  17.7904  17.7904  18.4634  18.4634  18.7684  18.7684
    19.2110  19.2110  19.4675  19.4675  20.1693  20.1693  20.4511  20.4511
    20.7203  20.7203  21.1766  21.1766  21.5249  21.5249  21.8720  21.8720
    22.1707  22.1707  22.5371  22.5371

     occupation numbers 
     1.0000   1.0000   1.0000   1.0000   1.0000   1.0000   1.0000   1.0000
     1.0000   1.0000   1.0000   1.0000   1.0000   1.0000   1.0000   1.0000
     1.0000   1.0000   1.0000   1.0000   1.0000   1.0000   1.0000   1.0000
     1.0000   1.0000   1.0000   1.0000   1.0000   1.0000   1.0000   1.0000
     1.0000   1.0000   1.0000   1.0000   1.0000   1.0000   1.0000   1.0000
     1.0000   1.0000   1.0000   1.0000   1.0000   1.0000   1.0000   1.0000
     1.0000   1.0000   1.0000   1.0000   1.0000   1.0000   1.0000   1.0000
     1.0000   1.0000   1.0000   1.0000   1.0000   1.0000   1.0000   1.0000
     1.0000   1.0000   1.0000   1.0000   1.0000   1.0000   1.0000   1.0000
     1.0000   1.0000   1.0000   1.0000   1.0000   1.0000  -0.0000  -0.0000
    -0.0000  -0.0000  -0.0000  -0.0000  -0.0000  -0.0000  -0.0000  -0.0000
    -0.0000  -0.0000  -0.0000  -0.0000  -0.0000  -0.0000  -0.0000  -0.0000
    -0.0000  -0.0000  -0.0000  -0.0000  -0.0000  -0.0000  -0.0000  -0.0000
    -0.0000  -0.0000  -0.0000  -0.0000  -0.0000  -0.0000  -0.0000  -0.0000
    -0.0000  -0.0000  -0.0000  -0.0000  -0.0000  -0.0000  -0.0000  -0.0000
    -0.0000  -0.0000  -0.0000  -0.0000

          k =-1.1864 0.6846 0.1677 (  9866 PWs)   bands (ev):

   -39.2436 -39.2436 -39.2433 -39.2433 -39.2406 -39.2406 -39.2401 -39.2401
   -39.0322 -39.0322 -38.9924 -38.9924 -38.3502 -38.3502 -38.3499 -38.3499
   -38.3476 -38.3476 -38.3472 -38.3472 -38.3461 -38.3461 -38.3456 -38.3456
   -38.1407 -38.1407 -38.1237 -38.1237 -38.0893 -38.0893 -15.7527 -15.7527
   -15.7527 -15.7527 -15.7434 -15.7434 -15.7433 -15.7433 -12.7826 -12.7826
   -12.7808 -12.7808 -12.7650 -12.7650 -12.7624 -12.7624 -12.7521 -12.7521
   -12.7490 -12.7490  -3.8355  -3.8355  -3.7188  -3.7188  -3.6426  -3.6426
    -1.7497  -1.7497  -1.3546  -1.3546   3.5470   3.5470   4.9452   4.9452
     5.1316   5.1316   5.6939   5.6939   5.7809   5.7809   6.2710   6.2710
     6.9547   6.9547   7.4838   7.4838   7.9570   7.9570   9.4851   9.4851
    10.8384  10.8384  11.1841  11.1841  11.6529  11.6529  12.5847  12.5847
    13.0340  13.0340  13.4463  13.4463  15.0199  15.0199  17.2084  17.2084
    18.0476  18.0476  18.1583  18.1583  18.9415  18.9415  19.1510  19.1510
    19.3418  19.3418  19.6786  19.6786  20.3358  20.3358  20.4029  20.4029
    20.6018  20.6018  21.3045  21.3045  21.3645  21.3645  21.5284  21.5284
    21.8465  21.8465  22.1764  22.1765

     occupation numbers 
     1.0000   1.0000   1.0000   1.0000   1.0000   1.0000   1.0000   1.0000
     1.0000   1.0000   1.0000   1.0000   1.0000   1.0000   1.0000   1.0000
     1.0000   1.0000   1.0000   1.0000   1.0000   1.0000   1.0000   1.0000
     1.0000   1.0000   1.0000   1.0000   1.0000   1.0000   1.0000   1.0000
     1.0000   1.0000   1.0000   1.0000   1.0000   1.0000   1.0000   1.0000
     1.0000   1.0000   1.0000   1.0000   1.0000   1.0000   1.0000   1.0000
     1.0000   1.0000   1.0000   1.0000   1.0000   1.0000   1.0000   1.0000
     1.0000   1.0000   1.0000   1.0000   1.0000   1.0000   1.0000   1.0000
     1.0000   1.0000   1.0000   1.0000   1.0000   1.0000   1.0000   1.0000
     1.0000   1.0000   1.0000   1.0000   1.0000   1.0000  -0.0000  -0.0000
    -0.0000  -0.0000  -0.0000  -0.0000  -0.0000  -0.0000  -0.0000  -0.0000
    -0.0000  -0.0000  -0.0000  -0.0000  -0.0000  -0.0000  -0.0000  -0.0000
    -0.0000  -0.0000  -0.0000  -0.0000  -0.0000  -0.0000  -0.0000  -0.0000
    -0.0000  -0.0000  -0.0000  -0.0000  -0.0000  -0.0000  -0.0000  -0.0000
    -0.0000  -0.0000  -0.0000  -0.0000  -0.0000  -0.0000  -0.0000  -0.0000
    -0.0000  -0.0000  -0.0000  -0.0000

          k =-1.5579 0.4635 0.3351 (  9895 PWs)   bands (ev):

   -39.2437 -39.2437 -39.2435 -39.2435 -39.2410 -39.2410 -39.2408 -39.2408
   -39.0327 -39.0327 -38.9927 -38.9927 -38.3502 -38.3502 -38.3500 -38.3500
   -38.3480 -38.3480 -38.3479 -38.3479 -38.3464 -38.3464 -38.3463 -38.3463
   -38.1412 -38.1412 -38.1242 -38.1242 -38.0894 -38.0894 -15.7536 -15.7536
   -15.7512 -15.7512 -15.7442 -15.7442 -15.7432 -15.7432 -12.7805 -12.7805
   -12.7769 -12.7769 -12.7658 -12.7658 -12.7638 -12.7638 -12.7535 -12.7535
   -12.7516 -12.7516  -3.9053  -3.9053  -3.8438  -3.8438  -3.4407  -3.4407
    -1.6405  -1.6405  -1.4379  -1.4379   3.9413   3.9413   4.5849   4.5849
     4.7756   4.7756   5.0980   5.0980   5.9898   5.9898   6.5014   6.5014
     7.2670   7.2670   7.4057   7.4057   7.9438   7.9438   9.9732   9.9732
    10.6749  10.6749  11.2410  11.2410  12.0144  12.0144  12.5684  12.5684
    13.4976  13.4976  13.8877  13.8877  14.8617  14.8617  15.7019  15.7019
    17.3440  17.3440  17.7716  17.7716  18.3595  18.3595  19.1625  19.1625
    19.3444  19.3444  19.6779  19.6779  20.0454  20.0454  20.5691  20.5691
    20.6743  20.6743  21.1248  21.1248  21.2469  21.2469  21.4277  21.4277
    22.1332  22.1332  22.6801  22.6803

     occupation numbers 
     1.0000   1.0000   1.0000   1.0000   1.0000   1.0000   1.0000   1.0000
     1.0000   1.0000   1.0000   1.0000   1.0000   1.0000   1.0000   1.0000
     1.0000   1.0000   1.0000   1.0000   1.0000   1.0000   1.0000   1.0000
     1.0000   1.0000   1.0000   1.0000   1.0000   1.0000   1.0000   1.0000
     1.0000   1.0000   1.0000   1.0000   1.0000   1.0000   1.0000   1.0000
     1.0000   1.0000   1.0000   1.0000   1.0000   1.0000   1.0000   1.0000
     1.0000   1.0000   1.0000   1.0000   1.0000   1.0000   1.0000   1.0000
     1.0000   1.0000   1.0000   1.0000   1.0000   1.0000   1.0000   1.0000
     1.0000   1.0000   1.0000   1.0000   1.0000   1.0000   1.0000   1.0000
     1.0000   1.0000   1.0000   1.0000   1.0000   1.0000  -0.0000  -0.0000
    -0.0000  -0.0000  -0.0000  -0.0000  -0.0000  -0.0000  -0.0000  -0.0000
    -0.0000  -0.0000  -0.0000  -0.0000  -0.0000  -0.0000  -0.0000  -0.0000
    -0.0000  -0.0000  -0.0000  -0.0000  -0.0000  -0.0000  -0.0000  -0.0000
    -0.0000  -0.0000  -0.0000  -0.0000  -0.0000  -0.0000  -0.0000  -0.0000
    -0.0000  -0.0000  -0.0000  -0.0000  -0.0000  -0.0000  -0.0000  -0.0000
    -0.0000  -0.0000  -0.0000  -0.0000

          k = 0.2995 1.5690-0.5017 (  9872 PWs)   bands (ev):

   -39.2434 -39.2434 -39.2432 -39.2432 -39.2407 -39.2407 -39.2405 -39.2405
   -39.0324 -39.0324 -38.9923 -38.9923 -38.3499 -38.3499 -38.3496 -38.3496
   -38.3477 -38.3477 -38.3476 -38.3476 -38.3462 -38.3462 -38.3459 -38.3459
   -38.1409 -38.1409 -38.1239 -38.1239 -38.0891 -38.0891 -15.7536 -15.7536
   -15.7512 -15.7512 -15.7442 -15.7442 -15.7432 -15.7432 -12.7805 -12.7805
   -12.7769 -12.7769 -12.7658 -12.7658 -12.7638 -12.7638 -12.7535 -12.7535
   -12.7516 -12.7516  -3.9215  -3.9215  -3.8195  -3.8195  -3.4504  -3.4504
    -1.6370  -1.6370  -1.4400  -1.4400   3.9806   3.9806   4.6141   4.6141
     4.7801   4.7801   5.1502   5.1502   5.7488   5.7488   6.2106   6.2106
     7.4693   7.4693   7.7493   7.7493   8.1229   8.1229   9.7329   9.7329
    10.4372  10.4372  11.0895  11.0895  12.1472  12.1472  12.7703  12.7703
    13.5047  13.5047  13.7073  13.7073  15.3010  15.3010  15.8753  15.8753
    17.0029  17.0029  17.5524  17.5524  17.8500  17.8500  19.1936  19.1936
    19.3080  19.3080  19.7522  19.7522  20.3142  20.3142  20.7054  20.7054
    20.8016  20.8016  21.1923  21.1923  21.2658  21.2658  21.8772  21.8772
    22.4386  22.4386  22.5666  22.5666

     occupation numbers 
     1.0000   1.0000   1.0000   1.0000   1.0000   1.0000   1.0000   1.0000
     1.0000   1.0000   1.0000   1.0000   1.0000   1.0000   1.0000   1.0000
     1.0000   1.0000   1.0000   1.0000   1.0000   1.0000   1.0000   1.0000
     1.0000   1.0000   1.0000   1.0000   1.0000   1.0000   1.0000   1.0000
     1.0000   1.0000   1.0000   1.0000   1.0000   1.0000   1.0000   1.0000
     1.0000   1.0000   1.0000   1.0000   1.0000   1.0000   1.0000   1.0000
     1.0000   1.0000   1.0000   1.0000   1.0000   1.0000   1.0000   1.0000
     1.0000   1.0000   1.0000   1.0000   1.0000   1.0000   1.0000   1.0000
     1.0000   1.0000   1.0000   1.0000   1.0000   1.0000   1.0000   1.0000
     1.0000   1.0000   1.0000   1.0000   1.0000   1.0000  -0.0000  -0.0000
    -0.0000  -0.0000  -0.0000  -0.0000  -0.0000  -0.0000  -0.0000  -0.0000
    -0.0000  -0.0000  -0.0000  -0.0000  -0.0000  -0.0000  -0.0000  -0.0000
    -0.0000  -0.0000  -0.0000  -0.0000  -0.0000  -0.0000  -0.0000  -0.0000
    -0.0000  -0.0000  -0.0000  -0.0000  -0.0000  -0.0000  -0.0000  -0.0000
    -0.0000  -0.0000  -0.0000  -0.0000  -0.0000  -0.0000  -0.0000  -0.0000
    -0.0000  -0.0000  -0.0000  -0.0000

          k =-0.0720 1.3479-0.3343 (  9889 PWs)   bands (ev):

   -39.2436 -39.2436 -39.2435 -39.2435 -39.2411 -39.2411 -39.2406 -39.2406
   -39.0326 -39.0326 -38.9926 -38.9926 -38.3502 -38.3502 -38.3499 -38.3499
   -38.3481 -38.3481 -38.3477 -38.3477 -38.3465 -38.3465 -38.3460 -38.3460
   -38.1411 -38.1411 -38.1242 -38.1242 -38.0893 -38.0893 -15.7527 -15.7527
   -15.7527 -15.7527 -15.7434 -15.7434 -15.7433 -15.7433 -12.7826 -12.7826
   -12.7808 -12.7808 -12.7650 -12.7650 -12.7625 -12.7625 -12.7521 -12.7521
   -12.7490 -12.7490  -3.8384  -3.8384  -3.7134  -3.7134  -3.6428  -3.6428
    -1.7831  -1.7831  -1.3211  -1.3211   3.6720   3.6720   4.7020   4.7020
     4.9683   4.9683   5.5987   5.5987   5.9418   5.9418   6.5884   6.5884
     7.1380   7.1380   7.4522   7.4522   7.6512   7.6512   9.7176   9.7176
    10.7373  10.7373  11.1553  11.1553  11.4787  11.4787  12.5180  12.5180
    12.9431  12.9431  13.7533  13.7533  15.2712  15.2712  16.6989  16.6989
    17.7800  17.7800  18.1704  18.1704  19.0857  19.0857  19.1694  19.1694
    19.3195  19.3195  19.7781  19.7781  20.4585  20.4585  20.6912  20.6912
    20.7242  20.7242  21.1741  21.1741  21.3458  21.3458  21.6925  21.6925
    21.8094  21.8094  22.4735  22.4736

     occupation numbers 
     1.0000   1.0000   1.0000   1.0000   1.0000   1.0000   1.0000   1.0000
     1.0000   1.0000   1.0000   1.0000   1.0000   1.0000   1.0000   1.0000
     1.0000   1.0000   1.0000   1.0000   1.0000   1.0000   1.0000   1.0000
     1.0000   1.0000   1.0000   1.0000   1.0000   1.0000   1.0000   1.0000
     1.0000   1.0000   1.0000   1.0000   1.0000   1.0000   1.0000   1.0000
     1.0000   1.0000   1.0000   1.0000   1.0000   1.0000   1.0000   1.0000
     1.0000   1.0000   1.0000   1.0000   1.0000   1.0000   1.0000   1.0000
     1.0000   1.0000   1.0000   1.0000   1.0000   1.0000   1.0000   1.0000
     1.0000   1.0000   1.0000   1.0000   1.0000   1.0000   1.0000   1.0000
     1.0000   1.0000   1.0000   1.0000   1.0000   1.0000  -0.0000  -0.0000
    -0.0000  -0.0000  -0.0000  -0.0000  -0.0000  -0.0000  -0.0000  -0.0000
    -0.0000  -0.0000  -0.0000  -0.0000  -0.0000  -0.0000  -0.0000  -0.0000
    -0.0000  -0.0000  -0.0000  -0.0000  -0.0000  -0.0000  -0.0000  -0.0000
    -0.0000  -0.0000  -0.0000  -0.0000  -0.0000  -0.0000  -0.0000  -0.0000
    -0.0000  -0.0000  -0.0000  -0.0000  -0.0000  -0.0000  -0.0000  -0.0000
    -0.0000  -0.0000  -0.0000  -0.0000

          k =-0.4435 1.1268-0.1670 (  9868 PWs)   bands (ev):

   -39.2435 -39.2435 -39.2431 -39.2431 -39.2407 -39.2407 -39.2404 -39.2404
   -39.0323 -39.0323 -38.9923 -38.9923 -38.3500 -38.3500 -38.3495 -38.3495
   -38.3478 -38.3478 -38.3475 -38.3475 -38.3461 -38.3461 -38.3459 -38.3459
   -38.1408 -38.1408 -38.1239 -38.1239 -38.0891 -38.0891 -15.7536 -15.7536
   -15.7512 -15.7512 -15.7442 -15.7442 -15.7432 -15.7432 -12.7805 -12.7805
   -12.7769 -12.7769 -12.7658 -12.7658 -12.7638 -12.7638 -12.7535 -12.7535
   -12.7516 -12.7516  -3.9913  -3.9913  -3.6992  -3.6992  -3.4975  -3.4975
    -1.6690  -1.6690  -1.4111  -1.4111   3.7604   3.7604   4.6696   4.6696
     5.0006   5.0006   5.4619   5.4619   5.7747   5.7747   6.1118   6.1118
     6.9226   6.9226   7.8148   7.8148   7.9786   7.9786   9.9917   9.9917
    10.4100  10.4100  11.5889  11.5889  12.1314  12.1314  12.7375  12.7375
    13.1866  13.1866  13.5393  13.5393  15.6739  15.6739  15.9353  15.9353
    16.6765  16.6765  17.4647  17.4647  17.8968  17.8968  19.0939  19.0939
    19.2942  19.2942  19.4821  19.4821  20.1234  20.1234  20.5333  20.5333
    20.8586  20.8586  21.1875  21.1875  21.8481  21.8481  22.1787  22.1787
    22.5396  22.5396  23.0020  23.0021

     occupation numbers 
     1.0000   1.0000   1.0000   1.0000   1.0000   1.0000   1.0000   1.0000
     1.0000   1.0000   1.0000   1.0000   1.0000   1.0000   1.0000   1.0000
     1.0000   1.0000   1.0000   1.0000   1.0000   1.0000   1.0000   1.0000
     1.0000   1.0000   1.0000   1.0000   1.0000   1.0000   1.0000   1.0000
     1.0000   1.0000   1.0000   1.0000   1.0000   1.0000   1.0000   1.0000
     1.0000   1.0000   1.0000   1.0000   1.0000   1.0000   1.0000   1.0000
     1.0000   1.0000   1.0000   1.0000   1.0000   1.0000   1.0000   1.0000
     1.0000   1.0000   1.0000   1.0000   1.0000   1.0000   1.0000   1.0000
     1.0000   1.0000   1.0000   1.0000   1.0000   1.0000   1.0000   1.0000
     1.0000   1.0000   1.0000   1.0000   1.0000   1.0000  -0.0000  -0.0000
    -0.0000  -0.0000  -0.0000  -0.0000  -0.0000  -0.0000  -0.0000  -0.0000
    -0.0000  -0.0000  -0.0000  -0.0000  -0.0000  -0.0000  -0.0000  -0.0000
    -0.0000  -0.0000  -0.0000  -0.0000  -0.0000  -0.0000  -0.0000  -0.0000
    -0.0000  -0.0000  -0.0000  -0.0000  -0.0000  -0.0000  -0.0000  -0.0000
    -0.0000  -0.0000  -0.0000  -0.0000  -0.0000  -0.0000  -0.0000  -0.0000
    -0.0000  -0.0000  -0.0000  -0.0000

          k =-0.8150 1.3693 0.0000 (  9886 PWs)   bands (ev):

   -39.2437 -39.2437 -39.2436 -39.2436 -39.2407 -39.2407 -39.2405 -39.2405
   -39.0324 -39.0324 -38.9927 -38.9927 -38.3502 -38.3502 -38.3501 -38.3501
   -38.3478 -38.3478 -38.3477 -38.3477 -38.3462 -38.3462 -38.3459 -38.3459
   -38.1409 -38.1409 -38.1240 -38.1240 -38.0895 -38.0895 -15.7534 -15.7533
   -15.7497 -15.7497 -15.7447 -15.7447 -15.7433 -15.7433 -12.7764 -12.7764
   -12.7743 -12.7743 -12.7691 -12.7691 -12.7650 -12.7650 -12.7531 -12.7531
   -12.7530 -12.7530  -3.5746  -3.5745  -3.5450  -3.5450  -3.4602  -3.4602
    -1.8291  -1.8291  -1.8086  -1.8086   3.8643   3.8643   4.3666   4.3666
     4.6159   4.6159   4.9448   4.9448   5.7266   5.7266   6.0966   6.0966
     7.0107   7.0107   7.5515   7.5515   8.0354   8.0354  10.0378  10.0378
    10.8881  10.8881  11.4954  11.4954  12.5644  12.5644  12.8508  12.8508
    13.3055  13.3055  15.0403  15.0403  15.7294  15.7294  15.8448  15.8448
    16.2340  16.2340  16.3256  16.3256  18.0558  18.0558  18.1167  18.1167
    19.5275  19.5275  19.6011  19.6011  20.0575  20.0575  20.4161  20.4161
    20.8476  20.8476  21.4294  21.4294  22.1724  22.1724  22.5992  22.5992
    22.9216  22.9216  23.5008  23.5011

     occupation numbers 
     1.0000   1.0000   1.0000   1.0000   1.0000   1.0000   1.0000   1.0000
     1.0000   1.0000   1.0000   1.0000   1.0000   1.0000   1.0000   1.0000
     1.0000   1.0000   1.0000   1.0000   1.0000   1.0000   1.0000   1.0000
     1.0000   1.0000   1.0000   1.0000   1.0000   1.0000   1.0000   1.0000
     1.0000   1.0000   1.0000   1.0000   1.0000   1.0000   1.0000   1.0000
     1.0000   1.0000   1.0000   1.0000   1.0000   1.0000   1.0000   1.0000
     1.0000   1.0000   1.0000   1.0000   1.0000   1.0000   1.0000   1.0000
     1.0000   1.0000   1.0000   1.0000   1.0000   1.0000   1.0000   1.0000
     1.0000   1.0000   1.0000   1.0000   1.0000   1.0000   1.0000   1.0000
     1.0000   1.0000   1.0000   1.0000   1.0000   1.0000  -0.0000  -0.0000
    -0.0000  -0.0000  -0.0000  -0.0000  -0.0000  -0.0000  -0.0000  -0.0000
    -0.0000  -0.0000  -0.0000  -0.0000  -0.0000  -0.0000  -0.0000  -0.0000
    -0.0000  -0.0000  -0.0000  -0.0000  -0.0000  -0.0000  -0.0000  -0.0000
    -0.0000  -0.0000  -0.0000  -0.0000  -0.0000  -0.0000  -0.0000  -0.0000
    -0.0000  -0.0000  -0.0000  -0.0000  -0.0000  -0.0000  -0.0000  -0.0000
    -0.0000  -0.0000  -0.0000  -0.0000

          k =-1.1865 1.1482 0.1673 (  9895 PWs)   bands (ev):

   -39.2437 -39.2437 -39.2435 -39.2435 -39.2410 -39.2410 -39.2408 -39.2408
   -39.0327 -39.0327 -38.9927 -38.9927 -38.3502 -38.3502 -38.3500 -38.3500
   -38.3480 -38.3480 -38.3479 -38.3479 -38.3464 -38.3464 -38.3463 -38.3463
   -38.1412 -38.1412 -38.1242 -38.1242 -38.0894 -38.0894 -15.7536 -15.7536
   -15.7512 -15.7512 -15.7442 -15.7442 -15.7432 -15.7432 -12.7805 -12.7805
   -12.7769 -12.7769 -12.7658 -12.7658 -12.7638 -12.7638 -12.7535 -12.7535
   -12.7516 -12.7516  -3.9053  -3.9053  -3.8438  -3.8438  -3.4407  -3.4407
    -1.6405  -1.6405  -1.4379  -1.4379   3.9413   3.9413   4.5849   4.5849
     4.7756   4.7756   5.0980   5.0980   5.9898   5.9898   6.5014   6.5014
     7.2670   7.2670   7.4057   7.4057   7.9438   7.9438   9.9732   9.9732
    10.6749  10.6749  11.2410  11.2410  12.0144  12.0144  12.5684  12.5684
    13.4976  13.4976  13.8877  13.8877  14.8617  14.8617  15.7019  15.7019
    17.3440  17.3440  17.7716  17.7716  18.3595  18.3595  19.1625  19.1625
    19.3444  19.3444  19.6779  19.6779  20.0454  20.0454  20.5691  20.5691
    20.6743  20.6743  21.1248  21.1248  21.2469  21.2469  21.4277  21.4277
    22.1332  22.1332  22.6801  22.6802

     occupation numbers 
     1.0000   1.0000   1.0000   1.0000   1.0000   1.0000   1.0000   1.0000
     1.0000   1.0000   1.0000   1.0000   1.0000   1.0000   1.0000   1.0000
     1.0000   1.0000   1.0000   1.0000   1.0000   1.0000   1.0000   1.0000
     1.0000   1.0000   1.0000   1.0000   1.0000   1.0000   1.0000   1.0000
     1.0000   1.0000   1.0000   1.0000   1.0000   1.0000   1.0000   1.0000
     1.0000   1.0000   1.0000   1.0000   1.0000   1.0000   1.0000   1.0000
     1.0000   1.0000   1.0000   1.0000   1.0000   1.0000   1.0000   1.0000
     1.0000   1.0000   1.0000   1.0000   1.0000   1.0000   1.0000   1.0000
     1.0000   1.0000   1.0000   1.0000   1.0000   1.0000   1.0000   1.0000
     1.0000   1.0000   1.0000   1.0000   1.0000   1.0000  -0.0000  -0.0000
    -0.0000  -0.0000  -0.0000  -0.0000  -0.0000  -0.0000  -0.0000  -0.0000
    -0.0000  -0.0000  -0.0000  -0.0000  -0.0000  -0.0000  -0.0000  -0.0000
    -0.0000  -0.0000  -0.0000  -0.0000  -0.0000  -0.0000  -0.0000  -0.0000
    -0.0000  -0.0000  -0.0000  -0.0000  -0.0000  -0.0000  -0.0000  -0.0000
    -0.0000  -0.0000  -0.0000  -0.0000  -0.0000  -0.0000  -0.0000  -0.0000
    -0.0000  -0.0000  -0.0000  -0.0000

          k =-1.5579 0.9271 0.3347 (  9893 PWs)   bands (ev):

   -39.2441 -39.2441 -39.2434 -39.2434 -39.2411 -39.2411 -39.2406 -39.2406
   -39.0326 -39.0326 -38.9928 -38.9928 -38.3506 -38.3506 -38.3499 -38.3499
   -38.3482 -38.3482 -38.3476 -38.3476 -38.3465 -38.3465 -38.3461 -38.3461
   -38.1411 -38.1411 -38.1242 -38.1242 -38.0896 -38.0896 -15.7537 -15.7537
   -15.7535 -15.7535 -15.7440 -15.7439 -15.7430 -15.7429 -12.7810 -12.7809
   -12.7786 -12.7786 -12.7649 -12.7649 -12.7631 -12.7631 -12.7548 -12.7548
   -12.7522 -12.7522  -4.3857  -4.3857  -4.2494  -4.2494  -3.4509  -3.4509
    -1.3412  -1.3412  -0.9185  -0.9185   4.1573   4.1573   4.7618   4.7618
     5.4297   5.4297   5.9090   5.9090   6.0780   6.0780   6.5294   6.5294
     7.4218   7.4218   7.6461   7.6461   8.1538   8.1538   9.3735   9.3735
    10.5744  10.5744  11.0387  11.0387  11.4961  11.4961  12.5721  12.5721
    13.2878  13.2878  13.4243  13.4243  14.9563  14.9563  16.1465  16.1465
    16.8484  16.8484  17.4361  17.4361  17.7814  17.7814  17.8222  17.8222
    18.7136  18.7136  19.0474  19.0474  19.9287  19.9287  20.4418  20.4418
    20.6856  20.6856  21.1201  21.1201  21.3637  21.3637  21.5062  21.5062
    21.9929  21.9929  22.7633  22.7634

     occupation numbers 
     1.0000   1.0000   1.0000   1.0000   1.0000   1.0000   1.0000   1.0000
     1.0000   1.0000   1.0000   1.0000   1.0000   1.0000   1.0000   1.0000
     1.0000   1.0000   1.0000   1.0000   1.0000   1.0000   1.0000   1.0000
     1.0000   1.0000   1.0000   1.0000   1.0000   1.0000   1.0000   1.0000
     1.0000   1.0000   1.0000   1.0000   1.0000   1.0000   1.0000   1.0000
     1.0000   1.0000   1.0000   1.0000   1.0000   1.0000   1.0000   1.0000
     1.0000   1.0000   1.0000   1.0000   1.0000   1.0000   1.0000   1.0000
     1.0000   1.0000   1.0000   1.0000   1.0000   1.0000   1.0000   1.0000
     1.0000   1.0000   1.0000   1.0000   1.0000   1.0000   1.0000   1.0000
     1.0000   1.0000   1.0000   1.0000   1.0000   1.0000  -0.0000  -0.0000
    -0.0000  -0.0000  -0.0000  -0.0000  -0.0000  -0.0000  -0.0000  -0.0000
    -0.0000  -0.0000  -0.0000  -0.0000  -0.0000  -0.0000  -0.0000  -0.0000
    -0.0000  -0.0000  -0.0000  -0.0000  -0.0000  -0.0000  -0.0000  -0.0000
    -0.0000  -0.0000  -0.0000  -0.0000  -0.0000  -0.0000  -0.0000  -0.0000
    -0.0000  -0.0000  -0.0000  -0.0000  -0.0000  -0.0000  -0.0000  -0.0000
    -0.0000  -0.0000  -0.0000  -0.0000

          k = 0.2994 2.0326-0.5020 (  9918 PWs)   bands (ev):

   -39.2443 -39.2443 -39.2441 -39.2440 -39.2411 -39.2411 -39.2409 -39.2409
   -39.0328 -39.0328 -38.9932 -38.9932 -38.3509 -38.3509 -38.3506 -38.3506
   -38.3482 -38.3482 -38.3479 -38.3479 -38.3466 -38.3466 -38.3465 -38.3465
   -38.1414 -38.1414 -38.1243 -38.1243 -38.0901 -38.0901 -15.7546 -15.7546
   -15.7533 -15.7533 -15.7441 -15.7441 -15.7429 -15.7429 -12.7802 -12.7802
   -12.7765 -12.7765 -12.7647 -12.7647 -12.7636 -12.7636 -12.7563 -12.7563
   -12.7546 -12.7546  -4.5761  -4.5761  -4.4143  -4.4143  -3.4647  -3.4647
    -1.2205  -1.2205  -0.6892  -0.6892   4.4442   4.4442   4.8829   4.8829
     5.4044   5.4044   6.0378   6.0378   6.3057   6.3057   7.0207   7.0207
     7.1918   7.1918   7.6336   7.6336   7.7979   7.7979  10.1596  10.1596
    10.2673  10.2673  11.4229  11.4229  11.6697  11.6697  12.1958  12.1958
    12.6612  12.6612  14.3952  14.3952  14.5332  14.5332  14.9985  14.9985
    15.7228  15.7228  17.5279  17.5279  17.7273  17.7273  18.4626  18.4626
    18.8148  18.8148  19.1952  19.1952  19.5646  19.5646  19.9624  19.9624
    20.1269  20.1269  20.2318  20.2318  20.6282  20.6282  21.2188  21.2188
    21.8260  21.8260  22.1016  22.1016

     occupation numbers 
     1.0000   1.0000   1.0000   1.0000   1.0000   1.0000   1.0000   1.0000
     1.0000   1.0000   1.0000   1.0000   1.0000   1.0000   1.0000   1.0000
     1.0000   1.0000   1.0000   1.0000   1.0000   1.0000   1.0000   1.0000
     1.0000   1.0000   1.0000   1.0000   1.0000   1.0000   1.0000   1.0000
     1.0000   1.0000   1.0000   1.0000   1.0000   1.0000   1.0000   1.0000
     1.0000   1.0000   1.0000   1.0000   1.0000   1.0000   1.0000   1.0000
     1.0000   1.0000   1.0000   1.0000   1.0000   1.0000   1.0000   1.0000
     1.0000   1.0000   1.0000   1.0000   1.0000   1.0000   1.0000   1.0000
     1.0000   1.0000   1.0000   1.0000   1.0000   1.0000   1.0000   1.0000
     1.0000   1.0000   1.0000   1.0000   1.0000   1.0000  -0.0000  -0.0000
    -0.0000  -0.0000  -0.0000  -0.0000  -0.0000  -0.0000  -0.0000  -0.0000
    -0.0000  -0.0000  -0.0000  -0.0000  -0.0000  -0.0000  -0.0000  -0.0000
    -0.0000  -0.0000  -0.0000  -0.0000  -0.0000  -0.0000  -0.0000  -0.0000
    -0.0000  -0.0000  -0.0000  -0.0000  -0.0000  -0.0000  -0.0000  -0.0000
    -0.0000  -0.0000  -0.0000  -0.0000  -0.0000  -0.0000  -0.0000  -0.0000
    -0.0000  -0.0000  -0.0000  -0.0000

          k =-0.0721 1.8115-0.3347 (  9893 PWs)   bands (ev):

   -39.2441 -39.2441 -39.2434 -39.2434 -39.2411 -39.2411 -39.2406 -39.2406
   -39.0326 -39.0326 -38.9928 -38.9928 -38.3506 -38.3506 -38.3499 -38.3499
   -38.3482 -38.3482 -38.3476 -38.3476 -38.3465 -38.3465 -38.3461 -38.3461
   -38.1411 -38.1411 -38.1242 -38.1242 -38.0896 -38.0896 -15.7537 -15.7537
   -15.7535 -15.7535 -15.7440 -15.7439 -15.7430 -15.7429 -12.7810 -12.7809
   -12.7786 -12.7786 -12.7649 -12.7649 -12.7631 -12.7631 -12.7548 -12.7548
   -12.7522 -12.7522  -4.3857  -4.3857  -4.2494  -4.2494  -3.4509  -3.4509
    -1.3412  -1.3412  -0.9185  -0.9185   4.1573   4.1573   4.7618   4.7618
     5.4297   5.4297   5.9090   5.9090   6.0780   6.0780   6.5294   6.5294
     7.4218   7.4218   7.6461   7.6461   8.1538   8.1538   9.3735   9.3735
    10.5744  10.5744  11.0387  11.0387  11.4961  11.4961  12.5721  12.5721
    13.2878  13.2878  13.4243  13.4243  14.9563  14.9563  16.1465  16.1465
    16.8484  16.8484  17.4361  17.4361  17.7814  17.7814  17.8222  17.8222
    18.7136  18.7136  19.0474  19.0474  19.9287  19.9287  20.4418  20.4418
    20.6856  20.6856  21.1200  21.1200  21.3637  21.3637  21.5062  21.5062
    21.9929  21.9929  22.7633  22.7634

     occupation numbers 
     1.0000   1.0000   1.0000   1.0000   1.0000   1.0000   1.0000   1.0000
     1.0000   1.0000   1.0000   1.0000   1.0000   1.0000   1.0000   1.0000
     1.0000   1.0000   1.0000   1.0000   1.0000   1.0000   1.0000   1.0000
     1.0000   1.0000   1.0000   1.0000   1.0000   1.0000   1.0000   1.0000
     1.0000   1.0000   1.0000   1.0000   1.0000   1.0000   1.0000   1.0000
     1.0000   1.0000   1.0000   1.0000   1.0000   1.0000   1.0000   1.0000
     1.0000   1.0000   1.0000   1.0000   1.0000   1.0000   1.0000   1.0000
     1.0000   1.0000   1.0000   1.0000   1.0000   1.0000   1.0000   1.0000
     1.0000   1.0000   1.0000   1.0000   1.0000   1.0000   1.0000   1.0000
     1.0000   1.0000   1.0000   1.0000   1.0000   1.0000  -0.0000  -0.0000
    -0.0000  -0.0000  -0.0000  -0.0000  -0.0000  -0.0000  -0.0000  -0.0000
    -0.0000  -0.0000  -0.0000  -0.0000  -0.0000  -0.0000  -0.0000  -0.0000
    -0.0000  -0.0000  -0.0000  -0.0000  -0.0000  -0.0000  -0.0000  -0.0000
    -0.0000  -0.0000  -0.0000  -0.0000  -0.0000  -0.0000  -0.0000  -0.0000
    -0.0000  -0.0000  -0.0000  -0.0000  -0.0000  -0.0000  -0.0000  -0.0000
    -0.0000  -0.0000  -0.0000  -0.0000

          k =-0.4435 1.5904-0.1673 (  9895 PWs)   bands (ev):

   -39.2437 -39.2437 -39.2435 -39.2435 -39.2410 -39.2410 -39.2408 -39.2408
   -39.0327 -39.0327 -38.9927 -38.9927 -38.3502 -38.3502 -38.3500 -38.3500
   -38.3480 -38.3480 -38.3479 -38.3479 -38.3464 -38.3464 -38.3463 -38.3463
   -38.1412 -38.1412 -38.1242 -38.1242 -38.0894 -38.0894 -15.7536 -15.7536
   -15.7512 -15.7512 -15.7442 -15.7442 -15.7432 -15.7432 -12.7805 -12.7805
   -12.7769 -12.7769 -12.7658 -12.7658 -12.7638 -12.7638 -12.7535 -12.7535
   -12.7516 -12.7516  -3.9053  -3.9053  -3.8438  -3.8438  -3.4407  -3.4407
    -1.6405  -1.6405  -1.4379  -1.4379   3.9413   3.9413   4.5849   4.5849
     4.7756   4.7756   5.0980   5.0980   5.9898   5.9898   6.5014   6.5014
     7.2670   7.2670   7.4057   7.4057   7.9438   7.9438   9.9732   9.9732
    10.6749  10.6749  11.2410  11.2410  12.0144  12.0144  12.5684  12.5684
    13.4976  13.4976  13.8877  13.8877  14.8617  14.8617  15.7019  15.7019
    17.3440  17.3440  17.7716  17.7716  18.3595  18.3595  19.1625  19.1625
    19.3444  19.3444  19.6779  19.6779  20.0454  20.0454  20.5691  20.5691
    20.6743  20.6743  21.1248  21.1248  21.2469  21.2469  21.4277  21.4277
    22.1332  22.1332  22.6800  22.6801

     occupation numbers 
     1.0000   1.0000   1.0000   1.0000   1.0000   1.0000   1.0000   1.0000
     1.0000   1.0000   1.0000   1.0000   1.0000   1.0000   1.0000   1.0000
     1.0000   1.0000   1.0000   1.0000   1.0000   1.0000   1.0000   1.0000
     1.0000   1.0000   1.0000   1.0000   1.0000   1.0000   1.0000   1.0000
     1.0000   1.0000   1.0000   1.0000   1.0000   1.0000   1.0000   1.0000
     1.0000   1.0000   1.0000   1.0000   1.0000   1.0000   1.0000   1.0000
     1.0000   1.0000   1.0000   1.0000   1.0000   1.0000   1.0000   1.0000
     1.0000   1.0000   1.0000   1.0000   1.0000   1.0000   1.0000   1.0000
     1.0000   1.0000   1.0000   1.0000   1.0000   1.0000   1.0000   1.0000
     1.0000   1.0000   1.0000   1.0000   1.0000   1.0000  -0.0000  -0.0000
    -0.0000  -0.0000  -0.0000  -0.0000  -0.0000  -0.0000  -0.0000  -0.0000
    -0.0000  -0.0000  -0.0000  -0.0000  -0.0000  -0.0000  -0.0000  -0.0000
    -0.0000  -0.0000  -0.0000  -0.0000  -0.0000  -0.0000  -0.0000  -0.0000
    -0.0000  -0.0000  -0.0000  -0.0000  -0.0000  -0.0000  -0.0000  -0.0000
    -0.0000  -0.0000  -0.0000  -0.0000  -0.0000  -0.0000  -0.0000  -0.0000
    -0.0000  -0.0000  -0.0000  -0.0000

          k =-0.8146-0.9484 0.0019 (  9871 PWs)   bands (ev):

   -39.2434 -39.2434 -39.2431 -39.2431 -39.2408 -39.2408 -39.2405 -39.2405
   -39.0324 -39.0324 -38.9923 -38.9923 -38.3499 -38.3499 -38.3495 -38.3495
   -38.3477 -38.3477 -38.3475 -38.3475 -38.3463 -38.3463 -38.3460 -38.3460
   -38.1410 -38.1410 -38.1239 -38.1239 -38.0890 -38.0890 -15.7536 -15.7536
   -15.7512 -15.7512 -15.7442 -15.7442 -15.7432 -15.7432 -12.7805 -12.7805
   -12.7769 -12.7769 -12.7658 -12.7658 -12.7638 -12.7638 -12.7535 -12.7535
   -12.7516 -12.7516  -3.9676  -3.9676  -3.7463  -3.7463  -3.4767  -3.4767
    -1.6524  -1.6524  -1.4255  -1.4255   3.8654   3.8654   4.7018   4.7018
     4.9104   4.9104   5.2884   5.2884   5.6519   5.6519   6.0307   6.0307
     7.2918   7.2918   7.9445   7.9445   8.1336   8.1336   9.7560   9.7560
    10.2975  10.2975  11.2441  11.2441  12.1937  12.1937  12.8702  12.8702
    13.3982  13.3982  13.5358  13.5358  15.6363  15.6363  16.1463  16.1463
    16.7490  16.7490  17.1030  17.1030  17.7398  17.7398  19.1734  19.1734
    19.2513  19.2513  19.6895  19.6895  20.4362  20.4362  20.5643  20.5643
    20.9386  20.9386  21.1722  21.1722  21.5840  21.5840  22.2175  22.2175
    22.4226  22.4226  22.9987  22.9987

     occupation numbers 
     1.0000   1.0000   1.0000   1.0000   1.0000   1.0000   1.0000   1.0000
     1.0000   1.0000   1.0000   1.0000   1.0000   1.0000   1.0000   1.0000
     1.0000   1.0000   1.0000   1.0000   1.0000   1.0000   1.0000   1.0000
     1.0000   1.0000   1.0000   1.0000   1.0000   1.0000   1.0000   1.0000
     1.0000   1.0000   1.0000   1.0000   1.0000   1.0000   1.0000   1.0000
     1.0000   1.0000   1.0000   1.0000   1.0000   1.0000   1.0000   1.0000
     1.0000   1.0000   1.0000   1.0000   1.0000   1.0000   1.0000   1.0000
     1.0000   1.0000   1.0000   1.0000   1.0000   1.0000   1.0000   1.0000
     1.0000   1.0000   1.0000   1.0000   1.0000   1.0000   1.0000   1.0000
     1.0000   1.0000   1.0000   1.0000   1.0000   1.0000  -0.0000  -0.0000
    -0.0000  -0.0000  -0.0000  -0.0000  -0.0000  -0.0000  -0.0000  -0.0000
    -0.0000  -0.0000  -0.0000  -0.0000  -0.0000  -0.0000  -0.0000  -0.0000
    -0.0000  -0.0000  -0.0000  -0.0000  -0.0000  -0.0000  -0.0000  -0.0000
    -0.0000  -0.0000  -0.0000  -0.0000  -0.0000  -0.0000  -0.0000  -0.0000
    -0.0000  -0.0000  -0.0000  -0.0000  -0.0000  -0.0000  -0.0000  -0.0000
    -0.0000  -0.0000  -0.0000  -0.0000

          k =-1.1861-1.1695 0.1692 (  9872 PWs)   bands (ev):

   -39.2434 -39.2434 -39.2432 -39.2432 -39.2407 -39.2407 -39.2405 -39.2405
   -39.0324 -39.0324 -38.9923 -38.9923 -38.3499 -38.3499 -38.3496 -38.3496
   -38.3477 -38.3477 -38.3476 -38.3476 -38.3462 -38.3462 -38.3459 -38.3459
   -38.1409 -38.1409 -38.1239 -38.1239 -38.0891 -38.0891 -15.7536 -15.7536
   -15.7512 -15.7512 -15.7442 -15.7442 -15.7432 -15.7432 -12.7805 -12.7805
   -12.7769 -12.7769 -12.7658 -12.7658 -12.7638 -12.7638 -12.7535 -12.7535
   -12.7516 -12.7516  -3.9215  -3.9215  -3.8195  -3.8195  -3.4504  -3.4504
    -1.6370  -1.6370  -1.4400  -1.4400   3.9806   3.9806   4.6141   4.6141
     4.7801   4.7801   5.1502   5.1502   5.7488   5.7488   6.2106   6.2106
     7.4693   7.4693   7.7493   7.7493   8.1229   8.1229   9.7329   9.7329
    10.4372  10.4372  11.0895  11.0895  12.1472  12.1472  12.7703  12.7703
    13.5047  13.5047  13.7073  13.7073  15.3010  15.3010  15.8753  15.8753
    17.0029  17.0029  17.5524  17.5524  17.8500  17.8500  19.1936  19.1936
    19.3080  19.3080  19.7522  19.7522  20.3142  20.3142  20.7054  20.7054
    20.8016  20.8016  21.1923  21.1923  21.2658  21.2658  21.8772  21.8772
    22.4387  22.4387  22.5666  22.5666

     occupation numbers 
     1.0000   1.0000   1.0000   1.0000   1.0000   1.0000   1.0000   1.0000
     1.0000   1.0000   1.0000   1.0000   1.0000   1.0000   1.0000   1.0000
     1.0000   1.0000   1.0000   1.0000   1.0000   1.0000   1.0000   1.0000
     1.0000   1.0000   1.0000   1.0000   1.0000   1.0000   1.0000   1.0000
     1.0000   1.0000   1.0000   1.0000   1.0000   1.0000   1.0000   1.0000
     1.0000   1.0000   1.0000   1.0000   1.0000   1.0000   1.0000   1.0000
     1.0000   1.0000   1.0000   1.0000   1.0000   1.0000   1.0000   1.0000
     1.0000   1.0000   1.0000   1.0000   1.0000   1.0000   1.0000   1.0000
     1.0000   1.0000   1.0000   1.0000   1.0000   1.0000   1.0000   1.0000
     1.0000   1.0000   1.0000   1.0000   1.0000   1.0000  -0.0000  -0.0000
    -0.0000  -0.0000  -0.0000  -0.0000  -0.0000  -0.0000  -0.0000  -0.0000
    -0.0000  -0.0000  -0.0000  -0.0000  -0.0000  -0.0000  -0.0000  -0.0000
    -0.0000  -0.0000  -0.0000  -0.0000  -0.0000  -0.0000  -0.0000  -0.0000
    -0.0000  -0.0000  -0.0000  -0.0000  -0.0000  -0.0000  -0.0000  -0.0000
    -0.0000  -0.0000  -0.0000  -0.0000  -0.0000  -0.0000  -0.0000  -0.0000
    -0.0000  -0.0000  -0.0000  -0.0000

          k =-1.5575-1.3906 0.3366 (  9918 PWs)   bands (ev):

   -39.2443 -39.2443 -39.2441 -39.2440 -39.2411 -39.2411 -39.2409 -39.2409
   -39.0328 -39.0328 -38.9932 -38.9932 -38.3509 -38.3509 -38.3506 -38.3506
   -38.3482 -38.3482 -38.3479 -38.3479 -38.3466 -38.3466 -38.3465 -38.3465
   -38.1414 -38.1414 -38.1243 -38.1243 -38.0901 -38.0901 -15.7546 -15.7546
   -15.7533 -15.7533 -15.7441 -15.7441 -15.7429 -15.7429 -12.7802 -12.7802
   -12.7765 -12.7765 -12.7647 -12.7647 -12.7636 -12.7636 -12.7563 -12.7563
   -12.7546 -12.7546  -4.5761  -4.5761  -4.4143  -4.4143  -3.4647  -3.4647
    -1.2205  -1.2205  -0.6892  -0.6892   4.4442   4.4442   4.8829   4.8829
     5.4044   5.4044   6.0378   6.0378   6.3057   6.3057   7.0207   7.0207
     7.1918   7.1918   7.6336   7.6336   7.7979   7.7979  10.1596  10.1596
    10.2673  10.2673  11.4229  11.4229  11.6697  11.6697  12.1958  12.1958
    12.6612  12.6612  14.3952  14.3952  14.5332  14.5332  14.9985  14.9985
    15.7228  15.7228  17.5279  17.5279  17.7273  17.7273  18.4626  18.4626
    18.8148  18.8148  19.1952  19.1952  19.5646  19.5646  19.9624  19.9624
    20.1269  20.1269  20.2318  20.2318  20.6282  20.6282  21.2188  21.2188
    21.8260  21.8260  22.1016  22.1016

     occupation numbers 
     1.0000   1.0000   1.0000   1.0000   1.0000   1.0000   1.0000   1.0000
     1.0000   1.0000   1.0000   1.0000   1.0000   1.0000   1.0000   1.0000
     1.0000   1.0000   1.0000   1.0000   1.0000   1.0000   1.0000   1.0000
     1.0000   1.0000   1.0000   1.0000   1.0000   1.0000   1.0000   1.0000
     1.0000   1.0000   1.0000   1.0000   1.0000   1.0000   1.0000   1.0000
     1.0000   1.0000   1.0000   1.0000   1.0000   1.0000   1.0000   1.0000
     1.0000   1.0000   1.0000   1.0000   1.0000   1.0000   1.0000   1.0000
     1.0000   1.0000   1.0000   1.0000   1.0000   1.0000   1.0000   1.0000
     1.0000   1.0000   1.0000   1.0000   1.0000   1.0000   1.0000   1.0000
     1.0000   1.0000   1.0000   1.0000   1.0000   1.0000  -0.0000  -0.0000
    -0.0000  -0.0000  -0.0000  -0.0000  -0.0000  -0.0000  -0.0000  -0.0000
    -0.0000  -0.0000  -0.0000  -0.0000  -0.0000  -0.0000  -0.0000  -0.0000
    -0.0000  -0.0000  -0.0000  -0.0000  -0.0000  -0.0000  -0.0000  -0.0000
    -0.0000  -0.0000  -0.0000  -0.0000  -0.0000  -0.0000  -0.0000  -0.0000
    -0.0000  -0.0000  -0.0000  -0.0000  -0.0000  -0.0000  -0.0000  -0.0000
    -0.0000  -0.0000  -0.0000  -0.0000

          k = 0.2998-0.2852-0.5002 (  9923 PWs)   bands (ev):

   -39.2445 -39.2445 -39.2440 -39.2440 -39.2413 -39.2413 -39.2406 -39.2406
   -39.0327 -39.0327 -38.9933 -38.9933 -38.3511 -38.3511 -38.3508 -38.3508
   -38.3482 -38.3482 -38.3475 -38.3475 -38.3470 -38.3470 -38.3463 -38.3463
   -38.1414 -38.1414 -38.1242 -38.1242 -38.0903 -38.0903 -15.7557 -15.7557
   -15.7555 -15.7555 -15.7441 -15.7441 -15.7426 -15.7426 -12.7804 -12.7804
   -12.7785 -12.7785 -12.7628 -12.7628 -12.7625 -12.7624 -12.7587 -12.7587
   -12.7569 -12.7569  -5.0110  -5.0110  -4.7867  -4.7867  -3.6029  -3.6029
    -1.0539  -1.0539  -0.0467  -0.0467   5.1665   5.1665   5.8513   5.8513
     6.0908   6.0909   6.5142   6.5142   6.7114   6.7114   6.9426   6.9426
     7.6322   7.6322   7.7434   7.7434   8.4134   8.4134   9.1146   9.1146
    10.1088  10.1088  10.6890  10.6890  11.3470  11.3470  12.0049  12.0049
    12.3050  12.3050  14.3769  14.3769  15.0388  15.0388  15.5781  15.5781
    16.0804  16.0804  16.3208  16.3208  16.5668  16.5668  17.4151  17.4151
    17.6685  17.6685  18.0135  18.0135  18.2746  18.2746  19.0483  19.0483
    19.2732  19.2732  19.6565  19.6565  20.0366  20.0366  20.9722  20.9722
    21.1639  21.1639  21.6897  21.6897

     occupation numbers 
     1.0000   1.0000   1.0000   1.0000   1.0000   1.0000   1.0000   1.0000
     1.0000   1.0000   1.0000   1.0000   1.0000   1.0000   1.0000   1.0000
     1.0000   1.0000   1.0000   1.0000   1.0000   1.0000   1.0000   1.0000
     1.0000   1.0000   1.0000   1.0000   1.0000   1.0000   1.0000   1.0000
     1.0000   1.0000   1.0000   1.0000   1.0000   1.0000   1.0000   1.0000
     1.0000   1.0000   1.0000   1.0000   1.0000   1.0000   1.0000   1.0000
     1.0000   1.0000   1.0000   1.0000   1.0000   1.0000   1.0000   1.0000
     1.0000   1.0000   1.0000   1.0000   1.0000   1.0000   1.0000   1.0000
     1.0000   1.0000   1.0000   1.0000   1.0000   1.0000   1.0000   1.0000
     1.0000   1.0000   1.0000   1.0000   1.0324   1.0324  -0.0000  -0.0000
    -0.0000  -0.0000  -0.0000  -0.0000  -0.0000  -0.0000  -0.0000  -0.0000
    -0.0000  -0.0000  -0.0000  -0.0000  -0.0000  -0.0000  -0.0000  -0.0000
    -0.0000  -0.0000  -0.0000  -0.0000  -0.0000  -0.0000  -0.0000  -0.0000
    -0.0000  -0.0000  -0.0000  -0.0000  -0.0000  -0.0000  -0.0000  -0.0000
    -0.0000  -0.0000  -0.0000  -0.0000  -0.0000  -0.0000  -0.0000  -0.0000
    -0.0000  -0.0000  -0.0000  -0.0000

          k =-0.0717-0.5063-0.3328 (  9928 PWs)   bands (ev):

   -39.2445 -39.2445 -39.2441 -39.2441 -39.2413 -39.2413 -39.2408 -39.2408
   -39.0328 -39.0328 -38.9933 -38.9933 -38.3512 -38.3512 -38.3507 -38.3507
   -38.3482 -38.3482 -38.3478 -38.3478 -38.3469 -38.3469 -38.3464 -38.3464
   -38.1415 -38.1415 -38.1243 -38.1243 -38.0903 -38.0903 -15.7557 -15.7557
   -15.7555 -15.7555 -15.7441 -15.7441 -15.7426 -15.7426 -12.7804 -12.7804
   -12.7785 -12.7785 -12.7628 -12.7628 -12.7624 -12.7624 -12.7587 -12.7587
   -12.7569 -12.7569  -5.0294  -5.0294  -4.7596  -4.7596  -3.6158  -3.6158
    -1.0487  -1.0487  -0.0440  -0.0440   5.1817   5.1817   5.7419   5.7419
     6.0945   6.0945   6.5578   6.5578   6.6591   6.6591   7.1537   7.1537
     7.5952   7.5952   7.6682   7.6682   8.3808   8.3808   9.1510   9.1510
    10.1513  10.1513  10.7488  10.7488  11.3583  11.3583  11.8662  11.8662
    12.2533  12.2533  14.2245  14.2245  15.3146  15.3146  15.5230  15.5230
    15.9968  15.9968  16.2599  16.2599  16.9163  16.9163  16.9458  16.9458
    17.7658  17.7658  18.4863  18.4863  18.5982  18.5982  18.8817  18.8817
    19.4377  19.4377  19.6965  19.6965  19.8183  19.8183  20.3311  20.3311
    21.3209  21.3209  21.7350  21.7350

     occupation numbers 
     1.0000   1.0000   1.0000   1.0000   1.0000   1.0000   1.0000   1.0000
     1.0000   1.0000   1.0000   1.0000   1.0000   1.0000   1.0000   1.0000
     1.0000   1.0000   1.0000   1.0000   1.0000   1.0000   1.0000   1.0000
     1.0000   1.0000   1.0000   1.0000   1.0000   1.0000   1.0000   1.0000
     1.0000   1.0000   1.0000   1.0000   1.0000   1.0000   1.0000   1.0000
     1.0000   1.0000   1.0000   1.0000   1.0000   1.0000   1.0000   1.0000
     1.0000   1.0000   1.0000   1.0000   1.0000   1.0000   1.0000   1.0000
     1.0000   1.0000   1.0000   1.0000   1.0000   1.0000   1.0000   1.0000
     1.0000   1.0000   1.0000   1.0000   1.0000   1.0000   1.0000   1.0000
     1.0000   1.0000   1.0000   1.0000   1.0221   1.0221  -0.0000  -0.0000
    -0.0000  -0.0000  -0.0000  -0.0000  -0.0000  -0.0000  -0.0000  -0.0000
    -0.0000  -0.0000  -0.0000  -0.0000  -0.0000  -0.0000  -0.0000  -0.0000
    -0.0000  -0.0000  -0.0000  -0.0000  -0.0000  -0.0000  -0.0000  -0.0000
    -0.0000  -0.0000  -0.0000  -0.0000  -0.0000  -0.0000  -0.0000  -0.0000
    -0.0000  -0.0000  -0.0000  -0.0000  -0.0000  -0.0000  -0.0000  -0.0000
    -0.0000  -0.0000  -0.0000  -0.0000

          k =-0.4431-0.7274-0.1655 (  9898 PWs)   bands (ev):

   -39.2441 -39.2441 -39.2437 -39.2437 -39.2412 -39.2412 -39.2404 -39.2404
   -39.0326 -39.0326 -38.9929 -38.9929 -38.3506 -38.3506 -38.3503 -38.3503
   -38.3481 -38.3481 -38.3474 -38.3474 -38.3467 -38.3467 -38.3461 -38.3461
   -38.1412 -38.1412 -38.1241 -38.1241 -38.0898 -38.0898 -15.7546 -15.7546
   -15.7533 -15.7533 -15.7441 -15.7441 -15.7429 -15.7429 -12.7802 -12.7802
   -12.7765 -12.7765 -12.7647 -12.7647 -12.7636 -12.7636 -12.7563 -12.7563
   -12.7546 -12.7546  -4.6271  -4.6271  -4.3377  -4.3377  -3.4994  -3.4994
    -1.1967  -1.1967  -0.7043  -0.7043   4.4679   4.4679   4.9273   4.9273
     5.3615   5.3615   5.9599   5.9599   6.3547   6.3547   6.7617   6.7617
     7.3013   7.3013   7.7818   7.7818   7.9204   7.9204  10.0257  10.0257
    10.1935  10.1935  11.2849  11.2849  11.8151  11.8151  12.2409  12.2409
    12.7490  12.7490  14.2711  14.2711  14.3430  14.3430  15.3584  15.3584
    15.9792  15.9792  17.3858  17.3858  17.7120  17.7120  18.2734  18.2734
    18.5836  18.5836  19.0637  19.0637  19.5431  19.5431  19.8478  19.8478
    20.0114  20.0114  20.2563  20.2563  20.7150  20.7150  21.4559  21.4559
    22.1176  22.1176  22.2628  22.2628

     occupation numbers 
     1.0000   1.0000   1.0000   1.0000   1.0000   1.0000   1.0000   1.0000
     1.0000   1.0000   1.0000   1.0000   1.0000   1.0000   1.0000   1.0000
     1.0000   1.0000   1.0000   1.0000   1.0000   1.0000   1.0000   1.0000
     1.0000   1.0000   1.0000   1.0000   1.0000   1.0000   1.0000   1.0000
     1.0000   1.0000   1.0000   1.0000   1.0000   1.0000   1.0000   1.0000
     1.0000   1.0000   1.0000   1.0000   1.0000   1.0000   1.0000   1.0000
     1.0000   1.0000   1.0000   1.0000   1.0000   1.0000   1.0000   1.0000
     1.0000   1.0000   1.0000   1.0000   1.0000   1.0000   1.0000   1.0000
     1.0000   1.0000   1.0000   1.0000   1.0000   1.0000   1.0000   1.0000
     1.0000   1.0000   1.0000   1.0000   1.0000   1.0000  -0.0000  -0.0000
    -0.0000  -0.0000  -0.0000  -0.0000  -0.0000  -0.0000  -0.0000  -0.0000
    -0.0000  -0.0000  -0.0000  -0.0000  -0.0000  -0.0000  -0.0000  -0.0000
    -0.0000  -0.0000  -0.0000  -0.0000  -0.0000  -0.0000  -0.0000  -0.0000
    -0.0000  -0.0000  -0.0000  -0.0000  -0.0000  -0.0000  -0.0000  -0.0000
    -0.0000  -0.0000  -0.0000  -0.0000  -0.0000  -0.0000  -0.0000  -0.0000
    -0.0000  -0.0000  -0.0000  -0.0000

          k =-0.8147-0.4849 0.0015 (  9894 PWs)   bands (ev):

   -39.2441 -39.2441 -39.2436 -39.2436 -39.2411 -39.2411 -39.2404 -39.2404
   -39.0326 -39.0326 -38.9929 -38.9929 -38.3507 -38.3507 -38.3501 -38.3501
   -38.3481 -38.3481 -38.3476 -38.3476 -38.3466 -38.3466 -38.3459 -38.3459
   -38.1411 -38.1411 -38.1241 -38.1241 -38.0897 -38.0897 -15.7537 -15.7537
   -15.7535 -15.7535 -15.7440 -15.7439 -15.7429 -15.7429 -12.7810 -12.7810
   -12.7786 -12.7786 -12.7649 -12.7649 -12.7632 -12.7632 -12.7548 -12.7548
   -12.7522 -12.7522  -4.4815  -4.4815  -4.0798  -4.0798  -3.5433  -3.5433
    -1.2926  -1.2926  -0.9439  -0.9439   3.9247   3.9247   5.0341   5.0341
     5.5891   5.5891   5.8579   5.8579   6.3316   6.3316   6.6505   6.6505
     7.2116   7.2116   7.3254   7.3254   7.5459   7.5459   9.9420   9.9420
    10.8007  10.8007  11.1958  11.1958  11.8458  11.8458  12.3031  12.3031
    12.8478  12.8478  13.1596  13.1596  15.4223  15.4223  16.4612  16.4612
    16.8242  16.8242  17.0987  17.0987  17.4984  17.4984  17.8230  17.8230
    18.5894  18.5894  19.0565  19.0565  19.5083  19.5083  20.1389  20.1389
    20.4611  20.4611  20.8935  20.8935  21.7425  21.7425  22.0667  22.0667
    22.8774  22.8774  23.1781  23.1782

     occupation numbers 
     1.0000   1.0000   1.0000   1.0000   1.0000   1.0000   1.0000   1.0000
     1.0000   1.0000   1.0000   1.0000   1.0000   1.0000   1.0000   1.0000
     1.0000   1.0000   1.0000   1.0000   1.0000   1.0000   1.0000   1.0000
     1.0000   1.0000   1.0000   1.0000   1.0000   1.0000   1.0000   1.0000
     1.0000   1.0000   1.0000   1.0000   1.0000   1.0000   1.0000   1.0000
     1.0000   1.0000   1.0000   1.0000   1.0000   1.0000   1.0000   1.0000
     1.0000   1.0000   1.0000   1.0000   1.0000   1.0000   1.0000   1.0000
     1.0000   1.0000   1.0000   1.0000   1.0000   1.0000   1.0000   1.0000
     1.0000   1.0000   1.0000   1.0000   1.0000   1.0000   1.0000   1.0000
     1.0000   1.0000   1.0000   1.0000   1.0000   1.0000  -0.0000  -0.0000
    -0.0000  -0.0000  -0.0000  -0.0000  -0.0000  -0.0000  -0.0000  -0.0000
    -0.0000  -0.0000  -0.0000  -0.0000  -0.0000  -0.0000  -0.0000  -0.0000
    -0.0000  -0.0000  -0.0000  -0.0000  -0.0000  -0.0000  -0.0000  -0.0000
    -0.0000  -0.0000  -0.0000  -0.0000  -0.0000  -0.0000  -0.0000  -0.0000
    -0.0000  -0.0000  -0.0000  -0.0000  -0.0000  -0.0000  -0.0000  -0.0000
    -0.0000  -0.0000  -0.0000  -0.0000

          k =-1.1861-0.7060 0.1688 (  9889 PWs)   bands (ev):

   -39.2436 -39.2436 -39.2435 -39.2435 -39.2411 -39.2411 -39.2406 -39.2406
   -39.0326 -39.0326 -38.9926 -38.9926 -38.3502 -38.3502 -38.3499 -38.3499
   -38.3481 -38.3481 -38.3477 -38.3477 -38.3465 -38.3465 -38.3460 -38.3460
   -38.1411 -38.1411 -38.1242 -38.1242 -38.0893 -38.0893 -15.7527 -15.7527
   -15.7527 -15.7527 -15.7434 -15.7434 -15.7433 -15.7433 -12.7826 -12.7826
   -12.7808 -12.7808 -12.7650 -12.7650 -12.7625 -12.7625 -12.7521 -12.7521
   -12.7490 -12.7490  -3.8384  -3.8384  -3.7134  -3.7134  -3.6428  -3.6428
    -1.7831  -1.7831  -1.3211  -1.3211   3.6720   3.6720   4.7020   4.7020
     4.9683   4.9683   5.5987   5.5987   5.9418   5.9418   6.5884   6.5884
     7.1380   7.1380   7.4522   7.4522   7.6512   7.6512   9.7176   9.7176
    10.7373  10.7373  11.1553  11.1553  11.4787  11.4787  12.5180  12.5180
    12.9431  12.9431  13.7533  13.7533  15.2712  15.2712  16.6989  16.6989
    17.7800  17.7800  18.1704  18.1704  19.0857  19.0857  19.1694  19.1694
    19.3195  19.3195  19.7781  19.7781  20.4585  20.4585  20.6912  20.6912
    20.7242  20.7242  21.1741  21.1741  21.3458  21.3458  21.6925  21.6925
    21.8094  21.8094  22.4735  22.4736

     occupation numbers 
     1.0000   1.0000   1.0000   1.0000   1.0000   1.0000   1.0000   1.0000
     1.0000   1.0000   1.0000   1.0000   1.0000   1.0000   1.0000   1.0000
     1.0000   1.0000   1.0000   1.0000   1.0000   1.0000   1.0000   1.0000
     1.0000   1.0000   1.0000   1.0000   1.0000   1.0000   1.0000   1.0000
     1.0000   1.0000   1.0000   1.0000   1.0000   1.0000   1.0000   1.0000
     1.0000   1.0000   1.0000   1.0000   1.0000   1.0000   1.0000   1.0000
     1.0000   1.0000   1.0000   1.0000   1.0000   1.0000   1.0000   1.0000
     1.0000   1.0000   1.0000   1.0000   1.0000   1.0000   1.0000   1.0000
     1.0000   1.0000   1.0000   1.0000   1.0000   1.0000   1.0000   1.0000
     1.0000   1.0000   1.0000   1.0000   1.0000   1.0000  -0.0000  -0.0000
    -0.0000  -0.0000  -0.0000  -0.0000  -0.0000  -0.0000  -0.0000  -0.0000
    -0.0000  -0.0000  -0.0000  -0.0000  -0.0000  -0.0000  -0.0000  -0.0000
    -0.0000  -0.0000  -0.0000  -0.0000  -0.0000  -0.0000  -0.0000  -0.0000
    -0.0000  -0.0000  -0.0000  -0.0000  -0.0000  -0.0000  -0.0000  -0.0000
    -0.0000  -0.0000  -0.0000  -0.0000  -0.0000  -0.0000  -0.0000  -0.0000
    -0.0000  -0.0000  -0.0000  -0.0000

          k =-1.5576-0.9271 0.3362 (  9893 PWs)   bands (ev):

   -39.2441 -39.2441 -39.2434 -39.2434 -39.2411 -39.2411 -39.2406 -39.2406
   -39.0326 -39.0326 -38.9928 -38.9928 -38.3506 -38.3506 -38.3499 -38.3499
   -38.3482 -38.3482 -38.3476 -38.3476 -38.3465 -38.3465 -38.3461 -38.3461
   -38.1411 -38.1411 -38.1242 -38.1242 -38.0896 -38.0896 -15.7537 -15.7537
   -15.7535 -15.7535 -15.7440 -15.7439 -15.7430 -15.7429 -12.7810 -12.7809
   -12.7786 -12.7786 -12.7649 -12.7649 -12.7631 -12.7631 -12.7548 -12.7548
   -12.7522 -12.7522  -4.3857  -4.3857  -4.2494  -4.2494  -3.4509  -3.4509
    -1.3412  -1.3412  -0.9185  -0.9185   4.1573   4.1573   4.7618   4.7618
     5.4297   5.4297   5.9090   5.9090   6.0780   6.0780   6.5294   6.5294
     7.4218   7.4218   7.6461   7.6461   8.1538   8.1538   9.3735   9.3735
    10.5744  10.5744  11.0387  11.0387  11.4961  11.4961  12.5721  12.5721
    13.2878  13.2878  13.4243  13.4243  14.9563  14.9563  16.1465  16.1465
    16.8484  16.8484  17.4361  17.4361  17.7814  17.7814  17.8222  17.8222
    18.7136  18.7136  19.0474  19.0474  19.9287  19.9287  20.4418  20.4418
    20.6856  20.6856  21.1200  21.1201  21.3637  21.3637  21.5062  21.5062
    21.9929  21.9929  22.7633  22.7634

     occupation numbers 
     1.0000   1.0000   1.0000   1.0000   1.0000   1.0000   1.0000   1.0000
     1.0000   1.0000   1.0000   1.0000   1.0000   1.0000   1.0000   1.0000
     1.0000   1.0000   1.0000   1.0000   1.0000   1.0000   1.0000   1.0000
     1.0000   1.0000   1.0000   1.0000   1.0000   1.0000   1.0000   1.0000
     1.0000   1.0000   1.0000   1.0000   1.0000   1.0000   1.0000   1.0000
     1.0000   1.0000   1.0000   1.0000   1.0000   1.0000   1.0000   1.0000
     1.0000   1.0000   1.0000   1.0000   1.0000   1.0000   1.0000   1.0000
     1.0000   1.0000   1.0000   1.0000   1.0000   1.0000   1.0000   1.0000
     1.0000   1.0000   1.0000   1.0000   1.0000   1.0000   1.0000   1.0000
     1.0000   1.0000   1.0000   1.0000   1.0000   1.0000  -0.0000  -0.0000
    -0.0000  -0.0000  -0.0000  -0.0000  -0.0000  -0.0000  -0.0000  -0.0000
    -0.0000  -0.0000  -0.0000  -0.0000  -0.0000  -0.0000  -0.0000  -0.0000
    -0.0000  -0.0000  -0.0000  -0.0000  -0.0000  -0.0000  -0.0000  -0.0000
    -0.0000  -0.0000  -0.0000  -0.0000  -0.0000  -0.0000  -0.0000  -0.0000
    -0.0000  -0.0000  -0.0000  -0.0000  -0.0000  -0.0000  -0.0000  -0.0000
    -0.0000  -0.0000  -0.0000  -0.0000

          k = 0.2997 0.1784-0.5005 (  9928 PWs)   bands (ev):

   -39.2445 -39.2445 -39.2441 -39.2441 -39.2413 -39.2413 -39.2408 -39.2408
   -39.0328 -39.0328 -38.9933 -38.9933 -38.3512 -38.3512 -38.3507 -38.3507
   -38.3482 -38.3482 -38.3478 -38.3478 -38.3469 -38.3469 -38.3464 -38.3464
   -38.1415 -38.1415 -38.1243 -38.1243 -38.0903 -38.0903 -15.7557 -15.7557
   -15.7555 -15.7555 -15.7441 -15.7441 -15.7426 -15.7426 -12.7804 -12.7804
   -12.7785 -12.7785 -12.7628 -12.7628 -12.7624 -12.7624 -12.7587 -12.7587
   -12.7569 -12.7569  -5.0294  -5.0294  -4.7596  -4.7596  -3.6158  -3.6158
    -1.0487  -1.0487  -0.0440  -0.0440   5.1817   5.1817   5.7419   5.7419
     6.0945   6.0945   6.5578   6.5578   6.6591   6.6591   7.1537   7.1537
     7.5952   7.5952   7.6682   7.6682   8.3808   8.3808   9.1510   9.1510
    10.1513  10.1513  10.7488  10.7488  11.3583  11.3583  11.8662  11.8662
    12.2533  12.2533  14.2245  14.2245  15.3146  15.3146  15.5230  15.5230
    15.9968  15.9968  16.2599  16.2599  16.9163  16.9163  16.9458  16.9458
    17.7658  17.7658  18.4863  18.4863  18.5982  18.5982  18.8817  18.8817
    19.4377  19.4377  19.6965  19.6965  19.8183  19.8183  20.3311  20.3311
    21.3209  21.3209  21.7350  21.7350

     occupation numbers 
     1.0000   1.0000   1.0000   1.0000   1.0000   1.0000   1.0000   1.0000
     1.0000   1.0000   1.0000   1.0000   1.0000   1.0000   1.0000   1.0000
     1.0000   1.0000   1.0000   1.0000   1.0000   1.0000   1.0000   1.0000
     1.0000   1.0000   1.0000   1.0000   1.0000   1.0000   1.0000   1.0000
     1.0000   1.0000   1.0000   1.0000   1.0000   1.0000   1.0000   1.0000
     1.0000   1.0000   1.0000   1.0000   1.0000   1.0000   1.0000   1.0000
     1.0000   1.0000   1.0000   1.0000   1.0000   1.0000   1.0000   1.0000
     1.0000   1.0000   1.0000   1.0000   1.0000   1.0000   1.0000   1.0000
     1.0000   1.0000   1.0000   1.0000   1.0000   1.0000   1.0000   1.0000
     1.0000   1.0000   1.0000   1.0000   1.0221   1.0221  -0.0000  -0.0000
    -0.0000  -0.0000  -0.0000  -0.0000  -0.0000  -0.0000  -0.0000  -0.0000
    -0.0000  -0.0000  -0.0000  -0.0000  -0.0000  -0.0000  -0.0000  -0.0000
    -0.0000  -0.0000  -0.0000  -0.0000  -0.0000  -0.0000  -0.0000  -0.0000
    -0.0000  -0.0000  -0.0000  -0.0000  -0.0000  -0.0000  -0.0000  -0.0000
    -0.0000  -0.0000  -0.0000  -0.0000  -0.0000  -0.0000  -0.0000  -0.0000
    -0.0000  -0.0000  -0.0000  -0.0000

          k =-0.0717-0.0427-0.3332 (  9910 PWs)   bands (ev):

   -39.2444 -39.2444 -39.2436 -39.2436 -39.2411 -39.2411 -39.2406 -39.2406
   -39.0326 -39.0326 -38.9930 -38.9930 -38.3510 -38.3510 -38.3501 -38.3501
   -38.3484 -38.3484 -38.3476 -38.3476 -38.3465 -38.3465 -38.3462 -38.3462
   -38.1411 -38.1411 -38.1243 -38.1243 -38.0899 -38.0899 -15.7568 -15.7568
   -15.7566 -15.7566 -15.7439 -15.7439 -15.7425 -15.7425 -12.7820 -12.7820
   -12.7806 -12.7806 -12.7611 -12.7611 -12.7608 -12.7608 -12.7594 -12.7594
   -12.7585 -12.7585  -5.2829  -5.2829  -4.9264  -4.9264  -3.7454  -3.7454
    -0.9565  -0.9565   0.3052   0.3052   5.9298   5.9298   6.5507   6.5507
     6.7214   6.7214   7.1309   7.1309   7.1607   7.1607   7.3775   7.3775
     7.4261   7.4261   7.6196   7.6196   8.2875   8.2875   8.8477   8.8477
     9.7540   9.7540  10.2055  10.2055  10.9733  10.9733  11.4771  11.4771
    11.8811  11.8811  14.7087  14.7087  15.5461  15.5461  15.5719  15.5719
    15.6390  15.6390  16.4857  16.4857  16.9217  16.9217  17.2476  17.2476
    17.3068  17.3068  17.6040  17.6040  18.0450  18.0450  18.1024  18.1024
    18.5625  18.5625  18.7758  18.7758  18.9392  18.9392  19.7687  19.7687
    19.9479  19.9479  20.7659  20.7659

     occupation numbers 
     1.0000   1.0000   1.0000   1.0000   1.0000   1.0000   1.0000   1.0000
     1.0000   1.0000   1.0000   1.0000   1.0000   1.0000   1.0000   1.0000
     1.0000   1.0000   1.0000   1.0000   1.0000   1.0000   1.0000   1.0000
     1.0000   1.0000   1.0000   1.0000   1.0000   1.0000   1.0000   1.0000
     1.0000   1.0000   1.0000   1.0000   1.0000   1.0000   1.0000   1.0000
     1.0000   1.0000   1.0000   1.0000   1.0000   1.0000   1.0000   1.0000
     1.0000   1.0000   1.0000   1.0000   1.0000   1.0000   1.0000   1.0000
     1.0000   1.0000   1.0000   1.0000   1.0000   1.0000   1.0000   1.0000
     1.0000   1.0000   1.0000   1.0000   1.0000   1.0000   1.0000   1.0000
     1.0000   1.0000   1.0000   1.0000   1.0026   1.0026  -0.0141  -0.0141
    -0.0000  -0.0000  -0.0000  -0.0000  -0.0000  -0.0000  -0.0000  -0.0000
    -0.0000  -0.0000  -0.0000  -0.0000  -0.0000  -0.0000  -0.0000  -0.0000
    -0.0000  -0.0000  -0.0000  -0.0000  -0.0000  -0.0000  -0.0000  -0.0000
    -0.0000  -0.0000  -0.0000  -0.0000  -0.0000  -0.0000  -0.0000  -0.0000
    -0.0000  -0.0000  -0.0000  -0.0000  -0.0000  -0.0000  -0.0000  -0.0000
    -0.0000  -0.0000  -0.0000  -0.0000

          k =-0.4432-0.2638-0.1659 (  9919 PWs)   bands (ev):

   -39.2445 -39.2445 -39.2441 -39.2441 -39.2412 -39.2412 -39.2406 -39.2406
   -39.0326 -39.0326 -38.9933 -38.9933 -38.3511 -38.3511 -38.3508 -38.3508
   -38.3481 -38.3481 -38.3476 -38.3476 -38.3468 -38.3468 -38.3462 -38.3462
   -38.1413 -38.1413 -38.1242 -38.1242 -38.0903 -38.0903 -15.7557 -15.7557
   -15.7555 -15.7555 -15.7441 -15.7441 -15.7426 -15.7426 -12.7804 -12.7804
   -12.7785 -12.7785 -12.7628 -12.7628 -12.7625 -12.7625 -12.7587 -12.7587
   -12.7569 -12.7569  -5.0801  -5.0801  -4.6692  -4.6692  -3.6790  -3.6790
    -0.9605  -0.9605  -0.1168  -0.1168   5.2036   5.2036   5.8262   5.8262
     6.0476   6.0476   6.4813   6.4813   6.7150   6.7151   7.0306   7.0306
     7.5384   7.5384   7.9465   7.9465   8.2061   8.2061   9.2938   9.2938
     9.9477   9.9477  10.7511  10.7511  11.2865  11.2865  12.0340  12.0340
    12.3470  12.3470  14.3519  14.3519  14.8371  14.8371  15.8104  15.8104
    15.9891  15.9891  16.3749  16.3749  16.9323  16.9323  17.6195  17.6195
    17.7235  17.7235  17.8337  17.8337  17.9812  17.9812  18.7985  18.7985
    19.2085  19.2085  19.4606  19.4606  20.4447  20.4447  20.6393  20.6393
    21.3597  21.3597  21.6348  21.6349

     occupation numbers 
     1.0000   1.0000   1.0000   1.0000   1.0000   1.0000   1.0000   1.0000
     1.0000   1.0000   1.0000   1.0000   1.0000   1.0000   1.0000   1.0000
     1.0000   1.0000   1.0000   1.0000   1.0000   1.0000   1.0000   1.0000
     1.0000   1.0000   1.0000   1.0000   1.0000   1.0000   1.0000   1.0000
     1.0000   1.0000   1.0000   1.0000   1.0000   1.0000   1.0000   1.0000
     1.0000   1.0000   1.0000   1.0000   1.0000   1.0000   1.0000   1.0000
     1.0000   1.0000   1.0000   1.0000   1.0000   1.0000   1.0000   1.0000
     1.0000   1.0000   1.0000   1.0000   1.0000   1.0000   1.0000   1.0000
     1.0000   1.0000   1.0000   1.0000   1.0000   1.0000   1.0000   1.0000
     1.0000   1.0000   1.0000   1.0000   1.0002   1.0002  -0.0000  -0.0000
    -0.0000  -0.0000  -0.0000  -0.0000  -0.0000  -0.0000  -0.0000  -0.0000
    -0.0000  -0.0000  -0.0000  -0.0000  -0.0000  -0.0000  -0.0000  -0.0000
    -0.0000  -0.0000  -0.0000  -0.0000  -0.0000  -0.0000  -0.0000  -0.0000
    -0.0000  -0.0000  -0.0000  -0.0000  -0.0000  -0.0000  -0.0000  -0.0000
    -0.0000  -0.0000  -0.0000  -0.0000  -0.0000  -0.0000  -0.0000  -0.0000
    -0.0000  -0.0000  -0.0000  -0.0000

          k =-0.8148-0.0214 0.0011 (  9901 PWs)   bands (ev):

   -39.2441 -39.2441 -39.2438 -39.2438 -39.2411 -39.2411 -39.2405 -39.2405
   -39.0326 -39.0326 -38.9930 -38.9930 -38.3506 -38.3506 -38.3505 -38.3505
   -38.3481 -38.3481 -38.3476 -38.3476 -38.3466 -38.3466 -38.3461 -38.3461
   -38.1412 -38.1412 -38.1241 -38.1241 -38.0899 -38.0899 -15.7546 -15.7546
   -15.7533 -15.7533 -15.7441 -15.7441 -15.7429 -15.7429 -12.7802 -12.7802
   -12.7765 -12.7765 -12.7647 -12.7647 -12.7636 -12.7636 -12.7564 -12.7564
   -12.7546 -12.7546  -4.6853  -4.6853  -4.2181  -4.2181  -3.5783  -3.5783
    -1.1447  -1.1447  -0.7390  -0.7390   4.5284   4.5284   4.9959   4.9959
     5.3056   5.3056   5.8756   5.8756   6.2916   6.2916   6.5050   6.5050
     7.4877   7.4877   8.0150   8.0150   8.0764   8.0764   9.7826   9.7826
    10.0663  10.0663  11.0788  11.0788  11.9561  11.9561  12.3893  12.3893
    12.8948  12.8948  14.1047  14.1047  14.1476  14.1476  15.9893  15.9893
    16.5645  16.5645  17.1382  17.1382  17.4797  17.4797  17.8700  17.8700
    18.3783  18.3783  18.7345  18.7345  18.8130  18.8130  19.6971  19.6971
    20.2932  20.2932  20.5801  20.5801  21.0431  21.0431  21.8286  21.8286
    22.2177  22.2177  22.4271  22.4272

     occupation numbers 
     1.0000   1.0000   1.0000   1.0000   1.0000   1.0000   1.0000   1.0000
     1.0000   1.0000   1.0000   1.0000   1.0000   1.0000   1.0000   1.0000
     1.0000   1.0000   1.0000   1.0000   1.0000   1.0000   1.0000   1.0000
     1.0000   1.0000   1.0000   1.0000   1.0000   1.0000   1.0000   1.0000
     1.0000   1.0000   1.0000   1.0000   1.0000   1.0000   1.0000   1.0000
     1.0000   1.0000   1.0000   1.0000   1.0000   1.0000   1.0000   1.0000
     1.0000   1.0000   1.0000   1.0000   1.0000   1.0000   1.0000   1.0000
     1.0000   1.0000   1.0000   1.0000   1.0000   1.0000   1.0000   1.0000
     1.0000   1.0000   1.0000   1.0000   1.0000   1.0000   1.0000   1.0000
     1.0000   1.0000   1.0000   1.0000   1.0000   1.0000  -0.0000  -0.0000
    -0.0000  -0.0000  -0.0000  -0.0000  -0.0000  -0.0000  -0.0000  -0.0000
    -0.0000  -0.0000  -0.0000  -0.0000  -0.0000  -0.0000  -0.0000  -0.0000
    -0.0000  -0.0000  -0.0000  -0.0000  -0.0000  -0.0000  -0.0000  -0.0000
    -0.0000  -0.0000  -0.0000  -0.0000  -0.0000  -0.0000  -0.0000  -0.0000
    -0.0000  -0.0000  -0.0000  -0.0000  -0.0000  -0.0000  -0.0000  -0.0000
    -0.0000  -0.0000  -0.0000  -0.0000

          k =-1.1862-0.2424 0.1685 (  9868 PWs)   bands (ev):

   -39.2435 -39.2435 -39.2431 -39.2431 -39.2407 -39.2407 -39.2404 -39.2404
   -39.0323 -39.0323 -38.9923 -38.9923 -38.3500 -38.3500 -38.3495 -38.3495
   -38.3478 -38.3478 -38.3475 -38.3475 -38.3461 -38.3461 -38.3459 -38.3459
   -38.1408 -38.1408 -38.1239 -38.1239 -38.0891 -38.0891 -15.7536 -15.7536
   -15.7512 -15.7512 -15.7442 -15.7442 -15.7432 -15.7432 -12.7805 -12.7805
   -12.7769 -12.7769 -12.7658 -12.7658 -12.7638 -12.7638 -12.7535 -12.7535
   -12.7516 -12.7516  -3.9913  -3.9913  -3.6992  -3.6992  -3.4975  -3.4975
    -1.6690  -1.6690  -1.4111  -1.4111   3.7604   3.7604   4.6696   4.6696
     5.0006   5.0006   5.4619   5.4619   5.7747   5.7747   6.1118   6.1118
     6.9226   6.9226   7.8148   7.8148   7.9786   7.9786   9.9917   9.9917
    10.4100  10.4100  11.5889  11.5889  12.1314  12.1314  12.7375  12.7375
    13.1866  13.1866  13.5393  13.5393  15.6739  15.6739  15.9353  15.9353
    16.6765  16.6765  17.4647  17.4647  17.8968  17.8968  19.0939  19.0939
    19.2942  19.2942  19.4821  19.4821  20.1234  20.1234  20.5333  20.5333
    20.8586  20.8586  21.1875  21.1875  21.8481  21.8481  22.1787  22.1787
    22.5396  22.5397  23.0014  23.0016

     occupation numbers 
     1.0000   1.0000   1.0000   1.0000   1.0000   1.0000   1.0000   1.0000
     1.0000   1.0000   1.0000   1.0000   1.0000   1.0000   1.0000   1.0000
     1.0000   1.0000   1.0000   1.0000   1.0000   1.0000   1.0000   1.0000
     1.0000   1.0000   1.0000   1.0000   1.0000   1.0000   1.0000   1.0000
     1.0000   1.0000   1.0000   1.0000   1.0000   1.0000   1.0000   1.0000
     1.0000   1.0000   1.0000   1.0000   1.0000   1.0000   1.0000   1.0000
     1.0000   1.0000   1.0000   1.0000   1.0000   1.0000   1.0000   1.0000
     1.0000   1.0000   1.0000   1.0000   1.0000   1.0000   1.0000   1.0000
     1.0000   1.0000   1.0000   1.0000   1.0000   1.0000   1.0000   1.0000
     1.0000   1.0000   1.0000   1.0000   1.0000   1.0000  -0.0000  -0.0000
    -0.0000  -0.0000  -0.0000  -0.0000  -0.0000  -0.0000  -0.0000  -0.0000
    -0.0000  -0.0000  -0.0000  -0.0000  -0.0000  -0.0000  -0.0000  -0.0000
    -0.0000  -0.0000  -0.0000  -0.0000  -0.0000  -0.0000  -0.0000  -0.0000
    -0.0000  -0.0000  -0.0000  -0.0000  -0.0000  -0.0000  -0.0000  -0.0000
    -0.0000  -0.0000  -0.0000  -0.0000  -0.0000  -0.0000  -0.0000  -0.0000
    -0.0000  -0.0000  -0.0000  -0.0000

          k =-1.5577-0.4635 0.3358 (  9895 PWs)   bands (ev):

   -39.2437 -39.2437 -39.2435 -39.2435 -39.2410 -39.2410 -39.2408 -39.2408
   -39.0327 -39.0327 -38.9927 -38.9927 -38.3502 -38.3502 -38.3500 -38.3500
   -38.3480 -38.3480 -38.3479 -38.3479 -38.3464 -38.3464 -38.3463 -38.3463
   -38.1412 -38.1412 -38.1242 -38.1242 -38.0894 -38.0894 -15.7536 -15.7536
   -15.7512 -15.7512 -15.7442 -15.7442 -15.7432 -15.7432 -12.7805 -12.7805
   -12.7769 -12.7769 -12.7658 -12.7658 -12.7638 -12.7638 -12.7535 -12.7535
   -12.7516 -12.7516  -3.9053  -3.9053  -3.8438  -3.8438  -3.4407  -3.4407
    -1.6405  -1.6405  -1.4379  -1.4379   3.9413   3.9413   4.5849   4.5849
     4.7756   4.7756   5.0980   5.0980   5.9898   5.9898   6.5014   6.5014
     7.2670   7.2670   7.4057   7.4057   7.9438   7.9438   9.9732   9.9732
    10.6749  10.6749  11.2410  11.2410  12.0144  12.0144  12.5684  12.5684
    13.4976  13.4976  13.8877  13.8877  14.8617  14.8617  15.7019  15.7019
    17.3440  17.3440  17.7716  17.7716  18.3595  18.3595  19.1625  19.1625
    19.3444  19.3444  19.6779  19.6779  20.0454  20.0454  20.5691  20.5691
    20.6743  20.6743  21.1248  21.1248  21.2469  21.2469  21.4277  21.4277
    22.1332  22.1332  22.6800  22.6801

     occupation numbers 
     1.0000   1.0000   1.0000   1.0000   1.0000   1.0000   1.0000   1.0000
     1.0000   1.0000   1.0000   1.0000   1.0000   1.0000   1.0000   1.0000
     1.0000   1.0000   1.0000   1.0000   1.0000   1.0000   1.0000   1.0000
     1.0000   1.0000   1.0000   1.0000   1.0000   1.0000   1.0000   1.0000
     1.0000   1.0000   1.0000   1.0000   1.0000   1.0000   1.0000   1.0000
     1.0000   1.0000   1.0000   1.0000   1.0000   1.0000   1.0000   1.0000
     1.0000   1.0000   1.0000   1.0000   1.0000   1.0000   1.0000   1.0000
     1.0000   1.0000   1.0000   1.0000   1.0000   1.0000   1.0000   1.0000
     1.0000   1.0000   1.0000   1.0000   1.0000   1.0000   1.0000   1.0000
     1.0000   1.0000   1.0000   1.0000   1.0000   1.0000  -0.0000  -0.0000
    -0.0000  -0.0000  -0.0000  -0.0000  -0.0000  -0.0000  -0.0000  -0.0000
    -0.0000  -0.0000  -0.0000  -0.0000  -0.0000  -0.0000  -0.0000  -0.0000
    -0.0000  -0.0000  -0.0000  -0.0000  -0.0000  -0.0000  -0.0000  -0.0000
    -0.0000  -0.0000  -0.0000  -0.0000  -0.0000  -0.0000  -0.0000  -0.0000
    -0.0000  -0.0000  -0.0000  -0.0000  -0.0000  -0.0000  -0.0000  -0.0000
    -0.0000  -0.0000  -0.0000  -0.0000

          k = 0.2996 0.6419-0.5009 (  9898 PWs)   bands (ev):

   -39.2441 -39.2441 -39.2437 -39.2437 -39.2412 -39.2412 -39.2404 -39.2404
   -39.0326 -39.0326 -38.9929 -38.9929 -38.3506 -38.3506 -38.3503 -38.3503
   -38.3481 -38.3481 -38.3474 -38.3474 -38.3467 -38.3467 -38.3461 -38.3461
   -38.1412 -38.1412 -38.1241 -38.1241 -38.0898 -38.0898 -15.7546 -15.7546
   -15.7533 -15.7533 -15.7441 -15.7441 -15.7429 -15.7429 -12.7802 -12.7802
   -12.7765 -12.7765 -12.7647 -12.7647 -12.7636 -12.7636 -12.7563 -12.7563
   -12.7546 -12.7546  -4.6271  -4.6271  -4.3377  -4.3377  -3.4994  -3.4994
    -1.1967  -1.1967  -0.7043  -0.7043   4.4679   4.4679   4.9273   4.9273
     5.3615   5.3615   5.9599   5.9599   6.3547   6.3547   6.7617   6.7617
     7.3013   7.3013   7.7818   7.7818   7.9204   7.9204  10.0257  10.0257
    10.1935  10.1935  11.2849  11.2849  11.8151  11.8151  12.2409  12.2409
    12.7490  12.7490  14.2711  14.2711  14.3430  14.3430  15.3584  15.3584
    15.9792  15.9792  17.3858  17.3858  17.7120  17.7120  18.2734  18.2734
    18.5836  18.5836  19.0637  19.0637  19.5431  19.5431  19.8478  19.8478
    20.0114  20.0114  20.2563  20.2563  20.7150  20.7150  21.4559  21.4559
    22.1176  22.1176  22.2628  22.2628

     occupation numbers 
     1.0000   1.0000   1.0000   1.0000   1.0000   1.0000   1.0000   1.0000
     1.0000   1.0000   1.0000   1.0000   1.0000   1.0000   1.0000   1.0000
     1.0000   1.0000   1.0000   1.0000   1.0000   1.0000   1.0000   1.0000
     1.0000   1.0000   1.0000   1.0000   1.0000   1.0000   1.0000   1.0000
     1.0000   1.0000   1.0000   1.0000   1.0000   1.0000   1.0000   1.0000
     1.0000   1.0000   1.0000   1.0000   1.0000   1.0000   1.0000   1.0000
     1.0000   1.0000   1.0000   1.0000   1.0000   1.0000   1.0000   1.0000
     1.0000   1.0000   1.0000   1.0000   1.0000   1.0000   1.0000   1.0000
     1.0000   1.0000   1.0000   1.0000   1.0000   1.0000   1.0000   1.0000
     1.0000   1.0000   1.0000   1.0000   1.0000   1.0000  -0.0000  -0.0000
    -0.0000  -0.0000  -0.0000  -0.0000  -0.0000  -0.0000  -0.0000  -0.0000
    -0.0000  -0.0000  -0.0000  -0.0000  -0.0000  -0.0000  -0.0000  -0.0000
    -0.0000  -0.0000  -0.0000  -0.0000  -0.0000  -0.0000  -0.0000  -0.0000
    -0.0000  -0.0000  -0.0000  -0.0000  -0.0000  -0.0000  -0.0000  -0.0000
    -0.0000  -0.0000  -0.0000  -0.0000  -0.0000  -0.0000  -0.0000  -0.0000
    -0.0000  -0.0000  -0.0000  -0.0000

          k =-0.0718 0.4208-0.3336 (  9919 PWs)   bands (ev):

   -39.2445 -39.2445 -39.2441 -39.2441 -39.2412 -39.2412 -39.2406 -39.2406
   -39.0326 -39.0326 -38.9933 -38.9933 -38.3511 -38.3511 -38.3508 -38.3508
   -38.3481 -38.3481 -38.3476 -38.3476 -38.3468 -38.3468 -38.3462 -38.3462
   -38.1413 -38.1413 -38.1242 -38.1242 -38.0903 -38.0903 -15.7557 -15.7557
   -15.7555 -15.7555 -15.7441 -15.7441 -15.7426 -15.7426 -12.7804 -12.7804
   -12.7785 -12.7785 -12.7628 -12.7628 -12.7625 -12.7625 -12.7587 -12.7587
   -12.7569 -12.7569  -5.0801  -5.0801  -4.6692  -4.6692  -3.6790  -3.6790
    -0.9605  -0.9605  -0.1168  -0.1168   5.2036   5.2036   5.8262   5.8262
     6.0476   6.0476   6.4813   6.4813   6.7150   6.7151   7.0306   7.0306
     7.5384   7.5384   7.9465   7.9465   8.2061   8.2061   9.2938   9.2938
     9.9477   9.9477  10.7511  10.7511  11.2865  11.2865  12.0340  12.0340
    12.3470  12.3470  14.3519  14.3519  14.8371  14.8371  15.8104  15.8104
    15.9891  15.9891  16.3749  16.3749  16.9323  16.9323  17.6195  17.6195
    17.7235  17.7235  17.8337  17.8337  17.9812  17.9812  18.7985  18.7985
    19.2085  19.2085  19.4606  19.4606  20.4447  20.4447  20.6393  20.6393
    21.3598  21.3599  21.6348  21.6350

     occupation numbers 
     1.0000   1.0000   1.0000   1.0000   1.0000   1.0000   1.0000   1.0000
     1.0000   1.0000   1.0000   1.0000   1.0000   1.0000   1.0000   1.0000
     1.0000   1.0000   1.0000   1.0000   1.0000   1.0000   1.0000   1.0000
     1.0000   1.0000   1.0000   1.0000   1.0000   1.0000   1.0000   1.0000
     1.0000   1.0000   1.0000   1.0000   1.0000   1.0000   1.0000   1.0000
     1.0000   1.0000   1.0000   1.0000   1.0000   1.0000   1.0000   1.0000
     1.0000   1.0000   1.0000   1.0000   1.0000   1.0000   1.0000   1.0000
     1.0000   1.0000   1.0000   1.0000   1.0000   1.0000   1.0000   1.0000
     1.0000   1.0000   1.0000   1.0000   1.0000   1.0000   1.0000   1.0000
     1.0000   1.0000   1.0000   1.0000   1.0002   1.0002  -0.0000  -0.0000
    -0.0000  -0.0000  -0.0000  -0.0000  -0.0000  -0.0000  -0.0000  -0.0000
    -0.0000  -0.0000  -0.0000  -0.0000  -0.0000  -0.0000  -0.0000  -0.0000
    -0.0000  -0.0000  -0.0000  -0.0000  -0.0000  -0.0000  -0.0000  -0.0000
    -0.0000  -0.0000  -0.0000  -0.0000  -0.0000  -0.0000  -0.0000  -0.0000
    -0.0000  -0.0000  -0.0000  -0.0000  -0.0000  -0.0000  -0.0000  -0.0000
    -0.0000  -0.0000  -0.0000  -0.0000

          k =-0.4433 0.1997-0.1662 (  9930 PWs)   bands (ev):

   -39.2446 -39.2446 -39.2441 -39.2441 -39.2413 -39.2413 -39.2407 -39.2407
   -39.0328 -39.0328 -38.9934 -38.9934 -38.3512 -38.3512 -38.3507 -38.3507
   -38.3483 -38.3483 -38.3478 -38.3478 -38.3468 -38.3468 -38.3464 -38.3464
   -38.1414 -38.1414 -38.1243 -38.1243 -38.0903 -38.0903 -15.7557 -15.7557
   -15.7555 -15.7555 -15.7441 -15.7441 -15.7426 -15.7426 -12.7804 -12.7804
   -12.7786 -12.7785 -12.7628 -12.7628 -12.7624 -12.7624 -12.7588 -12.7588
   -12.7569 -12.7569  -5.0997  -5.0997  -4.6288  -4.6288  -3.7080  -3.7080
    -0.9503  -0.9503  -0.1117  -0.1117   5.2523   5.2524   5.6004   5.6004
     6.0694   6.0694   6.5586   6.5586   6.6571   6.6571   7.3929   7.3929
     7.5616   7.5616   7.6922   7.6922   8.1558   8.1558   9.3512   9.3512
    10.0382  10.0382  10.8933  10.8933  11.2884  11.2884  11.7614  11.7614
    12.2385  12.2385  14.0702  14.0702  15.1438  15.1438  15.8019  15.8019
    16.2702  16.2702  16.3324  16.3324  16.7858  16.7858  17.0244  17.0244
    17.8004  17.8004  18.5592  18.5592  18.8678  18.8678  18.9884  18.9884
    19.2841  19.2841  19.6307  19.6307  19.7334  19.7334  20.3626  20.3626
    20.6465  20.6465  21.4800  21.4802

     occupation numbers 
     1.0000   1.0000   1.0000   1.0000   1.0000   1.0000   1.0000   1.0000
     1.0000   1.0000   1.0000   1.0000   1.0000   1.0000   1.0000   1.0000
     1.0000   1.0000   1.0000   1.0000   1.0000   1.0000   1.0000   1.0000
     1.0000   1.0000   1.0000   1.0000   1.0000   1.0000   1.0000   1.0000
     1.0000   1.0000   1.0000   1.0000   1.0000   1.0000   1.0000   1.0000
     1.0000   1.0000   1.0000   1.0000   1.0000   1.0000   1.0000   1.0000
     1.0000   1.0000   1.0000   1.0000   1.0000   1.0000   1.0000   1.0000
     1.0000   1.0000   1.0000   1.0000   1.0000   1.0000   1.0000   1.0000
     1.0000   1.0000   1.0000   1.0000   1.0000   1.0000   1.0000   1.0000
     1.0000   1.0000   1.0000   1.0000   1.0000   1.0000  -0.0000  -0.0000
    -0.0000  -0.0000  -0.0000  -0.0000  -0.0000  -0.0000  -0.0000  -0.0000
    -0.0000  -0.0000  -0.0000  -0.0000  -0.0000  -0.0000  -0.0000  -0.0000
    -0.0000  -0.0000  -0.0000  -0.0000  -0.0000  -0.0000  -0.0000  -0.0000
    -0.0000  -0.0000  -0.0000  -0.0000  -0.0000  -0.0000  -0.0000  -0.0000
    -0.0000  -0.0000  -0.0000  -0.0000  -0.0000  -0.0000  -0.0000  -0.0000
    -0.0000  -0.0000  -0.0000  -0.0000

          k =-0.4074 0.2211 0.0004 (  9920 PWs)   bands (ev):

   -39.2444 -39.2444 -39.2438 -39.2438 -39.2411 -39.2411 -39.2406 -39.2406
   -39.0327 -39.0327 -38.9931 -38.9931 -38.3511 -38.3511 -38.3505 -38.3505
   -38.3482 -38.3482 -38.3476 -38.3476 -38.3467 -38.3467 -38.3463 -38.3463
   -38.1413 -38.1413 -38.1241 -38.1241 -38.0901 -38.0901 -15.7557 -15.7557
   -15.7555 -15.7555 -15.7441 -15.7441 -15.7426 -15.7426 -12.7804 -12.7804
   -12.7786 -12.7785 -12.7628 -12.7628 -12.7624 -12.7624 -12.7588 -12.7588
   -12.7568 -12.7568  -5.1384  -5.1384  -4.5264  -4.5264  -3.7979  -3.7979
    -0.8405  -0.8405  -0.1998  -0.1998   5.3179   5.3179   5.5562   5.5562
     6.0055   6.0055   6.5021   6.5021   6.7613   6.7613   7.3920   7.3920
     7.5966   7.5966   7.7105   7.7105   8.0782   8.0782   9.5318   9.5318
     9.8340   9.8340  10.9629  10.9629  11.2120  11.2120  11.7854  11.7854
    12.2861  12.2861  14.0457  14.0457  14.9051  14.9051  16.1258  16.1258
    16.2489  16.2489  16.6187  16.6187  16.8137  16.8137  17.0892  17.0892
    17.5216  17.5216  18.5075  18.5075  18.6343  18.6343  18.9716  18.9716
    19.4621  19.4621  19.6165  19.6165  19.7210  19.7210  20.2593  20.2593
    20.5735  20.5735  21.0668  21.0670

     occupation numbers 
     1.0000   1.0000   1.0000   1.0000   1.0000   1.0000   1.0000   1.0000
     1.0000   1.0000   1.0000   1.0000   1.0000   1.0000   1.0000   1.0000
     1.0000   1.0000   1.0000   1.0000   1.0000   1.0000   1.0000   1.0000
     1.0000   1.0000   1.0000   1.0000   1.0000   1.0000   1.0000   1.0000
     1.0000   1.0000   1.0000   1.0000   1.0000   1.0000   1.0000   1.0000
     1.0000   1.0000   1.0000   1.0000   1.0000   1.0000   1.0000   1.0000
     1.0000   1.0000   1.0000   1.0000   1.0000   1.0000   1.0000   1.0000
     1.0000   1.0000   1.0000   1.0000   1.0000   1.0000   1.0000   1.0000
     1.0000   1.0000   1.0000   1.0000   1.0000   1.0000   1.0000   1.0000
     1.0000   1.0000   1.0000   1.0000   1.0000   1.0000  -0.0000  -0.0000
    -0.0000  -0.0000  -0.0000  -0.0000  -0.0000  -0.0000  -0.0000  -0.0000
    -0.0000  -0.0000  -0.0000  -0.0000  -0.0000  -0.0000  -0.0000  -0.0000
    -0.0000  -0.0000  -0.0000  -0.0000  -0.0000  -0.0000  -0.0000  -0.0000
    -0.0000  -0.0000  -0.0000  -0.0000  -0.0000  -0.0000  -0.0000  -0.0000
    -0.0000  -0.0000  -0.0000  -0.0000  -0.0000  -0.0000  -0.0000  -0.0000
    -0.0000  -0.0000  -0.0000  -0.0000

          k =-0.7789 0.0000 0.1677 (  9885 PWs)   bands (ev):

   -39.2439 -39.2439 -39.2435 -39.2435 -39.2407 -39.2407 -39.2406 -39.2406
   -39.0324 -39.0324 -38.9927 -38.9927 -38.3505 -38.3505 -38.3500 -38.3500
   -38.3478 -38.3478 -38.3476 -38.3476 -38.3463 -38.3463 -38.3461 -38.3461
   -38.1410 -38.1410 -38.1240 -38.1240 -38.0896 -38.0896 -15.7546 -15.7546
   -15.7533 -15.7533 -15.7442 -15.7441 -15.7429 -15.7429 -12.7802 -12.7802
   -12.7765 -12.7765 -12.7647 -12.7647 -12.7636 -12.7636 -12.7564 -12.7564
   -12.7546 -12.7546  -4.7066  -4.7066  -4.1580  -4.1580  -3.6257  -3.6257
    -1.1155  -1.1155  -0.7598  -0.7598   4.5699   4.5699   4.9869   4.9869
     5.3463   5.3463   5.7905   5.7905   6.3113   6.3113   6.3517   6.3517
     7.6356   7.6356   8.0966   8.0966   8.1167   8.1167   9.6755   9.6755
    10.0113  10.0113  10.9738  10.9738  12.0068  12.0068  12.4694  12.4694
    12.9610  12.9611  14.0491  14.0491  14.0707  14.0707  16.5147  16.5147
    16.9182  16.9182  17.0983  17.0983  17.2354  17.2354  17.3906  17.3906
    18.3031  18.3031  18.4650  18.4650  18.7079  18.7079  19.4409  19.4409
    20.4401  20.4401  21.0313  21.0313  21.3742  21.3742  21.6311  21.6311
    22.2241  22.2241  22.3027  22.3027

     occupation numbers 
     1.0000   1.0000   1.0000   1.0000   1.0000   1.0000   1.0000   1.0000
     1.0000   1.0000   1.0000   1.0000   1.0000   1.0000   1.0000   1.0000
     1.0000   1.0000   1.0000   1.0000   1.0000   1.0000   1.0000   1.0000
     1.0000   1.0000   1.0000   1.0000   1.0000   1.0000   1.0000   1.0000
     1.0000   1.0000   1.0000   1.0000   1.0000   1.0000   1.0000   1.0000
     1.0000   1.0000   1.0000   1.0000   1.0000   1.0000   1.0000   1.0000
     1.0000   1.0000   1.0000   1.0000   1.0000   1.0000   1.0000   1.0000
     1.0000   1.0000   1.0000   1.0000   1.0000   1.0000   1.0000   1.0000
     1.0000   1.0000   1.0000   1.0000   1.0000   1.0000   1.0000   1.0000
     1.0000   1.0000   1.0000   1.0000   1.0000   1.0000  -0.0000  -0.0000
    -0.0000  -0.0000  -0.0000  -0.0000  -0.0000  -0.0000  -0.0000  -0.0000
    -0.0000  -0.0000  -0.0000  -0.0000  -0.0000  -0.0000  -0.0000  -0.0000
    -0.0000  -0.0000  -0.0000  -0.0000  -0.0000  -0.0000  -0.0000  -0.0000
    -0.0000  -0.0000  -0.0000  -0.0000  -0.0000  -0.0000  -0.0000  -0.0000
    -0.0000  -0.0000  -0.0000  -0.0000  -0.0000  -0.0000  -0.0000  -0.0000
    -0.0000  -0.0000  -0.0000  -0.0000

          k =-1.1504-0.2211 0.3351 (  9870 PWs)   bands (ev):

   -39.2435 -39.2435 -39.2432 -39.2432 -39.2407 -39.2407 -39.2404 -39.2404
   -39.0323 -39.0323 -38.9924 -38.9924 -38.3499 -38.3499 -38.3497 -38.3497
   -38.3479 -38.3479 -38.3476 -38.3476 -38.3461 -38.3461 -38.3458 -38.3458
   -38.1408 -38.1408 -38.1240 -38.1240 -38.0891 -38.0891 -15.7536 -15.7536
   -15.7512 -15.7512 -15.7442 -15.7442 -15.7432 -15.7432 -12.7805 -12.7805
   -12.7769 -12.7769 -12.7658 -12.7658 -12.7638 -12.7638 -12.7535 -12.7535
   -12.7515 -12.7515  -3.9877  -3.9877  -3.7159  -3.7159  -3.4827  -3.4827
    -1.6720  -1.6720  -1.4095  -1.4095   3.7420   3.7420   4.5821   4.5821
     4.9718   4.9718   5.4945   5.4945   6.0512   6.0512   6.3038   6.3038
     6.8347   6.8347   7.4769   7.4769   7.7371   7.7371  10.3003  10.3003
    10.6284  10.6284  11.5865  11.5865  12.1670  12.1670  12.5182  12.5182
    13.0651  13.0651  13.7143  13.7143  15.2443  15.2443  15.6550  15.6550
    17.1565  17.1565  17.7904  17.7904  18.4634  18.4634  18.7684  18.7684
    19.2110  19.2110  19.4675  19.4675  20.1693  20.1693  20.4511  20.4511
    20.7203  20.7203  21.1766  21.1766  21.5249  21.5249  21.8720  21.8720
    22.1707  22.1707  22.5372  22.5372

     occupation numbers 
     1.0000   1.0000   1.0000   1.0000   1.0000   1.0000   1.0000   1.0000
     1.0000   1.0000   1.0000   1.0000   1.0000   1.0000   1.0000   1.0000
     1.0000   1.0000   1.0000   1.0000   1.0000   1.0000   1.0000   1.0000
     1.0000   1.0000   1.0000   1.0000   1.0000   1.0000   1.0000   1.0000
     1.0000   1.0000   1.0000   1.0000   1.0000   1.0000   1.0000   1.0000
     1.0000   1.0000   1.0000   1.0000   1.0000   1.0000   1.0000   1.0000
     1.0000   1.0000   1.0000   1.0000   1.0000   1.0000   1.0000   1.0000
     1.0000   1.0000   1.0000   1.0000   1.0000   1.0000   1.0000   1.0000
     1.0000   1.0000   1.0000   1.0000   1.0000   1.0000   1.0000   1.0000
     1.0000   1.0000   1.0000   1.0000   1.0000   1.0000  -0.0000  -0.0000
    -0.0000  -0.0000  -0.0000  -0.0000  -0.0000  -0.0000  -0.0000  -0.0000
    -0.0000  -0.0000  -0.0000  -0.0000  -0.0000  -0.0000  -0.0000  -0.0000
    -0.0000  -0.0000  -0.0000  -0.0000  -0.0000  -0.0000  -0.0000  -0.0000
    -0.0000  -0.0000  -0.0000  -0.0000  -0.0000  -0.0000  -0.0000  -0.0000
    -0.0000  -0.0000  -0.0000  -0.0000  -0.0000  -0.0000  -0.0000  -0.0000
    -0.0000  -0.0000  -0.0000  -0.0000

          k = 0.7070 0.8844-0.5017 (  9884 PWs)   bands (ev):

   -39.2437 -39.2437 -39.2433 -39.2433 -39.2408 -39.2408 -39.2407 -39.2407
   -39.0325 -39.0325 -38.9925 -38.9925 -38.3502 -38.3502 -38.3498 -38.3498
   -38.3480 -38.3480 -38.3478 -38.3478 -38.3462 -38.3462 -38.3461 -38.3461
   -38.1410 -38.1410 -38.1241 -38.1241 -38.0893 -38.0893 -15.7536 -15.7536
   -15.7512 -15.7512 -15.7442 -15.7442 -15.7432 -15.7432 -12.7805 -12.7805
   -12.7769 -12.7769 -12.7658 -12.7658 -12.7638 -12.7638 -12.7535 -12.7535
   -12.7515 -12.7515  -3.9566  -3.9566  -3.7768  -3.7768  -3.4538  -3.4538
    -1.6588  -1.6588  -1.4218  -1.4218   3.8160   3.8160   4.5480   4.5480
     4.9034   4.9034   5.2566   5.2566   6.1601   6.1601   6.5694   6.5694
     7.0585   7.0585   7.1979   7.1979   7.6886   7.6886  10.3162  10.3162
    10.7486  10.7486  11.4326  11.4326  12.0039  12.0039  12.4730  12.4730
    13.2642  13.2642  13.9447  13.9447  14.7728  14.7728  15.6354  15.6354
    17.5737  17.5737  17.8177  17.8177  18.3960  18.3960  19.1057  19.1057
    19.4170  19.4170  19.6330  19.6331  19.7563  19.7563  20.4918  20.4918
    20.7834  20.7834  21.0687  21.0687  21.2298  21.2298  21.5067  21.5067
    21.8311  21.8311  22.6189  22.6189

     occupation numbers 
     1.0000   1.0000   1.0000   1.0000   1.0000   1.0000   1.0000   1.0000
     1.0000   1.0000   1.0000   1.0000   1.0000   1.0000   1.0000   1.0000
     1.0000   1.0000   1.0000   1.0000   1.0000   1.0000   1.0000   1.0000
     1.0000   1.0000   1.0000   1.0000   1.0000   1.0000   1.0000   1.0000
     1.0000   1.0000   1.0000   1.0000   1.0000   1.0000   1.0000   1.0000
     1.0000   1.0000   1.0000   1.0000   1.0000   1.0000   1.0000   1.0000
     1.0000   1.0000   1.0000   1.0000   1.0000   1.0000   1.0000   1.0000
     1.0000   1.0000   1.0000   1.0000   1.0000   1.0000   1.0000   1.0000
     1.0000   1.0000   1.0000   1.0000   1.0000   1.0000   1.0000   1.0000
     1.0000   1.0000   1.0000   1.0000   1.0000   1.0000  -0.0000  -0.0000
    -0.0000  -0.0000  -0.0000  -0.0000  -0.0000  -0.0000  -0.0000  -0.0000
    -0.0000  -0.0000  -0.0000  -0.0000  -0.0000  -0.0000  -0.0000  -0.0000
    -0.0000  -0.0000  -0.0000  -0.0000  -0.0000  -0.0000  -0.0000  -0.0000
    -0.0000  -0.0000  -0.0000  -0.0000  -0.0000  -0.0000  -0.0000  -0.0000
    -0.0000  -0.0000  -0.0000  -0.0000  -0.0000  -0.0000  -0.0000  -0.0000
    -0.0000  -0.0000  -0.0000  -0.0000

          k = 0.3355 0.6633-0.3343 (  9901 PWs)   bands (ev):

   -39.2441 -39.2441 -39.2438 -39.2438 -39.2411 -39.2411 -39.2405 -39.2405
   -39.0326 -39.0326 -38.9930 -38.9930 -38.3506 -38.3506 -38.3505 -38.3505
   -38.3481 -38.3481 -38.3476 -38.3476 -38.3466 -38.3466 -38.3461 -38.3461
   -38.1412 -38.1412 -38.1241 -38.1241 -38.0899 -38.0899 -15.7546 -15.7546
   -15.7533 -15.7533 -15.7441 -15.7441 -15.7429 -15.7429 -12.7802 -12.7802
   -12.7765 -12.7765 -12.7647 -12.7647 -12.7636 -12.7636 -12.7564 -12.7564
   -12.7546 -12.7546  -4.6853  -4.6853  -4.2181  -4.2181  -3.5783  -3.5783
    -1.1447  -1.1447  -0.7390  -0.7390   4.5284   4.5284   4.9959   4.9959
     5.3056   5.3056   5.8756   5.8756   6.2916   6.2916   6.5050   6.5050
     7.4877   7.4877   8.0150   8.0150   8.0764   8.0764   9.7826   9.7826
    10.0663  10.0663  11.0788  11.0788  11.9561  11.9561  12.3893  12.3893
    12.8948  12.8948  14.1047  14.1047  14.1476  14.1476  15.9893  15.9893
    16.5645  16.5645  17.1382  17.1382  17.4797  17.4797  17.8700  17.8700
    18.3783  18.3783  18.7345  18.7345  18.8130  18.8130  19.6971  19.6971
    20.2932  20.2932  20.5801  20.5801  21.0431  21.0431  21.8286  21.8286
    22.2177  22.2177  22.4271  22.4271

     occupation numbers 
     1.0000   1.0000   1.0000   1.0000   1.0000   1.0000   1.0000   1.0000
     1.0000   1.0000   1.0000   1.0000   1.0000   1.0000   1.0000   1.0000
     1.0000   1.0000   1.0000   1.0000   1.0000   1.0000   1.0000   1.0000
     1.0000   1.0000   1.0000   1.0000   1.0000   1.0000   1.0000   1.0000
     1.0000   1.0000   1.0000   1.0000   1.0000   1.0000   1.0000   1.0000
     1.0000   1.0000   1.0000   1.0000   1.0000   1.0000   1.0000   1.0000
     1.0000   1.0000   1.0000   1.0000   1.0000   1.0000   1.0000   1.0000
     1.0000   1.0000   1.0000   1.0000   1.0000   1.0000   1.0000   1.0000
     1.0000   1.0000   1.0000   1.0000   1.0000   1.0000   1.0000   1.0000
     1.0000   1.0000   1.0000   1.0000   1.0000   1.0000  -0.0000  -0.0000
    -0.0000  -0.0000  -0.0000  -0.0000  -0.0000  -0.0000  -0.0000  -0.0000
    -0.0000  -0.0000  -0.0000  -0.0000  -0.0000  -0.0000  -0.0000  -0.0000
    -0.0000  -0.0000  -0.0000  -0.0000  -0.0000  -0.0000  -0.0000  -0.0000
    -0.0000  -0.0000  -0.0000  -0.0000  -0.0000  -0.0000  -0.0000  -0.0000
    -0.0000  -0.0000  -0.0000  -0.0000  -0.0000  -0.0000  -0.0000  -0.0000
    -0.0000  -0.0000  -0.0000  -0.0000

          k =-0.0360 0.4422-0.1670 (  9921 PWs)   bands (ev):

   -39.2445 -39.2445 -39.2439 -39.2439 -39.2412 -39.2412 -39.2405 -39.2405
   -39.0327 -39.0327 -38.9932 -38.9932 -38.3511 -38.3511 -38.3506 -38.3506
   -38.3482 -38.3482 -38.3477 -38.3477 -38.3469 -38.3469 -38.3461 -38.3461
   -38.1413 -38.1413 -38.1242 -38.1242 -38.0902 -38.0902 -15.7557 -15.7557
   -15.7555 -15.7555 -15.7441 -15.7441 -15.7426 -15.7426 -12.7804 -12.7804
   -12.7785 -12.7785 -12.7628 -12.7628 -12.7625 -12.7625 -12.7588 -12.7588
   -12.7569 -12.7569  -5.1312  -5.1312  -4.5470  -4.5470  -3.7805  -3.7805
    -0.8456  -0.8456  -0.2021  -0.2021   5.2718   5.2718   5.6924   5.6924
     5.9785   5.9785   6.4728   6.4728   6.8006   6.8006   7.2219   7.2219
     7.4953   7.4953   7.9047   7.9047   8.1100   8.1100   9.5141   9.5141
     9.7765   9.7765  10.8767  10.8767  11.2223  11.2223  11.9240  11.9240
    12.3418  12.3418  14.1733  14.1733  14.8006  14.8006  15.9963  15.9963
    16.1542  16.1542  16.5591  16.5591  17.1327  17.1327  17.2529  17.2529
    17.4613  17.4613  18.2386  18.2386  18.3655  18.3655  18.7051  18.7051
    18.9963  18.9963  19.7444  19.7444  20.0025  20.0025  20.4338  20.4338
    20.9649  20.9650  21.5090  21.5091

     occupation numbers 
     1.0000   1.0000   1.0000   1.0000   1.0000   1.0000   1.0000   1.0000
     1.0000   1.0000   1.0000   1.0000   1.0000   1.0000   1.0000   1.0000
     1.0000   1.0000   1.0000   1.0000   1.0000   1.0000   1.0000   1.0000
     1.0000   1.0000   1.0000   1.0000   1.0000   1.0000   1.0000   1.0000
     1.0000   1.0000   1.0000   1.0000   1.0000   1.0000   1.0000   1.0000
     1.0000   1.0000   1.0000   1.0000   1.0000   1.0000   1.0000   1.0000
     1.0000   1.0000   1.0000   1.0000   1.0000   1.0000   1.0000   1.0000
     1.0000   1.0000   1.0000   1.0000   1.0000   1.0000   1.0000   1.0000
     1.0000   1.0000   1.0000   1.0000   1.0000   1.0000   1.0000   1.0000
     1.0000   1.0000   1.0000   1.0000   1.0000   1.0000  -0.0000  -0.0000
    -0.0000  -0.0000  -0.0000  -0.0000  -0.0000  -0.0000  -0.0000  -0.0000
    -0.0000  -0.0000  -0.0000  -0.0000  -0.0000  -0.0000  -0.0000  -0.0000
    -0.0000  -0.0000  -0.0000  -0.0000  -0.0000  -0.0000  -0.0000  -0.0000
    -0.0000  -0.0000  -0.0000  -0.0000  -0.0000  -0.0000  -0.0000  -0.0000
    -0.0000  -0.0000  -0.0000  -0.0000  -0.0000  -0.0000  -0.0000  -0.0000
    -0.0000  -0.0000  -0.0000  -0.0000

          k =-0.4075 0.6846 0.0000 (  9885 PWs)   bands (ev):

   -39.2439 -39.2439 -39.2435 -39.2435 -39.2407 -39.2407 -39.2406 -39.2406
   -39.0324 -39.0324 -38.9927 -38.9927 -38.3505 -38.3505 -38.3500 -38.3500
   -38.3478 -38.3478 -38.3476 -38.3476 -38.3463 -38.3463 -38.3461 -38.3461
   -38.1410 -38.1410 -38.1240 -38.1240 -38.0896 -38.0896 -15.7546 -15.7546
   -15.7533 -15.7533 -15.7442 -15.7441 -15.7429 -15.7429 -12.7802 -12.7802
   -12.7765 -12.7765 -12.7647 -12.7647 -12.7636 -12.7636 -12.7564 -12.7564
   -12.7546 -12.7546  -4.7066  -4.7066  -4.1580  -4.1580  -3.6257  -3.6257
    -1.1155  -1.1155  -0.7598  -0.7598   4.5699   4.5699   4.9869   4.9869
     5.3463   5.3463   5.7905   5.7905   6.3113   6.3113   6.3517   6.3517
     7.6356   7.6356   8.0966   8.0966   8.1167   8.1167   9.6755   9.6755
    10.0113  10.0113  10.9738  10.9738  12.0068  12.0068  12.4694  12.4694
    12.9611  12.9611  14.0491  14.0491  14.0707  14.0707  16.5147  16.5147
    16.9182  16.9182  17.0983  17.0983  17.2354  17.2354  17.3906  17.3906
    18.3031  18.3031  18.4650  18.4650  18.7079  18.7079  19.4409  19.4409
    20.4401  20.4401  21.0313  21.0313  21.3742  21.3742  21.6311  21.6312
    22.2241  22.2241  22.3027  22.3027

     occupation numbers 
     1.0000   1.0000   1.0000   1.0000   1.0000   1.0000   1.0000   1.0000
     1.0000   1.0000   1.0000   1.0000   1.0000   1.0000   1.0000   1.0000
     1.0000   1.0000   1.0000   1.0000   1.0000   1.0000   1.0000   1.0000
     1.0000   1.0000   1.0000   1.0000   1.0000   1.0000   1.0000   1.0000
     1.0000   1.0000   1.0000   1.0000   1.0000   1.0000   1.0000   1.0000
     1.0000   1.0000   1.0000   1.0000   1.0000   1.0000   1.0000   1.0000
     1.0000   1.0000   1.0000   1.0000   1.0000   1.0000   1.0000   1.0000
     1.0000   1.0000   1.0000   1.0000   1.0000   1.0000   1.0000   1.0000
     1.0000   1.0000   1.0000   1.0000   1.0000   1.0000   1.0000   1.0000
     1.0000   1.0000   1.0000   1.0000   1.0000   1.0000  -0.0000  -0.0000
    -0.0000  -0.0000  -0.0000  -0.0000  -0.0000  -0.0000  -0.0000  -0.0000
    -0.0000  -0.0000  -0.0000  -0.0000  -0.0000  -0.0000  -0.0000  -0.0000
    -0.0000  -0.0000  -0.0000  -0.0000  -0.0000  -0.0000  -0.0000  -0.0000
    -0.0000  -0.0000  -0.0000  -0.0000  -0.0000  -0.0000  -0.0000  -0.0000
    -0.0000  -0.0000  -0.0000  -0.0000  -0.0000  -0.0000  -0.0000  -0.0000
    -0.0000  -0.0000  -0.0000  -0.0000

          k =-0.7790 0.4635 0.1673 (  9895 PWs)   bands (ev):

   -39.2442 -39.2442 -39.2435 -39.2435 -39.2410 -39.2410 -39.2405 -39.2405
   -39.0325 -39.0325 -38.9929 -38.9929 -38.3508 -38.3508 -38.3501 -38.3501
   -38.3481 -38.3481 -38.3475 -38.3475 -38.3465 -38.3465 -38.3460 -38.3460
   -38.1411 -38.1411 -38.1241 -38.1241 -38.0898 -38.0898 -15.7537 -15.7537
   -15.7535 -15.7535 -15.7440 -15.7439 -15.7429 -15.7429 -12.7810 -12.7810
   -12.7786 -12.7786 -12.7649 -12.7649 -12.7632 -12.7632 -12.7549 -12.7549
   -12.7522 -12.7522  -4.5077  -4.5077  -4.0159  -4.0159  -3.5818  -3.5818
    -1.3311  -1.3311  -0.9026  -0.9026   3.9421   3.9421   5.0949   5.0949
     5.4976   5.4976   5.8509   5.8509   6.2367   6.2367   6.6513   6.6513
     7.0982   7.0982   7.4197   7.4197   7.7942   7.7942   9.7884   9.7884
    10.7784  10.7784  11.1497  11.1497  11.8194  11.8194  12.3796  12.3796
    12.9256  12.9256  13.1113  13.1113  15.5268  15.5268  16.2115  16.2115
    16.9085  16.9085  17.4147  17.4147  17.5144  17.5144  17.9641  17.9641
    18.9494  18.9494  19.1251  19.1251  19.2606  19.2606  19.8434  19.8434
    20.0913  20.0913  20.4044  20.4044  21.1773  21.1773  22.6378  22.6378
    22.9791  22.9792  23.1160  23.1160

     occupation numbers 
     1.0000   1.0000   1.0000   1.0000   1.0000   1.0000   1.0000   1.0000
     1.0000   1.0000   1.0000   1.0000   1.0000   1.0000   1.0000   1.0000
     1.0000   1.0000   1.0000   1.0000   1.0000   1.0000   1.0000   1.0000
     1.0000   1.0000   1.0000   1.0000   1.0000   1.0000   1.0000   1.0000
     1.0000   1.0000   1.0000   1.0000   1.0000   1.0000   1.0000   1.0000
     1.0000   1.0000   1.0000   1.0000   1.0000   1.0000   1.0000   1.0000
     1.0000   1.0000   1.0000   1.0000   1.0000   1.0000   1.0000   1.0000
     1.0000   1.0000   1.0000   1.0000   1.0000   1.0000   1.0000   1.0000
     1.0000   1.0000   1.0000   1.0000   1.0000   1.0000   1.0000   1.0000
     1.0000   1.0000   1.0000   1.0000   1.0000   1.0000  -0.0000  -0.0000
    -0.0000  -0.0000  -0.0000  -0.0000  -0.0000  -0.0000  -0.0000  -0.0000
    -0.0000  -0.0000  -0.0000  -0.0000  -0.0000  -0.0000  -0.0000  -0.0000
    -0.0000  -0.0000  -0.0000  -0.0000  -0.0000  -0.0000  -0.0000  -0.0000
    -0.0000  -0.0000  -0.0000  -0.0000  -0.0000  -0.0000  -0.0000  -0.0000
    -0.0000  -0.0000  -0.0000  -0.0000  -0.0000  -0.0000  -0.0000  -0.0000
    -0.0000  -0.0000  -0.0000  -0.0000

          k =-1.1504 0.2425 0.3347 (  9868 PWs)   bands (ev):

   -39.2435 -39.2435 -39.2431 -39.2431 -39.2407 -39.2407 -39.2404 -39.2404
   -39.0323 -39.0323 -38.9923 -38.9923 -38.3500 -38.3500 -38.3495 -38.3495
   -38.3478 -38.3478 -38.3475 -38.3475 -38.3461 -38.3461 -38.3459 -38.3459
   -38.1408 -38.1408 -38.1239 -38.1239 -38.0891 -38.0891 -15.7536 -15.7536
   -15.7512 -15.7512 -15.7442 -15.7442 -15.7432 -15.7432 -12.7805 -12.7805
   -12.7769 -12.7769 -12.7658 -12.7658 -12.7638 -12.7638 -12.7535 -12.7535
   -12.7516 -12.7516  -3.9913  -3.9913  -3.6992  -3.6992  -3.4975  -3.4975
    -1.6690  -1.6690  -1.4111  -1.4111   3.7604   3.7604   4.6696   4.6696
     5.0006   5.0006   5.4619   5.4619   5.7747   5.7747   6.1118   6.1118
     6.9226   6.9226   7.8148   7.8148   7.9786   7.9786   9.9917   9.9917
    10.4100  10.4100  11.5889  11.5889  12.1314  12.1314  12.7375  12.7375
    13.1866  13.1866  13.5393  13.5393  15.6739  15.6739  15.9353  15.9353
    16.6765  16.6765  17.4647  17.4647  17.8968  17.8968  19.0939  19.0939
    19.2942  19.2942  19.4821  19.4821  20.1234  20.1234  20.5333  20.5333
    20.8586  20.8586  21.1875  21.1875  21.8481  21.8481  22.1787  22.1787
    22.5396  22.5397  23.0015  23.0024

     occupation numbers 
     1.0000   1.0000   1.0000   1.0000   1.0000   1.0000   1.0000   1.0000
     1.0000   1.0000   1.0000   1.0000   1.0000   1.0000   1.0000   1.0000
     1.0000   1.0000   1.0000   1.0000   1.0000   1.0000   1.0000   1.0000
     1.0000   1.0000   1.0000   1.0000   1.0000   1.0000   1.0000   1.0000
     1.0000   1.0000   1.0000   1.0000   1.0000   1.0000   1.0000   1.0000
     1.0000   1.0000   1.0000   1.0000   1.0000   1.0000   1.0000   1.0000
     1.0000   1.0000   1.0000   1.0000   1.0000   1.0000   1.0000   1.0000
     1.0000   1.0000   1.0000   1.0000   1.0000   1.0000   1.0000   1.0000
     1.0000   1.0000   1.0000   1.0000   1.0000   1.0000   1.0000   1.0000
     1.0000   1.0000   1.0000   1.0000   1.0000   1.0000  -0.0000  -0.0000
    -0.0000  -0.0000  -0.0000  -0.0000  -0.0000  -0.0000  -0.0000  -0.0000
    -0.0000  -0.0000  -0.0000  -0.0000  -0.0000  -0.0000  -0.0000  -0.0000
    -0.0000  -0.0000  -0.0000  -0.0000  -0.0000  -0.0000  -0.0000  -0.0000
    -0.0000  -0.0000  -0.0000  -0.0000  -0.0000  -0.0000  -0.0000  -0.0000
    -0.0000  -0.0000  -0.0000  -0.0000  -0.0000  -0.0000  -0.0000  -0.0000
    -0.0000  -0.0000  -0.0000  -0.0000

          k = 0.7069 1.3479-0.5020 (  9892 PWs)   bands (ev):

   -39.2437 -39.2437 -39.2435 -39.2435 -39.2410 -39.2410 -39.2405 -39.2405
   -39.0325 -39.0325 -38.9927 -38.9927 -38.3502 -38.3502 -38.3501 -38.3501
   -38.3479 -38.3479 -38.3475 -38.3475 -38.3465 -38.3465 -38.3462 -38.3461
   -38.1411 -38.1411 -38.1240 -38.1240 -38.0895 -38.0895 -15.7534 -15.7533
   -15.7497 -15.7497 -15.7447 -15.7447 -15.7433 -15.7433 -12.7764 -12.7764
   -12.7743 -12.7743 -12.7691 -12.7691 -12.7650 -12.7650 -12.7531 -12.7531
   -12.7530 -12.7530  -3.5746  -3.5745  -3.5450  -3.5450  -3.4602  -3.4602
    -1.8291  -1.8291  -1.8086  -1.8086   3.8638   3.8638   4.3799   4.3799
     4.5826   4.5826   4.9836   4.9836   5.6588   5.6588   6.1823   6.1823
     6.9185   6.9185   7.6780   7.6780   7.9589   7.9589  10.0631  10.0631
    10.8387  10.8387  11.5429  11.5429  12.5083  12.5083  12.9012  12.9012
    13.2937  13.2937  15.0402  15.0402  15.7057  15.7057  15.9262  15.9262
    16.0847  16.0847  16.4324  16.4324  17.8204  17.8204  18.5085  18.5085
    19.0322  19.0322  19.9328  19.9328  20.0913  20.0913  20.5526  20.5526
    20.7331  20.7331  21.3015  21.3015  22.2672  22.2672  22.3993  22.3993
    23.2931  23.2931  23.4172  23.4172

     occupation numbers 
     1.0000   1.0000   1.0000   1.0000   1.0000   1.0000   1.0000   1.0000
     1.0000   1.0000   1.0000   1.0000   1.0000   1.0000   1.0000   1.0000
     1.0000   1.0000   1.0000   1.0000   1.0000   1.0000   1.0000   1.0000
     1.0000   1.0000   1.0000   1.0000   1.0000   1.0000   1.0000   1.0000
     1.0000   1.0000   1.0000   1.0000   1.0000   1.0000   1.0000   1.0000
     1.0000   1.0000   1.0000   1.0000   1.0000   1.0000   1.0000   1.0000
     1.0000   1.0000   1.0000   1.0000   1.0000   1.0000   1.0000   1.0000
     1.0000   1.0000   1.0000   1.0000   1.0000   1.0000   1.0000   1.0000
     1.0000   1.0000   1.0000   1.0000   1.0000   1.0000   1.0000   1.0000
     1.0000   1.0000   1.0000   1.0000   1.0000   1.0000  -0.0000  -0.0000
    -0.0000  -0.0000  -0.0000  -0.0000  -0.0000  -0.0000  -0.0000  -0.0000
    -0.0000  -0.0000  -0.0000  -0.0000  -0.0000  -0.0000  -0.0000  -0.0000
    -0.0000  -0.0000  -0.0000  -0.0000  -0.0000  -0.0000  -0.0000  -0.0000
    -0.0000  -0.0000  -0.0000  -0.0000  -0.0000  -0.0000  -0.0000  -0.0000
    -0.0000  -0.0000  -0.0000  -0.0000  -0.0000  -0.0000  -0.0000  -0.0000
    -0.0000  -0.0000  -0.0000  -0.0000

          k = 0.3354 1.1268-0.3347 (  9868 PWs)   bands (ev):

   -39.2435 -39.2435 -39.2431 -39.2431 -39.2407 -39.2407 -39.2404 -39.2404
   -39.0323 -39.0323 -38.9923 -38.9923 -38.3500 -38.3500 -38.3495 -38.3495
   -38.3478 -38.3478 -38.3475 -38.3475 -38.3461 -38.3461 -38.3459 -38.3459
   -38.1408 -38.1408 -38.1239 -38.1239 -38.0891 -38.0891 -15.7536 -15.7536
   -15.7512 -15.7512 -15.7442 -15.7442 -15.7432 -15.7432 -12.7805 -12.7805
   -12.7769 -12.7769 -12.7658 -12.7658 -12.7638 -12.7638 -12.7535 -12.7535
   -12.7516 -12.7516  -3.9913  -3.9913  -3.6992  -3.6992  -3.4975  -3.4975
    -1.6690  -1.6690  -1.4111  -1.4111   3.7604   3.7604   4.6696   4.6696
     5.0006   5.0006   5.4619   5.4619   5.7747   5.7747   6.1118   6.1118
     6.9226   6.9226   7.8148   7.8148   7.9786   7.9786   9.9917   9.9917
    10.4100  10.4100  11.5889  11.5889  12.1314  12.1314  12.7375  12.7375
    13.1866  13.1866  13.5393  13.5393  15.6739  15.6739  15.9353  15.9353
    16.6765  16.6765  17.4647  17.4647  17.8968  17.8968  19.0939  19.0939
    19.2942  19.2942  19.4821  19.4821  20.1234  20.1234  20.5333  20.5333
    20.8586  20.8586  21.1875  21.1875  21.8481  21.8481  22.1787  22.1787
    22.5396  22.5396  23.0017  23.0028

     occupation numbers 
     1.0000   1.0000   1.0000   1.0000   1.0000   1.0000   1.0000   1.0000
     1.0000   1.0000   1.0000   1.0000   1.0000   1.0000   1.0000   1.0000
     1.0000   1.0000   1.0000   1.0000   1.0000   1.0000   1.0000   1.0000
     1.0000   1.0000   1.0000   1.0000   1.0000   1.0000   1.0000   1.0000
     1.0000   1.0000   1.0000   1.0000   1.0000   1.0000   1.0000   1.0000
     1.0000   1.0000   1.0000   1.0000   1.0000   1.0000   1.0000   1.0000
     1.0000   1.0000   1.0000   1.0000   1.0000   1.0000   1.0000   1.0000
     1.0000   1.0000   1.0000   1.0000   1.0000   1.0000   1.0000   1.0000
     1.0000   1.0000   1.0000   1.0000   1.0000   1.0000   1.0000   1.0000
     1.0000   1.0000   1.0000   1.0000   1.0000   1.0000  -0.0000  -0.0000
    -0.0000  -0.0000  -0.0000  -0.0000  -0.0000  -0.0000  -0.0000  -0.0000
    -0.0000  -0.0000  -0.0000  -0.0000  -0.0000  -0.0000  -0.0000  -0.0000
    -0.0000  -0.0000  -0.0000  -0.0000  -0.0000  -0.0000  -0.0000  -0.0000
    -0.0000  -0.0000  -0.0000  -0.0000  -0.0000  -0.0000  -0.0000  -0.0000
    -0.0000  -0.0000  -0.0000  -0.0000  -0.0000  -0.0000  -0.0000  -0.0000
    -0.0000  -0.0000  -0.0000  -0.0000

          k =-0.0360 0.9057-0.1673 (  9895 PWs)   bands (ev):

   -39.2442 -39.2442 -39.2435 -39.2435 -39.2410 -39.2410 -39.2405 -39.2405
   -39.0325 -39.0325 -38.9929 -38.9929 -38.3508 -38.3508 -38.3501 -38.3501
   -38.3481 -38.3481 -38.3475 -38.3475 -38.3465 -38.3465 -38.3460 -38.3460
   -38.1411 -38.1411 -38.1241 -38.1241 -38.0898 -38.0898 -15.7537 -15.7537
   -15.7535 -15.7535 -15.7440 -15.7439 -15.7429 -15.7429 -12.7810 -12.7810
   -12.7786 -12.7786 -12.7649 -12.7649 -12.7632 -12.7632 -12.7549 -12.7549
   -12.7522 -12.7522  -4.5077  -4.5077  -4.0159  -4.0159  -3.5818  -3.5818
    -1.3311  -1.3311  -0.9026  -0.9026   3.9421   3.9421   5.0949   5.0949
     5.4976   5.4976   5.8509   5.8509   6.2367   6.2367   6.6513   6.6513
     7.0982   7.0982   7.4197   7.4197   7.7942   7.7942   9.7884   9.7884
    10.7784  10.7784  11.1497  11.1497  11.8194  11.8194  12.3796  12.3796
    12.9256  12.9256  13.1113  13.1113  15.5268  15.5268  16.2115  16.2115
    16.9085  16.9085  17.4147  17.4147  17.5144  17.5144  17.9641  17.9641
    18.9494  18.9494  19.1251  19.1251  19.2606  19.2606  19.8434  19.8434
    20.0913  20.0913  20.4044  20.4044  21.1773  21.1773  22.6378  22.6378
    22.9791  22.9791  23.1160  23.1160

     occupation numbers 
     1.0000   1.0000   1.0000   1.0000   1.0000   1.0000   1.0000   1.0000
     1.0000   1.0000   1.0000   1.0000   1.0000   1.0000   1.0000   1.0000
     1.0000   1.0000   1.0000   1.0000   1.0000   1.0000   1.0000   1.0000
     1.0000   1.0000   1.0000   1.0000   1.0000   1.0000   1.0000   1.0000
     1.0000   1.0000   1.0000   1.0000   1.0000   1.0000   1.0000   1.0000
     1.0000   1.0000   1.0000   1.0000   1.0000   1.0000   1.0000   1.0000
     1.0000   1.0000   1.0000   1.0000   1.0000   1.0000   1.0000   1.0000
     1.0000   1.0000   1.0000   1.0000   1.0000   1.0000   1.0000   1.0000
     1.0000   1.0000   1.0000   1.0000   1.0000   1.0000   1.0000   1.0000
     1.0000   1.0000   1.0000   1.0000   1.0000   1.0000  -0.0000  -0.0000
    -0.0000  -0.0000  -0.0000  -0.0000  -0.0000  -0.0000  -0.0000  -0.0000
    -0.0000  -0.0000  -0.0000  -0.0000  -0.0000  -0.0000  -0.0000  -0.0000
    -0.0000  -0.0000  -0.0000  -0.0000  -0.0000  -0.0000  -0.0000  -0.0000
    -0.0000  -0.0000  -0.0000  -0.0000  -0.0000  -0.0000  -0.0000  -0.0000
    -0.0000  -0.0000  -0.0000  -0.0000  -0.0000  -0.0000  -0.0000  -0.0000
    -0.0000  -0.0000  -0.0000  -0.0000

          k =-0.4076 1.1482-0.0004 (  9870 PWs)   bands (ev):

   -39.2435 -39.2435 -39.2432 -39.2432 -39.2407 -39.2407 -39.2404 -39.2404
   -39.0323 -39.0323 -38.9924 -38.9924 -38.3499 -38.3499 -38.3497 -38.3497
   -38.3479 -38.3479 -38.3476 -38.3476 -38.3461 -38.3461 -38.3458 -38.3458
   -38.1408 -38.1408 -38.1240 -38.1240 -38.0891 -38.0891 -15.7536 -15.7536
   -15.7512 -15.7512 -15.7442 -15.7442 -15.7432 -15.7432 -12.7805 -12.7805
   -12.7769 -12.7769 -12.7658 -12.7658 -12.7638 -12.7638 -12.7535 -12.7535
   -12.7515 -12.7515  -3.9877  -3.9877  -3.7159  -3.7159  -3.4827  -3.4827
    -1.6720  -1.6720  -1.4095  -1.4095   3.7420   3.7420   4.5821   4.5821
     4.9718   4.9718   5.4945   5.4945   6.0512   6.0512   6.3038   6.3038
     6.8347   6.8347   7.4769   7.4769   7.7371   7.7371  10.3003  10.3003
    10.6284  10.6284  11.5865  11.5865  12.1670  12.1670  12.5182  12.5182
    13.0651  13.0651  13.7143  13.7143  15.2443  15.2443  15.6550  15.6550
    17.1565  17.1565  17.7904  17.7904  18.4634  18.4634  18.7684  18.7684
    19.2110  19.2110  19.4675  19.4675  20.1693  20.1693  20.4511  20.4511
    20.7203  20.7203  21.1766  21.1766  21.5249  21.5249  21.8720  21.8720
    22.1707  22.1707  22.5372  22.5372

     occupation numbers 
     1.0000   1.0000   1.0000   1.0000   1.0000   1.0000   1.0000   1.0000
     1.0000   1.0000   1.0000   1.0000   1.0000   1.0000   1.0000   1.0000
     1.0000   1.0000   1.0000   1.0000   1.0000   1.0000   1.0000   1.0000
     1.0000   1.0000   1.0000   1.0000   1.0000   1.0000   1.0000   1.0000
     1.0000   1.0000   1.0000   1.0000   1.0000   1.0000   1.0000   1.0000
     1.0000   1.0000   1.0000   1.0000   1.0000   1.0000   1.0000   1.0000
     1.0000   1.0000   1.0000   1.0000   1.0000   1.0000   1.0000   1.0000
     1.0000   1.0000   1.0000   1.0000   1.0000   1.0000   1.0000   1.0000
     1.0000   1.0000   1.0000   1.0000   1.0000   1.0000   1.0000   1.0000
     1.0000   1.0000   1.0000   1.0000   1.0000   1.0000  -0.0000  -0.0000
    -0.0000  -0.0000  -0.0000  -0.0000  -0.0000  -0.0000  -0.0000  -0.0000
    -0.0000  -0.0000  -0.0000  -0.0000  -0.0000  -0.0000  -0.0000  -0.0000
    -0.0000  -0.0000  -0.0000  -0.0000  -0.0000  -0.0000  -0.0000  -0.0000
    -0.0000  -0.0000  -0.0000  -0.0000  -0.0000  -0.0000  -0.0000  -0.0000
    -0.0000  -0.0000  -0.0000  -0.0000  -0.0000  -0.0000  -0.0000  -0.0000
    -0.0000  -0.0000  -0.0000  -0.0000

          k =-0.7790 0.9271 0.1670 (  9868 PWs)   bands (ev):

   -39.2435 -39.2435 -39.2431 -39.2431 -39.2407 -39.2407 -39.2404 -39.2404
   -39.0323 -39.0323 -38.9923 -38.9923 -38.3500 -38.3500 -38.3495 -38.3495
   -38.3478 -38.3478 -38.3475 -38.3475 -38.3461 -38.3461 -38.3459 -38.3459
   -38.1408 -38.1408 -38.1239 -38.1239 -38.0891 -38.0891 -15.7536 -15.7536
   -15.7512 -15.7512 -15.7442 -15.7442 -15.7432 -15.7432 -12.7805 -12.7805
   -12.7769 -12.7769 -12.7658 -12.7658 -12.7638 -12.7638 -12.7535 -12.7535
   -12.7516 -12.7516  -3.9913  -3.9913  -3.6992  -3.6992  -3.4975  -3.4975
    -1.6690  -1.6690  -1.4111  -1.4111   3.7604   3.7604   4.6696   4.6696
     5.0006   5.0006   5.4619   5.4619   5.7747   5.7747   6.1118   6.1118
     6.9226   6.9226   7.8148   7.8148   7.9786   7.9786   9.9917   9.9917
    10.4100  10.4100  11.5889  11.5889  12.1314  12.1314  12.7375  12.7375
    13.1866  13.1866  13.5393  13.5393  15.6739  15.6739  15.9353  15.9353
    16.6765  16.6765  17.4647  17.4647  17.8968  17.8968  19.0939  19.0939
    19.2942  19.2942  19.4821  19.4821  20.1234  20.1234  20.5333  20.5333
    20.8586  20.8586  21.1875  21.1875  21.8481  21.8481  22.1787  22.1787
    22.5396  22.5397  23.0017  23.0024

     occupation numbers 
     1.0000   1.0000   1.0000   1.0000   1.0000   1.0000   1.0000   1.0000
     1.0000   1.0000   1.0000   1.0000   1.0000   1.0000   1.0000   1.0000
     1.0000   1.0000   1.0000   1.0000   1.0000   1.0000   1.0000   1.0000
     1.0000   1.0000   1.0000   1.0000   1.0000   1.0000   1.0000   1.0000
     1.0000   1.0000   1.0000   1.0000   1.0000   1.0000   1.0000   1.0000
     1.0000   1.0000   1.0000   1.0000   1.0000   1.0000   1.0000   1.0000
     1.0000   1.0000   1.0000   1.0000   1.0000   1.0000   1.0000   1.0000
     1.0000   1.0000   1.0000   1.0000   1.0000   1.0000   1.0000   1.0000
     1.0000   1.0000   1.0000   1.0000   1.0000   1.0000   1.0000   1.0000
     1.0000   1.0000   1.0000   1.0000   1.0000   1.0000  -0.0000  -0.0000
    -0.0000  -0.0000  -0.0000  -0.0000  -0.0000  -0.0000  -0.0000  -0.0000
    -0.0000  -0.0000  -0.0000  -0.0000  -0.0000  -0.0000  -0.0000  -0.0000
    -0.0000  -0.0000  -0.0000  -0.0000  -0.0000  -0.0000  -0.0000  -0.0000
    -0.0000  -0.0000  -0.0000  -0.0000  -0.0000  -0.0000  -0.0000  -0.0000
    -0.0000  -0.0000  -0.0000  -0.0000  -0.0000  -0.0000  -0.0000  -0.0000
    -0.0000  -0.0000  -0.0000  -0.0000

          k =-1.1505 0.7060 0.3343 (  9889 PWs)   bands (ev):

   -39.2436 -39.2436 -39.2435 -39.2435 -39.2411 -39.2411 -39.2406 -39.2406
   -39.0326 -39.0326 -38.9926 -38.9926 -38.3502 -38.3502 -38.3499 -38.3499
   -38.3481 -38.3481 -38.3477 -38.3477 -38.3465 -38.3465 -38.3460 -38.3460
   -38.1411 -38.1411 -38.1242 -38.1242 -38.0893 -38.0893 -15.7527 -15.7527
   -15.7527 -15.7527 -15.7434 -15.7434 -15.7433 -15.7433 -12.7826 -12.7826
   -12.7808 -12.7808 -12.7650 -12.7650 -12.7625 -12.7625 -12.7521 -12.7521
   -12.7490 -12.7490  -3.8384  -3.8384  -3.7134  -3.7134  -3.6428  -3.6428
    -1.7831  -1.7831  -1.3211  -1.3211   3.6720   3.6720   4.7020   4.7020
     4.9683   4.9683   5.5987   5.5987   5.9418   5.9418   6.5884   6.5884
     7.1380   7.1380   7.4522   7.4522   7.6512   7.6512   9.7176   9.7176
    10.7373  10.7373  11.1553  11.1553  11.4787  11.4787  12.5180  12.5180
    12.9431  12.9431  13.7533  13.7533  15.2712  15.2712  16.6989  16.6989
    17.7800  17.7800  18.1704  18.1704  19.0857  19.0857  19.1694  19.1694
    19.3195  19.3195  19.7781  19.7781  20.4585  20.4585  20.6912  20.6912
    20.7242  20.7242  21.1741  21.1741  21.3458  21.3458  21.6925  21.6925
    21.8094  21.8094  22.4735  22.4735

     occupation numbers 
     1.0000   1.0000   1.0000   1.0000   1.0000   1.0000   1.0000   1.0000
     1.0000   1.0000   1.0000   1.0000   1.0000   1.0000   1.0000   1.0000
     1.0000   1.0000   1.0000   1.0000   1.0000   1.0000   1.0000   1.0000
     1.0000   1.0000   1.0000   1.0000   1.0000   1.0000   1.0000   1.0000
     1.0000   1.0000   1.0000   1.0000   1.0000   1.0000   1.0000   1.0000
     1.0000   1.0000   1.0000   1.0000   1.0000   1.0000   1.0000   1.0000
     1.0000   1.0000   1.0000   1.0000   1.0000   1.0000   1.0000   1.0000
     1.0000   1.0000   1.0000   1.0000   1.0000   1.0000   1.0000   1.0000
     1.0000   1.0000   1.0000   1.0000   1.0000   1.0000   1.0000   1.0000
     1.0000   1.0000   1.0000   1.0000   1.0000   1.0000  -0.0000  -0.0000
    -0.0000  -0.0000  -0.0000  -0.0000  -0.0000  -0.0000  -0.0000  -0.0000
    -0.0000  -0.0000  -0.0000  -0.0000  -0.0000  -0.0000  -0.0000  -0.0000
    -0.0000  -0.0000  -0.0000  -0.0000  -0.0000  -0.0000  -0.0000  -0.0000
    -0.0000  -0.0000  -0.0000  -0.0000  -0.0000  -0.0000  -0.0000  -0.0000
    -0.0000  -0.0000  -0.0000  -0.0000  -0.0000  -0.0000  -0.0000  -0.0000
    -0.0000  -0.0000  -0.0000  -0.0000

          k = 0.7068 1.8115-0.5024 (  9872 PWs)   bands (ev):

   -39.2434 -39.2434 -39.2432 -39.2432 -39.2407 -39.2407 -39.2405 -39.2405
   -39.0324 -39.0324 -38.9923 -38.9923 -38.3499 -38.3499 -38.3496 -38.3496
   -38.3477 -38.3477 -38.3476 -38.3476 -38.3462 -38.3462 -38.3459 -38.3459
   -38.1409 -38.1409 -38.1239 -38.1239 -38.0891 -38.0891 -15.7536 -15.7536
   -15.7512 -15.7512 -15.7442 -15.7442 -15.7432 -15.7432 -12.7805 -12.7805
   -12.7769 -12.7769 -12.7658 -12.7658 -12.7638 -12.7638 -12.7535 -12.7535
   -12.7516 -12.7516  -3.9215  -3.9215  -3.8195  -3.8195  -3.4504  -3.4504
    -1.6370  -1.6370  -1.4400  -1.4400   3.9806   3.9806   4.6141   4.6141
     4.7801   4.7801   5.1502   5.1502   5.7488   5.7488   6.2106   6.2106
     7.4693   7.4693   7.7493   7.7493   8.1229   8.1229   9.7329   9.7329
    10.4372  10.4372  11.0895  11.0895  12.1472  12.1472  12.7703  12.7703
    13.5047  13.5047  13.7073  13.7073  15.3010  15.3010  15.8753  15.8753
    17.0029  17.0029  17.5524  17.5524  17.8500  17.8500  19.1936  19.1936
    19.3080  19.3080  19.7522  19.7522  20.3142  20.3142  20.7054  20.7054
    20.8016  20.8016  21.1923  21.1923  21.2658  21.2658  21.8772  21.8772
    22.4386  22.4386  22.5666  22.5666

     occupation numbers 
     1.0000   1.0000   1.0000   1.0000   1.0000   1.0000   1.0000   1.0000
     1.0000   1.0000   1.0000   1.0000   1.0000   1.0000   1.0000   1.0000
     1.0000   1.0000   1.0000   1.0000   1.0000   1.0000   1.0000   1.0000
     1.0000   1.0000   1.0000   1.0000   1.0000   1.0000   1.0000   1.0000
     1.0000   1.0000   1.0000   1.0000   1.0000   1.0000   1.0000   1.0000
     1.0000   1.0000   1.0000   1.0000   1.0000   1.0000   1.0000   1.0000
     1.0000   1.0000   1.0000   1.0000   1.0000   1.0000   1.0000   1.0000
     1.0000   1.0000   1.0000   1.0000   1.0000   1.0000   1.0000   1.0000
     1.0000   1.0000   1.0000   1.0000   1.0000   1.0000   1.0000   1.0000
     1.0000   1.0000   1.0000   1.0000   1.0000   1.0000  -0.0000  -0.0000
    -0.0000  -0.0000  -0.0000  -0.0000  -0.0000  -0.0000  -0.0000  -0.0000
    -0.0000  -0.0000  -0.0000  -0.0000  -0.0000  -0.0000  -0.0000  -0.0000
    -0.0000  -0.0000  -0.0000  -0.0000  -0.0000  -0.0000  -0.0000  -0.0000
    -0.0000  -0.0000  -0.0000  -0.0000  -0.0000  -0.0000  -0.0000  -0.0000
    -0.0000  -0.0000  -0.0000  -0.0000  -0.0000  -0.0000  -0.0000  -0.0000
    -0.0000  -0.0000  -0.0000  -0.0000

          k = 0.3354 1.5904-0.3351 (  9895 PWs)   bands (ev):

   -39.2437 -39.2437 -39.2435 -39.2435 -39.2410 -39.2410 -39.2408 -39.2408
   -39.0327 -39.0327 -38.9927 -38.9927 -38.3502 -38.3502 -38.3500 -38.3500
   -38.3480 -38.3480 -38.3479 -38.3479 -38.3464 -38.3464 -38.3463 -38.3463
   -38.1412 -38.1412 -38.1242 -38.1242 -38.0894 -38.0894 -15.7536 -15.7536
   -15.7512 -15.7512 -15.7442 -15.7442 -15.7432 -15.7432 -12.7805 -12.7805
   -12.7769 -12.7769 -12.7658 -12.7658 -12.7638 -12.7638 -12.7535 -12.7535
   -12.7516 -12.7516  -3.9053  -3.9053  -3.8438  -3.8438  -3.4407  -3.4407
    -1.6405  -1.6405  -1.4379  -1.4379   3.9413   3.9413   4.5849   4.5849
     4.7756   4.7756   5.0980   5.0980   5.9898   5.9898   6.5014   6.5014
     7.2670   7.2670   7.4057   7.4057   7.9438   7.9438   9.9732   9.9732
    10.6749  10.6749  11.2410  11.2410  12.0144  12.0144  12.5684  12.5684
    13.4976  13.4976  13.8877  13.8877  14.8617  14.8617  15.7019  15.7019
    17.3440  17.3440  17.7716  17.7716  18.3595  18.3595  19.1625  19.1625
    19.3444  19.3444  19.6779  19.6779  20.0454  20.0454  20.5691  20.5691
    20.6743  20.6743  21.1248  21.1248  21.2469  21.2469  21.4277  21.4277
    22.1332  22.1332  22.6801  22.6801

     occupation numbers 
     1.0000   1.0000   1.0000   1.0000   1.0000   1.0000   1.0000   1.0000
     1.0000   1.0000   1.0000   1.0000   1.0000   1.0000   1.0000   1.0000
     1.0000   1.0000   1.0000   1.0000   1.0000   1.0000   1.0000   1.0000
     1.0000   1.0000   1.0000   1.0000   1.0000   1.0000   1.0000   1.0000
     1.0000   1.0000   1.0000   1.0000   1.0000   1.0000   1.0000   1.0000
     1.0000   1.0000   1.0000   1.0000   1.0000   1.0000   1.0000   1.0000
     1.0000   1.0000   1.0000   1.0000   1.0000   1.0000   1.0000   1.0000
     1.0000   1.0000   1.0000   1.0000   1.0000   1.0000   1.0000   1.0000
     1.0000   1.0000   1.0000   1.0000   1.0000   1.0000   1.0000   1.0000
     1.0000   1.0000   1.0000   1.0000   1.0000   1.0000  -0.0000  -0.0000
    -0.0000  -0.0000  -0.0000  -0.0000  -0.0000  -0.0000  -0.0000  -0.0000
    -0.0000  -0.0000  -0.0000  -0.0000  -0.0000  -0.0000  -0.0000  -0.0000
    -0.0000  -0.0000  -0.0000  -0.0000  -0.0000  -0.0000  -0.0000  -0.0000
    -0.0000  -0.0000  -0.0000  -0.0000  -0.0000  -0.0000  -0.0000  -0.0000
    -0.0000  -0.0000  -0.0000  -0.0000  -0.0000  -0.0000  -0.0000  -0.0000
    -0.0000  -0.0000  -0.0000  -0.0000

          k =-0.0361 1.3693-0.1677 (  9866 PWs)   bands (ev):

   -39.2436 -39.2436 -39.2433 -39.2433 -39.2406 -39.2406 -39.2401 -39.2401
   -39.0322 -39.0322 -38.9924 -38.9924 -38.3502 -38.3502 -38.3499 -38.3499
   -38.3476 -38.3476 -38.3472 -38.3472 -38.3461 -38.3461 -38.3456 -38.3456
   -38.1407 -38.1407 -38.1237 -38.1237 -38.0893 -38.0893 -15.7527 -15.7527
   -15.7527 -15.7527 -15.7434 -15.7434 -15.7433 -15.7433 -12.7826 -12.7826
   -12.7808 -12.7808 -12.7650 -12.7650 -12.7624 -12.7624 -12.7521 -12.7521
   -12.7490 -12.7490  -3.8355  -3.8355  -3.7188  -3.7188  -3.6426  -3.6426
    -1.7497  -1.7497  -1.3546  -1.3546   3.5470   3.5470   4.9452   4.9452
     5.1316   5.1316   5.6939   5.6939   5.7809   5.7809   6.2710   6.2710
     6.9547   6.9547   7.4838   7.4838   7.9570   7.9570   9.4851   9.4851
    10.8384  10.8384  11.1841  11.1841  11.6529  11.6529  12.5847  12.5847
    13.0340  13.0340  13.4463  13.4463  15.0199  15.0199  17.2084  17.2084
    18.0476  18.0476  18.1583  18.1583  18.9415  18.9415  19.1510  19.1510
    19.3418  19.3418  19.6786  19.6786  20.3358  20.3358  20.4029  20.4029
    20.6018  20.6018  21.3045  21.3045  21.3645  21.3645  21.5284  21.5284
    21.8465  21.8465  22.1764  22.1764

     occupation numbers 
     1.0000   1.0000   1.0000   1.0000   1.0000   1.0000   1.0000   1.0000
     1.0000   1.0000   1.0000   1.0000   1.0000   1.0000   1.0000   1.0000
     1.0000   1.0000   1.0000   1.0000   1.0000   1.0000   1.0000   1.0000
     1.0000   1.0000   1.0000   1.0000   1.0000   1.0000   1.0000   1.0000
     1.0000   1.0000   1.0000   1.0000   1.0000   1.0000   1.0000   1.0000
     1.0000   1.0000   1.0000   1.0000   1.0000   1.0000   1.0000   1.0000
     1.0000   1.0000   1.0000   1.0000   1.0000   1.0000   1.0000   1.0000
     1.0000   1.0000   1.0000   1.0000   1.0000   1.0000   1.0000   1.0000
     1.0000   1.0000   1.0000   1.0000   1.0000   1.0000   1.0000   1.0000
     1.0000   1.0000   1.0000   1.0000   1.0000   1.0000  -0.0000  -0.0000
    -0.0000  -0.0000  -0.0000  -0.0000  -0.0000  -0.0000  -0.0000  -0.0000
    -0.0000  -0.0000  -0.0000  -0.0000  -0.0000  -0.0000  -0.0000  -0.0000
    -0.0000  -0.0000  -0.0000  -0.0000  -0.0000  -0.0000  -0.0000  -0.0000
    -0.0000  -0.0000  -0.0000  -0.0000  -0.0000  -0.0000  -0.0000  -0.0000
    -0.0000  -0.0000  -0.0000  -0.0000  -0.0000  -0.0000  -0.0000  -0.0000
    -0.0000  -0.0000  -0.0000  -0.0000

          k =-0.4072-1.1695 0.0015 (  9884 PWs)   bands (ev):

   -39.2437 -39.2437 -39.2433 -39.2433 -39.2408 -39.2408 -39.2407 -39.2407
   -39.0325 -39.0325 -38.9925 -38.9925 -38.3502 -38.3502 -38.3498 -38.3498
   -38.3480 -38.3480 -38.3478 -38.3478 -38.3462 -38.3462 -38.3461 -38.3461
   -38.1410 -38.1410 -38.1241 -38.1241 -38.0893 -38.0893 -15.7536 -15.7536
   -15.7512 -15.7512 -15.7442 -15.7442 -15.7432 -15.7432 -12.7805 -12.7805
   -12.7769 -12.7769 -12.7658 -12.7658 -12.7638 -12.7638 -12.7535 -12.7535
   -12.7515 -12.7515  -3.9566  -3.9566  -3.7768  -3.7768  -3.4538  -3.4538
    -1.6588  -1.6588  -1.4219  -1.4219   3.8160   3.8160   4.5480   4.5480
     4.9034   4.9034   5.2566   5.2566   6.1601   6.1601   6.5694   6.5694
     7.0585   7.0585   7.1979   7.1979   7.6886   7.6886  10.3162  10.3162
    10.7486  10.7486  11.4326  11.4326  12.0039  12.0039  12.4730  12.4730
    13.2642  13.2642  13.9447  13.9447  14.7728  14.7728  15.6354  15.6354
    17.5737  17.5737  17.8177  17.8177  18.3960  18.3960  19.1057  19.1057
    19.4170  19.4170  19.6330  19.6331  19.7563  19.7563  20.4918  20.4918
    20.7834  20.7834  21.0687  21.0687  21.2298  21.2298  21.5067  21.5067
    21.8311  21.8311  22.6189  22.6189

     occupation numbers 
     1.0000   1.0000   1.0000   1.0000   1.0000   1.0000   1.0000   1.0000
     1.0000   1.0000   1.0000   1.0000   1.0000   1.0000   1.0000   1.0000
     1.0000   1.0000   1.0000   1.0000   1.0000   1.0000   1.0000   1.0000
     1.0000   1.0000   1.0000   1.0000   1.0000   1.0000   1.0000   1.0000
     1.0000   1.0000   1.0000   1.0000   1.0000   1.0000   1.0000   1.0000
     1.0000   1.0000   1.0000   1.0000   1.0000   1.0000   1.0000   1.0000
     1.0000   1.0000   1.0000   1.0000   1.0000   1.0000   1.0000   1.0000
     1.0000   1.0000   1.0000   1.0000   1.0000   1.0000   1.0000   1.0000
     1.0000   1.0000   1.0000   1.0000   1.0000   1.0000   1.0000   1.0000
     1.0000   1.0000   1.0000   1.0000   1.0000   1.0000  -0.0000  -0.0000
    -0.0000  -0.0000  -0.0000  -0.0000  -0.0000  -0.0000  -0.0000  -0.0000
    -0.0000  -0.0000  -0.0000  -0.0000  -0.0000  -0.0000  -0.0000  -0.0000
    -0.0000  -0.0000  -0.0000  -0.0000  -0.0000  -0.0000  -0.0000  -0.0000
    -0.0000  -0.0000  -0.0000  -0.0000  -0.0000  -0.0000  -0.0000  -0.0000
    -0.0000  -0.0000  -0.0000  -0.0000  -0.0000  -0.0000  -0.0000  -0.0000
    -0.0000  -0.0000  -0.0000  -0.0000

          k =-0.7786-1.3906 0.1688 (  9892 PWs)   bands (ev):

   -39.2437 -39.2437 -39.2435 -39.2435 -39.2410 -39.2410 -39.2405 -39.2405
   -39.0325 -39.0325 -38.9927 -38.9927 -38.3502 -38.3502 -38.3501 -38.3501
   -38.3479 -38.3479 -38.3475 -38.3475 -38.3465 -38.3465 -38.3462 -38.3461
   -38.1411 -38.1411 -38.1240 -38.1240 -38.0895 -38.0895 -15.7534 -15.7533
   -15.7497 -15.7497 -15.7447 -15.7447 -15.7433 -15.7433 -12.7764 -12.7764
   -12.7743 -12.7743 -12.7691 -12.7691 -12.7650 -12.7650 -12.7531 -12.7531
   -12.7530 -12.7530  -3.5746  -3.5745  -3.5450  -3.5450  -3.4602  -3.4602
    -1.8291  -1.8291  -1.8086  -1.8086   3.8638   3.8638   4.3799   4.3799
     4.5826   4.5826   4.9836   4.9836   5.6588   5.6588   6.1823   6.1823
     6.9185   6.9185   7.6780   7.6780   7.9589   7.9589  10.0631  10.0631
    10.8387  10.8387  11.5429  11.5429  12.5083  12.5083  12.9012  12.9012
    13.2937  13.2937  15.0402  15.0402  15.7057  15.7057  15.9262  15.9262
    16.0847  16.0847  16.4324  16.4324  17.8204  17.8204  18.5085  18.5085
    19.0322  19.0322  19.9328  19.9328  20.0913  20.0913  20.5526  20.5526
    20.7331  20.7331  21.3015  21.3015  22.2672  22.2672  22.3993  22.3993
    23.2931  23.2931  23.4173  23.4173

     occupation numbers 
     1.0000   1.0000   1.0000   1.0000   1.0000   1.0000   1.0000   1.0000
     1.0000   1.0000   1.0000   1.0000   1.0000   1.0000   1.0000   1.0000
     1.0000   1.0000   1.0000   1.0000   1.0000   1.0000   1.0000   1.0000
     1.0000   1.0000   1.0000   1.0000   1.0000   1.0000   1.0000   1.0000
     1.0000   1.0000   1.0000   1.0000   1.0000   1.0000   1.0000   1.0000
     1.0000   1.0000   1.0000   1.0000   1.0000   1.0000   1.0000   1.0000
     1.0000   1.0000   1.0000   1.0000   1.0000   1.0000   1.0000   1.0000
     1.0000   1.0000   1.0000   1.0000   1.0000   1.0000   1.0000   1.0000
     1.0000   1.0000   1.0000   1.0000   1.0000   1.0000   1.0000   1.0000
     1.0000   1.0000   1.0000   1.0000   1.0000   1.0000  -0.0000  -0.0000
    -0.0000  -0.0000  -0.0000  -0.0000  -0.0000  -0.0000  -0.0000  -0.0000
    -0.0000  -0.0000  -0.0000  -0.0000  -0.0000  -0.0000  -0.0000  -0.0000
    -0.0000  -0.0000  -0.0000  -0.0000  -0.0000  -0.0000  -0.0000  -0.0000
    -0.0000  -0.0000  -0.0000  -0.0000  -0.0000  -0.0000  -0.0000  -0.0000
    -0.0000  -0.0000  -0.0000  -0.0000  -0.0000  -0.0000  -0.0000  -0.0000
    -0.0000  -0.0000  -0.0000  -0.0000

          k =-1.1501-1.6117 0.3362 (  9872 PWs)   bands (ev):

   -39.2434 -39.2434 -39.2432 -39.2432 -39.2407 -39.2407 -39.2405 -39.2405
   -39.0324 -39.0324 -38.9923 -38.9923 -38.3499 -38.3499 -38.3496 -38.3496
   -38.3477 -38.3477 -38.3476 -38.3476 -38.3462 -38.3462 -38.3459 -38.3459
   -38.1409 -38.1409 -38.1239 -38.1239 -38.0891 -38.0891 -15.7536 -15.7536
   -15.7512 -15.7512 -15.7442 -15.7442 -15.7432 -15.7432 -12.7805 -12.7805
   -12.7769 -12.7769 -12.7658 -12.7658 -12.7638 -12.7638 -12.7535 -12.7535
   -12.7516 -12.7516  -3.9215  -3.9215  -3.8195  -3.8195  -3.4504  -3.4504
    -1.6370  -1.6370  -1.4400  -1.4400   3.9806   3.9806   4.6141   4.6141
     4.7801   4.7801   5.1502   5.1502   5.7488   5.7488   6.2106   6.2106
     7.4693   7.4693   7.7493   7.7493   8.1229   8.1229   9.7329   9.7329
    10.4372  10.4372  11.0895  11.0895  12.1472  12.1472  12.7703  12.7703
    13.5047  13.5047  13.7073  13.7073  15.3010  15.3010  15.8753  15.8753
    17.0029  17.0029  17.5524  17.5524  17.8500  17.8500  19.1936  19.1936
    19.3080  19.3080  19.7522  19.7522  20.3142  20.3142  20.7054  20.7054
    20.8016  20.8016  21.1923  21.1923  21.2658  21.2658  21.8772  21.8772
    22.4386  22.4386  22.5666  22.5667

     occupation numbers 
     1.0000   1.0000   1.0000   1.0000   1.0000   1.0000   1.0000   1.0000
     1.0000   1.0000   1.0000   1.0000   1.0000   1.0000   1.0000   1.0000
     1.0000   1.0000   1.0000   1.0000   1.0000   1.0000   1.0000   1.0000
     1.0000   1.0000   1.0000   1.0000   1.0000   1.0000   1.0000   1.0000
     1.0000   1.0000   1.0000   1.0000   1.0000   1.0000   1.0000   1.0000
     1.0000   1.0000   1.0000   1.0000   1.0000   1.0000   1.0000   1.0000
     1.0000   1.0000   1.0000   1.0000   1.0000   1.0000   1.0000   1.0000
     1.0000   1.0000   1.0000   1.0000   1.0000   1.0000   1.0000   1.0000
     1.0000   1.0000   1.0000   1.0000   1.0000   1.0000   1.0000   1.0000
     1.0000   1.0000   1.0000   1.0000   1.0000   1.0000  -0.0000  -0.0000
    -0.0000  -0.0000  -0.0000  -0.0000  -0.0000  -0.0000  -0.0000  -0.0000
    -0.0000  -0.0000  -0.0000  -0.0000  -0.0000  -0.0000  -0.0000  -0.0000
    -0.0000  -0.0000  -0.0000  -0.0000  -0.0000  -0.0000  -0.0000  -0.0000
    -0.0000  -0.0000  -0.0000  -0.0000  -0.0000  -0.0000  -0.0000  -0.0000
    -0.0000  -0.0000  -0.0000  -0.0000  -0.0000  -0.0000  -0.0000  -0.0000
    -0.0000  -0.0000  -0.0000  -0.0000

          k = 0.7072-0.5063-0.5005 (  9880 PWs)   bands (ev):

   -39.2439 -39.2439 -39.2433 -39.2433 -39.2409 -39.2409 -39.2405 -39.2405
   -39.0325 -39.0325 -38.9926 -38.9926 -38.3504 -38.3504 -38.3498 -38.3498
   -38.3479 -38.3479 -38.3474 -38.3474 -38.3465 -38.3465 -38.3461 -38.3461
   -38.1411 -38.1411 -38.1239 -38.1239 -38.0895 -38.0895 -15.7537 -15.7537
   -15.7535 -15.7535 -15.7440 -15.7439 -15.7429 -15.7429 -12.7810 -12.7809
   -12.7786 -12.7786 -12.7649 -12.7649 -12.7632 -12.7632 -12.7548 -12.7548
   -12.7522 -12.7522  -4.4232  -4.4232  -4.1918  -4.1918  -3.4800  -3.4800
    -1.2970  -1.2970  -0.9524  -0.9524   4.0078   4.0078   4.9384   4.9384
     5.4667   5.4667   5.8908   5.8908   6.2037   6.2037   6.7785   6.7785
     7.1721   7.1721   7.3878   7.3878   7.8444   7.8444   9.7227   9.7227
    10.8260  10.8260  11.0543  11.0543  11.6134  11.6134  12.4264  12.4264
    13.0670  13.0670  13.3360  13.3360  15.0935  15.0935  16.3691  16.3691
    16.7131  16.7131  17.5152  17.5152  17.6074  17.6074  17.8310  17.8310
    18.1425  18.1425  18.9816  18.9816  20.0441  20.0441  20.4387  20.4387
    20.9799  20.9799  21.0679  21.0679  21.2601  21.2601  22.1494  22.1494
    22.4698  22.4699  22.8957  22.8958

     occupation numbers 
     1.0000   1.0000   1.0000   1.0000   1.0000   1.0000   1.0000   1.0000
     1.0000   1.0000   1.0000   1.0000   1.0000   1.0000   1.0000   1.0000
     1.0000   1.0000   1.0000   1.0000   1.0000   1.0000   1.0000   1.0000
     1.0000   1.0000   1.0000   1.0000   1.0000   1.0000   1.0000   1.0000
     1.0000   1.0000   1.0000   1.0000   1.0000   1.0000   1.0000   1.0000
     1.0000   1.0000   1.0000   1.0000   1.0000   1.0000   1.0000   1.0000
     1.0000   1.0000   1.0000   1.0000   1.0000   1.0000   1.0000   1.0000
     1.0000   1.0000   1.0000   1.0000   1.0000   1.0000   1.0000   1.0000
     1.0000   1.0000   1.0000   1.0000   1.0000   1.0000   1.0000   1.0000
     1.0000   1.0000   1.0000   1.0000   1.0000   1.0000  -0.0000  -0.0000
    -0.0000  -0.0000  -0.0000  -0.0000  -0.0000  -0.0000  -0.0000  -0.0000
    -0.0000  -0.0000  -0.0000  -0.0000  -0.0000  -0.0000  -0.0000  -0.0000
    -0.0000  -0.0000  -0.0000  -0.0000  -0.0000  -0.0000  -0.0000  -0.0000
    -0.0000  -0.0000  -0.0000  -0.0000  -0.0000  -0.0000  -0.0000  -0.0000
    -0.0000  -0.0000  -0.0000  -0.0000  -0.0000  -0.0000  -0.0000  -0.0000
    -0.0000  -0.0000  -0.0000  -0.0000

          k = 0.3358-0.7274-0.3332 (  9898 PWs)   bands (ev):

   -39.2441 -39.2441 -39.2437 -39.2437 -39.2412 -39.2412 -39.2404 -39.2404
   -39.0326 -39.0326 -38.9929 -38.9929 -38.3506 -38.3506 -38.3503 -38.3503
   -38.3481 -38.3481 -38.3474 -38.3474 -38.3467 -38.3467 -38.3461 -38.3461
   -38.1412 -38.1412 -38.1241 -38.1241 -38.0898 -38.0898 -15.7546 -15.7546
   -15.7533 -15.7533 -15.7441 -15.7441 -15.7429 -15.7429 -12.7802 -12.7802
   -12.7765 -12.7765 -12.7647 -12.7647 -12.7636 -12.7636 -12.7563 -12.7563
   -12.7546 -12.7546  -4.6271  -4.6271  -4.3377  -4.3377  -3.4994  -3.4994
    -1.1967  -1.1967  -0.7043  -0.7043   4.4679   4.4679   4.9273   4.9273
     5.3615   5.3615   5.9599   5.9599   6.3547   6.3547   6.7617   6.7617
     7.3013   7.3013   7.7818   7.7818   7.9204   7.9204  10.0257  10.0257
    10.1935  10.1935  11.2849  11.2849  11.8151  11.8151  12.2409  12.2409
    12.7490  12.7490  14.2711  14.2711  14.3430  14.3430  15.3584  15.3584
    15.9792  15.9792  17.3858  17.3858  17.7120  17.7120  18.2734  18.2734
    18.5836  18.5836  19.0637  19.0637  19.5431  19.5431  19.8478  19.8478
    20.0114  20.0114  20.2563  20.2563  20.7150  20.7150  21.4559  21.4559
    22.1176  22.1176  22.2628  22.2628

     occupation numbers 
     1.0000   1.0000   1.0000   1.0000   1.0000   1.0000   1.0000   1.0000
     1.0000   1.0000   1.0000   1.0000   1.0000   1.0000   1.0000   1.0000
     1.0000   1.0000   1.0000   1.0000   1.0000   1.0000   1.0000   1.0000
     1.0000   1.0000   1.0000   1.0000   1.0000   1.0000   1.0000   1.0000
     1.0000   1.0000   1.0000   1.0000   1.0000   1.0000   1.0000   1.0000
     1.0000   1.0000   1.0000   1.0000   1.0000   1.0000   1.0000   1.0000
     1.0000   1.0000   1.0000   1.0000   1.0000   1.0000   1.0000   1.0000
     1.0000   1.0000   1.0000   1.0000   1.0000   1.0000   1.0000   1.0000
     1.0000   1.0000   1.0000   1.0000   1.0000   1.0000   1.0000   1.0000
     1.0000   1.0000   1.0000   1.0000   1.0000   1.0000  -0.0000  -0.0000
    -0.0000  -0.0000  -0.0000  -0.0000  -0.0000  -0.0000  -0.0000  -0.0000
    -0.0000  -0.0000  -0.0000  -0.0000  -0.0000  -0.0000  -0.0000  -0.0000
    -0.0000  -0.0000  -0.0000  -0.0000  -0.0000  -0.0000  -0.0000  -0.0000
    -0.0000  -0.0000  -0.0000  -0.0000  -0.0000  -0.0000  -0.0000  -0.0000
    -0.0000  -0.0000  -0.0000  -0.0000  -0.0000  -0.0000  -0.0000  -0.0000
    -0.0000  -0.0000  -0.0000  -0.0000

          k =-0.0357-0.9484-0.1659 (  9894 PWs)   bands (ev):

   -39.2441 -39.2441 -39.2434 -39.2434 -39.2410 -39.2410 -39.2407 -39.2407
   -39.0326 -39.0326 -38.9928 -38.9928 -38.3506 -38.3506 -38.3499 -38.3499
   -38.3481 -38.3481 -38.3477 -38.3477 -38.3464 -38.3464 -38.3462 -38.3462
   -38.1411 -38.1411 -38.1242 -38.1242 -38.0896 -38.0896 -15.7537 -15.7537
   -15.7535 -15.7535 -15.7440 -15.7439 -15.7429 -15.7429 -12.7810 -12.7810
   -12.7786 -12.7786 -12.7649 -12.7649 -12.7631 -12.7631 -12.7549 -12.7549
   -12.7521 -12.7521  -4.4440  -4.4440  -4.1659  -4.1659  -3.4768  -3.4768
    -1.3740  -1.3740  -0.8829  -0.8829   4.1906   4.1906   4.7634   4.7634
     5.4052   5.4052   5.8742   5.8743   6.0881   6.0881   6.3974   6.3974
     7.5118   7.5118   7.7213   7.7213   8.3152   8.3152   9.1990   9.1990
    10.5010  10.5010  10.9950  10.9950  11.5265  11.5265  12.6218  12.6218
    13.2781  13.2781  13.4167  13.4167  15.0634  15.0634  15.9789  15.9789
    17.1550  17.1550  17.5291  17.5291  17.6168  17.6168  18.1076  18.1076
    18.8213  18.8213  19.3060  19.3060  19.4968  19.4968  20.0392  20.0392
    20.3431  20.3431  20.7542  20.7542  21.2899  21.2899  21.6602  21.6602
    21.9574  21.9574  22.6338  22.6338

     occupation numbers 
     1.0000   1.0000   1.0000   1.0000   1.0000   1.0000   1.0000   1.0000
     1.0000   1.0000   1.0000   1.0000   1.0000   1.0000   1.0000   1.0000
     1.0000   1.0000   1.0000   1.0000   1.0000   1.0000   1.0000   1.0000
     1.0000   1.0000   1.0000   1.0000   1.0000   1.0000   1.0000   1.0000
     1.0000   1.0000   1.0000   1.0000   1.0000   1.0000   1.0000   1.0000
     1.0000   1.0000   1.0000   1.0000   1.0000   1.0000   1.0000   1.0000
     1.0000   1.0000   1.0000   1.0000   1.0000   1.0000   1.0000   1.0000
     1.0000   1.0000   1.0000   1.0000   1.0000   1.0000   1.0000   1.0000
     1.0000   1.0000   1.0000   1.0000   1.0000   1.0000   1.0000   1.0000
     1.0000   1.0000   1.0000   1.0000   1.0056   1.0056  -0.0000  -0.0000
    -0.0000  -0.0000  -0.0000  -0.0000  -0.0000  -0.0000  -0.0000  -0.0000
    -0.0000  -0.0000  -0.0000  -0.0000  -0.0000  -0.0000  -0.0000  -0.0000
    -0.0000  -0.0000  -0.0000  -0.0000  -0.0000  -0.0000  -0.0000  -0.0000
    -0.0000  -0.0000  -0.0000  -0.0000  -0.0000  -0.0000  -0.0000  -0.0000
    -0.0000  -0.0000  -0.0000  -0.0000  -0.0000  -0.0000  -0.0000  -0.0000
    -0.0000  -0.0000  -0.0000  -0.0000

          k =-0.4073-0.7060 0.0011 (  9901 PWs)   bands (ev):

   -39.2441 -39.2441 -39.2438 -39.2438 -39.2411 -39.2411 -39.2405 -39.2405
   -39.0326 -39.0326 -38.9930 -38.9930 -38.3506 -38.3506 -38.3505 -38.3505
   -38.3481 -38.3481 -38.3476 -38.3476 -38.3466 -38.3466 -38.3461 -38.3461
   -38.1412 -38.1412 -38.1241 -38.1241 -38.0899 -38.0899 -15.7546 -15.7546
   -15.7533 -15.7533 -15.7441 -15.7441 -15.7429 -15.7429 -12.7802 -12.7802
   -12.7765 -12.7765 -12.7647 -12.7647 -12.7636 -12.7636 -12.7564 -12.7564
   -12.7546 -12.7546  -4.6853  -4.6853  -4.2181  -4.2181  -3.5783  -3.5783
    -1.1447  -1.1447  -0.7390  -0.7390   4.5284   4.5284   4.9959   4.9959
     5.3056   5.3056   5.8756   5.8756   6.2916   6.2916   6.5050   6.5050
     7.4877   7.4877   8.0150   8.0150   8.0764   8.0764   9.7826   9.7826
    10.0663  10.0663  11.0788  11.0788  11.9561  11.9561  12.3893  12.3893
    12.8948  12.8948  14.1047  14.1047  14.1476  14.1476  15.9893  15.9893
    16.5645  16.5645  17.1382  17.1382  17.4797  17.4797  17.8700  17.8700
    18.3783  18.3783  18.7345  18.7345  18.8130  18.8130  19.6971  19.6971
    20.2932  20.2932  20.5801  20.5801  21.0431  21.0431  21.8286  21.8286
    22.2177  22.2177  22.4272  22.4272

     occupation numbers 
     1.0000   1.0000   1.0000   1.0000   1.0000   1.0000   1.0000   1.0000
     1.0000   1.0000   1.0000   1.0000   1.0000   1.0000   1.0000   1.0000
     1.0000   1.0000   1.0000   1.0000   1.0000   1.0000   1.0000   1.0000
     1.0000   1.0000   1.0000   1.0000   1.0000   1.0000   1.0000   1.0000
     1.0000   1.0000   1.0000   1.0000   1.0000   1.0000   1.0000   1.0000
     1.0000   1.0000   1.0000   1.0000   1.0000   1.0000   1.0000   1.0000
     1.0000   1.0000   1.0000   1.0000   1.0000   1.0000   1.0000   1.0000
     1.0000   1.0000   1.0000   1.0000   1.0000   1.0000   1.0000   1.0000
     1.0000   1.0000   1.0000   1.0000   1.0000   1.0000   1.0000   1.0000
     1.0000   1.0000   1.0000   1.0000   1.0000   1.0000  -0.0000  -0.0000
    -0.0000  -0.0000  -0.0000  -0.0000  -0.0000  -0.0000  -0.0000  -0.0000
    -0.0000  -0.0000  -0.0000  -0.0000  -0.0000  -0.0000  -0.0000  -0.0000
    -0.0000  -0.0000  -0.0000  -0.0000  -0.0000  -0.0000  -0.0000  -0.0000
    -0.0000  -0.0000  -0.0000  -0.0000  -0.0000  -0.0000  -0.0000  -0.0000
    -0.0000  -0.0000  -0.0000  -0.0000  -0.0000  -0.0000  -0.0000  -0.0000
    -0.0000  -0.0000  -0.0000  -0.0000

          k =-0.7787-0.9271 0.1685 (  9868 PWs)   bands (ev):

   -39.2435 -39.2435 -39.2431 -39.2431 -39.2407 -39.2407 -39.2404 -39.2404
   -39.0323 -39.0323 -38.9923 -38.9923 -38.3500 -38.3500 -38.3495 -38.3495
   -38.3478 -38.3478 -38.3475 -38.3475 -38.3461 -38.3461 -38.3459 -38.3459
   -38.1408 -38.1408 -38.1239 -38.1239 -38.0891 -38.0891 -15.7536 -15.7536
   -15.7512 -15.7512 -15.7442 -15.7442 -15.7432 -15.7432 -12.7805 -12.7805
   -12.7769 -12.7769 -12.7658 -12.7658 -12.7638 -12.7638 -12.7535 -12.7535
   -12.7516 -12.7516  -3.9913  -3.9913  -3.6992  -3.6992  -3.4975  -3.4975
    -1.6690  -1.6690  -1.4111  -1.4111   3.7604   3.7604   4.6696   4.6696
     5.0006   5.0006   5.4619   5.4619   5.7747   5.7747   6.1118   6.1118
     6.9226   6.9226   7.8148   7.8148   7.9786   7.9786   9.9917   9.9917
    10.4100  10.4100  11.5889  11.5889  12.1314  12.1314  12.7375  12.7375
    13.1866  13.1866  13.5393  13.5393  15.6739  15.6739  15.9353  15.9353
    16.6765  16.6765  17.4647  17.4647  17.8968  17.8968  19.0939  19.0939
    19.2942  19.2942  19.4821  19.4821  20.1234  20.1234  20.5333  20.5333
    20.8586  20.8586  21.1875  21.1875  21.8481  21.8481  22.1787  22.1787
    22.5396  22.5397  23.0015  23.0017

     occupation numbers 
     1.0000   1.0000   1.0000   1.0000   1.0000   1.0000   1.0000   1.0000
     1.0000   1.0000   1.0000   1.0000   1.0000   1.0000   1.0000   1.0000
     1.0000   1.0000   1.0000   1.0000   1.0000   1.0000   1.0000   1.0000
     1.0000   1.0000   1.0000   1.0000   1.0000   1.0000   1.0000   1.0000
     1.0000   1.0000   1.0000   1.0000   1.0000   1.0000   1.0000   1.0000
     1.0000   1.0000   1.0000   1.0000   1.0000   1.0000   1.0000   1.0000
     1.0000   1.0000   1.0000   1.0000   1.0000   1.0000   1.0000   1.0000
     1.0000   1.0000   1.0000   1.0000   1.0000   1.0000   1.0000   1.0000
     1.0000   1.0000   1.0000   1.0000   1.0000   1.0000   1.0000   1.0000
     1.0000   1.0000   1.0000   1.0000   1.0000   1.0000  -0.0000  -0.0000
    -0.0000  -0.0000  -0.0000  -0.0000  -0.0000  -0.0000  -0.0000  -0.0000
    -0.0000  -0.0000  -0.0000  -0.0000  -0.0000  -0.0000  -0.0000  -0.0000
    -0.0000  -0.0000  -0.0000  -0.0000  -0.0000  -0.0000  -0.0000  -0.0000
    -0.0000  -0.0000  -0.0000  -0.0000  -0.0000  -0.0000  -0.0000  -0.0000
    -0.0000  -0.0000  -0.0000  -0.0000  -0.0000  -0.0000  -0.0000  -0.0000
    -0.0000  -0.0000  -0.0000  -0.0000

          k =-1.1502-1.1482 0.3358 (  9895 PWs)   bands (ev):

   -39.2437 -39.2437 -39.2435 -39.2435 -39.2410 -39.2410 -39.2408 -39.2408
   -39.0327 -39.0327 -38.9927 -38.9927 -38.3502 -38.3502 -38.3500 -38.3500
   -38.3480 -38.3480 -38.3479 -38.3479 -38.3464 -38.3464 -38.3463 -38.3463
   -38.1412 -38.1412 -38.1242 -38.1242 -38.0894 -38.0894 -15.7536 -15.7536
   -15.7512 -15.7512 -15.7442 -15.7442 -15.7432 -15.7432 -12.7805 -12.7805
   -12.7769 -12.7769 -12.7658 -12.7658 -12.7638 -12.7638 -12.7535 -12.7535
   -12.7516 -12.7516  -3.9053  -3.9053  -3.8438  -3.8438  -3.4407  -3.4407
    -1.6405  -1.6405  -1.4379  -1.4379   3.9413   3.9413   4.5849   4.5849
     4.7756   4.7756   5.0980   5.0980   5.9898   5.9898   6.5014   6.5014
     7.2670   7.2670   7.4057   7.4057   7.9438   7.9438   9.9732   9.9732
    10.6749  10.6749  11.2410  11.2410  12.0144  12.0144  12.5684  12.5684
    13.4976  13.4976  13.8877  13.8877  14.8617  14.8617  15.7019  15.7019
    17.3440  17.3440  17.7716  17.7716  18.3595  18.3595  19.1625  19.1625
    19.3444  19.3444  19.6779  19.6779  20.0454  20.0454  20.5691  20.5691
    20.6743  20.6743  21.1248  21.1248  21.2469  21.2469  21.4277  21.4277
    22.1332  22.1332  22.6801  22.6802

     occupation numbers 
     1.0000   1.0000   1.0000   1.0000   1.0000   1.0000   1.0000   1.0000
     1.0000   1.0000   1.0000   1.0000   1.0000   1.0000   1.0000   1.0000
     1.0000   1.0000   1.0000   1.0000   1.0000   1.0000   1.0000   1.0000
     1.0000   1.0000   1.0000   1.0000   1.0000   1.0000   1.0000   1.0000
     1.0000   1.0000   1.0000   1.0000   1.0000   1.0000   1.0000   1.0000
     1.0000   1.0000   1.0000   1.0000   1.0000   1.0000   1.0000   1.0000
     1.0000   1.0000   1.0000   1.0000   1.0000   1.0000   1.0000   1.0000
     1.0000   1.0000   1.0000   1.0000   1.0000   1.0000   1.0000   1.0000
     1.0000   1.0000   1.0000   1.0000   1.0000   1.0000   1.0000   1.0000
     1.0000   1.0000   1.0000   1.0000   1.0000   1.0000  -0.0000  -0.0000
    -0.0000  -0.0000  -0.0000  -0.0000  -0.0000  -0.0000  -0.0000  -0.0000
    -0.0000  -0.0000  -0.0000  -0.0000  -0.0000  -0.0000  -0.0000  -0.0000
    -0.0000  -0.0000  -0.0000  -0.0000  -0.0000  -0.0000  -0.0000  -0.0000
    -0.0000  -0.0000  -0.0000  -0.0000  -0.0000  -0.0000  -0.0000  -0.0000
    -0.0000  -0.0000  -0.0000  -0.0000  -0.0000  -0.0000  -0.0000  -0.0000
    -0.0000  -0.0000  -0.0000  -0.0000

          k = 0.7071-0.0427-0.5009 (  9898 PWs)   bands (ev):

   -39.2441 -39.2441 -39.2437 -39.2437 -39.2412 -39.2412 -39.2404 -39.2404
   -39.0326 -39.0326 -38.9929 -38.9929 -38.3506 -38.3506 -38.3503 -38.3503
   -38.3481 -38.3481 -38.3474 -38.3474 -38.3467 -38.3467 -38.3461 -38.3461
   -38.1412 -38.1412 -38.1241 -38.1241 -38.0898 -38.0898 -15.7546 -15.7546
   -15.7533 -15.7533 -15.7441 -15.7441 -15.7429 -15.7429 -12.7802 -12.7802
   -12.7765 -12.7765 -12.7647 -12.7647 -12.7636 -12.7636 -12.7563 -12.7563
   -12.7546 -12.7546  -4.6271  -4.6271  -4.3377  -4.3377  -3.4994  -3.4994
    -1.1967  -1.1967  -0.7043  -0.7043   4.4679   4.4679   4.9273   4.9273
     5.3615   5.3615   5.9599   5.9599   6.3547   6.3547   6.7617   6.7617
     7.3013   7.3013   7.7818   7.7818   7.9204   7.9204  10.0257  10.0257
    10.1935  10.1935  11.2849  11.2849  11.8151  11.8151  12.2409  12.2409
    12.7490  12.7490  14.2711  14.2711  14.3430  14.3430  15.3584  15.3584
    15.9792  15.9792  17.3858  17.3858  17.7120  17.7120  18.2734  18.2734
    18.5836  18.5836  19.0637  19.0637  19.5431  19.5431  19.8478  19.8478
    20.0114  20.0114  20.2563  20.2563  20.7150  20.7150  21.4559  21.4559
    22.1176  22.1176  22.2628  22.2628

     occupation numbers 
     1.0000   1.0000   1.0000   1.0000   1.0000   1.0000   1.0000   1.0000
     1.0000   1.0000   1.0000   1.0000   1.0000   1.0000   1.0000   1.0000
     1.0000   1.0000   1.0000   1.0000   1.0000   1.0000   1.0000   1.0000
     1.0000   1.0000   1.0000   1.0000   1.0000   1.0000   1.0000   1.0000
     1.0000   1.0000   1.0000   1.0000   1.0000   1.0000   1.0000   1.0000
     1.0000   1.0000   1.0000   1.0000   1.0000   1.0000   1.0000   1.0000
     1.0000   1.0000   1.0000   1.0000   1.0000   1.0000   1.0000   1.0000
     1.0000   1.0000   1.0000   1.0000   1.0000   1.0000   1.0000   1.0000
     1.0000   1.0000   1.0000   1.0000   1.0000   1.0000   1.0000   1.0000
     1.0000   1.0000   1.0000   1.0000   1.0000   1.0000  -0.0000  -0.0000
    -0.0000  -0.0000  -0.0000  -0.0000  -0.0000  -0.0000  -0.0000  -0.0000
    -0.0000  -0.0000  -0.0000  -0.0000  -0.0000  -0.0000  -0.0000  -0.0000
    -0.0000  -0.0000  -0.0000  -0.0000  -0.0000  -0.0000  -0.0000  -0.0000
    -0.0000  -0.0000  -0.0000  -0.0000  -0.0000  -0.0000  -0.0000  -0.0000
    -0.0000  -0.0000  -0.0000  -0.0000  -0.0000  -0.0000  -0.0000  -0.0000
    -0.0000  -0.0000  -0.0000  -0.0000

          k = 0.3357-0.2638-0.3336 (  9919 PWs)   bands (ev):

   -39.2445 -39.2445 -39.2441 -39.2441 -39.2412 -39.2412 -39.2406 -39.2406
   -39.0326 -39.0326 -38.9933 -38.9933 -38.3511 -38.3511 -38.3508 -38.3508
   -38.3481 -38.3481 -38.3476 -38.3476 -38.3468 -38.3468 -38.3462 -38.3462
   -38.1413 -38.1413 -38.1242 -38.1242 -38.0903 -38.0903 -15.7557 -15.7557
   -15.7555 -15.7555 -15.7441 -15.7441 -15.7426 -15.7426 -12.7804 -12.7804
   -12.7785 -12.7785 -12.7628 -12.7628 -12.7625 -12.7625 -12.7587 -12.7587
   -12.7569 -12.7569  -5.0801  -5.0801  -4.6692  -4.6692  -3.6790  -3.6790
    -0.9605  -0.9605  -0.1168  -0.1168   5.2036   5.2036   5.8262   5.8262
     6.0476   6.0476   6.4813   6.4813   6.7150   6.7151   7.0306   7.0306
     7.5384   7.5384   7.9465   7.9465   8.2061   8.2061   9.2938   9.2938
     9.9477   9.9477  10.7511  10.7511  11.2865  11.2865  12.0340  12.0340
    12.3470  12.3470  14.3519  14.3519  14.8371  14.8371  15.8104  15.8104
    15.9891  15.9891  16.3749  16.3749  16.9323  16.9323  17.6195  17.6195
    17.7235  17.7235  17.8337  17.8337  17.9812  17.9812  18.7985  18.7985
    19.2085  19.2085  19.4606  19.4606  20.4447  20.4447  20.6393  20.6393
    21.3598  21.3598  21.6348  21.6353

     occupation numbers 
     1.0000   1.0000   1.0000   1.0000   1.0000   1.0000   1.0000   1.0000
     1.0000   1.0000   1.0000   1.0000   1.0000   1.0000   1.0000   1.0000
     1.0000   1.0000   1.0000   1.0000   1.0000   1.0000   1.0000   1.0000
     1.0000   1.0000   1.0000   1.0000   1.0000   1.0000   1.0000   1.0000
     1.0000   1.0000   1.0000   1.0000   1.0000   1.0000   1.0000   1.0000
     1.0000   1.0000   1.0000   1.0000   1.0000   1.0000   1.0000   1.0000
     1.0000   1.0000   1.0000   1.0000   1.0000   1.0000   1.0000   1.0000
     1.0000   1.0000   1.0000   1.0000   1.0000   1.0000   1.0000   1.0000
     1.0000   1.0000   1.0000   1.0000   1.0000   1.0000   1.0000   1.0000
     1.0000   1.0000   1.0000   1.0000   1.0002   1.0002  -0.0000  -0.0000
    -0.0000  -0.0000  -0.0000  -0.0000  -0.0000  -0.0000  -0.0000  -0.0000
    -0.0000  -0.0000  -0.0000  -0.0000  -0.0000  -0.0000  -0.0000  -0.0000
    -0.0000  -0.0000  -0.0000  -0.0000  -0.0000  -0.0000  -0.0000  -0.0000
    -0.0000  -0.0000  -0.0000  -0.0000  -0.0000  -0.0000  -0.0000  -0.0000
    -0.0000  -0.0000  -0.0000  -0.0000  -0.0000  -0.0000  -0.0000  -0.0000
    -0.0000  -0.0000  -0.0000  -0.0000

          k =-0.0358-0.4849-0.1662 (  9930 PWs)   bands (ev):

   -39.2446 -39.2446 -39.2441 -39.2441 -39.2413 -39.2413 -39.2407 -39.2407
   -39.0328 -39.0328 -38.9934 -38.9934 -38.3512 -38.3512 -38.3507 -38.3507
   -38.3483 -38.3483 -38.3478 -38.3478 -38.3468 -38.3468 -38.3464 -38.3464
   -38.1414 -38.1414 -38.1243 -38.1243 -38.0903 -38.0903 -15.7557 -15.7557
   -15.7555 -15.7555 -15.7441 -15.7441 -15.7426 -15.7426 -12.7804 -12.7804
   -12.7786 -12.7785 -12.7628 -12.7628 -12.7624 -12.7624 -12.7588 -12.7588
   -12.7569 -12.7569  -5.0997  -5.0997  -4.6288  -4.6288  -3.7080  -3.7080
    -0.9503  -0.9503  -0.1117  -0.1117   5.2523   5.2524   5.6004   5.6004
     6.0694   6.0694   6.5586   6.5586   6.6571   6.6571   7.3929   7.3929
     7.5616   7.5616   7.6922   7.6922   8.1558   8.1558   9.3512   9.3512
    10.0382  10.0382  10.8933  10.8933  11.2884  11.2884  11.7614  11.7614
    12.2385  12.2385  14.0702  14.0702  15.1438  15.1438  15.8019  15.8019
    16.2702  16.2702  16.3324  16.3324  16.7858  16.7858  17.0244  17.0244
    17.8004  17.8004  18.5592  18.5592  18.8678  18.8678  18.9884  18.9884
    19.2841  19.2841  19.6307  19.6307  19.7334  19.7334  20.3626  20.3626
    20.6465  20.6465  21.4799  21.4801

     occupation numbers 
     1.0000   1.0000   1.0000   1.0000   1.0000   1.0000   1.0000   1.0000
     1.0000   1.0000   1.0000   1.0000   1.0000   1.0000   1.0000   1.0000
     1.0000   1.0000   1.0000   1.0000   1.0000   1.0000   1.0000   1.0000
     1.0000   1.0000   1.0000   1.0000   1.0000   1.0000   1.0000   1.0000
     1.0000   1.0000   1.0000   1.0000   1.0000   1.0000   1.0000   1.0000
     1.0000   1.0000   1.0000   1.0000   1.0000   1.0000   1.0000   1.0000
     1.0000   1.0000   1.0000   1.0000   1.0000   1.0000   1.0000   1.0000
     1.0000   1.0000   1.0000   1.0000   1.0000   1.0000   1.0000   1.0000
     1.0000   1.0000   1.0000   1.0000   1.0000   1.0000   1.0000   1.0000
     1.0000   1.0000   1.0000   1.0000   1.0000   1.0000  -0.0000  -0.0000
    -0.0000  -0.0000  -0.0000  -0.0000  -0.0000  -0.0000  -0.0000  -0.0000
    -0.0000  -0.0000  -0.0000  -0.0000  -0.0000  -0.0000  -0.0000  -0.0000
    -0.0000  -0.0000  -0.0000  -0.0000  -0.0000  -0.0000  -0.0000  -0.0000
    -0.0000  -0.0000  -0.0000  -0.0000  -0.0000  -0.0000  -0.0000  -0.0000
    -0.0000  -0.0000  -0.0000  -0.0000  -0.0000  -0.0000  -0.0000  -0.0000
    -0.0000  -0.0000  -0.0000  -0.0000

          k =-0.4073-0.2425 0.0007 (  9921 PWs)   bands (ev):

   -39.2445 -39.2445 -39.2439 -39.2439 -39.2412 -39.2412 -39.2405 -39.2405
   -39.0327 -39.0327 -38.9932 -38.9932 -38.3511 -38.3511 -38.3506 -38.3506
   -38.3482 -38.3482 -38.3477 -38.3477 -38.3469 -38.3469 -38.3461 -38.3461
   -38.1413 -38.1413 -38.1242 -38.1242 -38.0902 -38.0902 -15.7557 -15.7557
   -15.7555 -15.7555 -15.7441 -15.7441 -15.7426 -15.7426 -12.7804 -12.7804
   -12.7785 -12.7785 -12.7628 -12.7628 -12.7625 -12.7625 -12.7588 -12.7588
   -12.7569 -12.7569  -5.1312  -5.1312  -4.5470  -4.5470  -3.7805  -3.7805
    -0.8456  -0.8456  -0.2021  -0.2021   5.2718   5.2718   5.6924   5.6924
     5.9785   5.9785   6.4728   6.4728   6.8006   6.8006   7.2219   7.2219
     7.4953   7.4953   7.9047   7.9047   8.1100   8.1100   9.5141   9.5141
     9.7765   9.7765  10.8767  10.8767  11.2223  11.2223  11.9240  11.9240
    12.3418  12.3418  14.1733  14.1733  14.8006  14.8006  15.9963  15.9963
    16.1542  16.1542  16.5591  16.5591  17.1327  17.1327  17.2529  17.2529
    17.4613  17.4613  18.2386  18.2386  18.3655  18.3655  18.7051  18.7051
    18.9963  18.9963  19.7444  19.7444  20.0025  20.0025  20.4338  20.4338
    20.9650  20.9650  21.5089  21.5091

     occupation numbers 
     1.0000   1.0000   1.0000   1.0000   1.0000   1.0000   1.0000   1.0000
     1.0000   1.0000   1.0000   1.0000   1.0000   1.0000   1.0000   1.0000
     1.0000   1.0000   1.0000   1.0000   1.0000   1.0000   1.0000   1.0000
     1.0000   1.0000   1.0000   1.0000   1.0000   1.0000   1.0000   1.0000
     1.0000   1.0000   1.0000   1.0000   1.0000   1.0000   1.0000   1.0000
     1.0000   1.0000   1.0000   1.0000   1.0000   1.0000   1.0000   1.0000
     1.0000   1.0000   1.0000   1.0000   1.0000   1.0000   1.0000   1.0000
     1.0000   1.0000   1.0000   1.0000   1.0000   1.0000   1.0000   1.0000
     1.0000   1.0000   1.0000   1.0000   1.0000   1.0000   1.0000   1.0000
     1.0000   1.0000   1.0000   1.0000   1.0000   1.0000  -0.0000  -0.0000
    -0.0000  -0.0000  -0.0000  -0.0000  -0.0000  -0.0000  -0.0000  -0.0000
    -0.0000  -0.0000  -0.0000  -0.0000  -0.0000  -0.0000  -0.0000  -0.0000
    -0.0000  -0.0000  -0.0000  -0.0000  -0.0000  -0.0000  -0.0000  -0.0000
    -0.0000  -0.0000  -0.0000  -0.0000  -0.0000  -0.0000  -0.0000  -0.0000
    -0.0000  -0.0000  -0.0000  -0.0000  -0.0000  -0.0000  -0.0000  -0.0000
    -0.0000  -0.0000  -0.0000  -0.0000

          k =-0.7788-0.4635 0.1681 (  9895 PWs)   bands (ev):

   -39.2442 -39.2442 -39.2435 -39.2435 -39.2410 -39.2410 -39.2405 -39.2405
   -39.0325 -39.0325 -38.9929 -38.9929 -38.3508 -38.3508 -38.3501 -38.3501
   -38.3481 -38.3481 -38.3475 -38.3475 -38.3465 -38.3465 -38.3460 -38.3460
   -38.1411 -38.1411 -38.1241 -38.1241 -38.0898 -38.0898 -15.7537 -15.7537
   -15.7535 -15.7535 -15.7440 -15.7439 -15.7429 -15.7429 -12.7810 -12.7810
   -12.7786 -12.7786 -12.7649 -12.7649 -12.7632 -12.7632 -12.7549 -12.7549
   -12.7522 -12.7522  -4.5077  -4.5077  -4.0159  -4.0159  -3.5818  -3.5818
    -1.3311  -1.3311  -0.9026  -0.9026   3.9421   3.9421   5.0949   5.0949
     5.4976   5.4976   5.8509   5.8509   6.2367   6.2367   6.6513   6.6513
     7.0982   7.0982   7.4197   7.4197   7.7942   7.7942   9.7884   9.7884
    10.7784  10.7784  11.1497  11.1497  11.8194  11.8194  12.3796  12.3796
    12.9256  12.9256  13.1113  13.1113  15.5268  15.5268  16.2115  16.2115
    16.9085  16.9085  17.4147  17.4147  17.5144  17.5144  17.9641  17.9641
    18.9494  18.9494  19.1251  19.1251  19.2606  19.2606  19.8434  19.8434
    20.0913  20.0913  20.4044  20.4044  21.1773  21.1773  22.6378  22.6378
    22.9791  22.9791  23.1160  23.1160

     occupation numbers 
     1.0000   1.0000   1.0000   1.0000   1.0000   1.0000   1.0000   1.0000
     1.0000   1.0000   1.0000   1.0000   1.0000   1.0000   1.0000   1.0000
     1.0000   1.0000   1.0000   1.0000   1.0000   1.0000   1.0000   1.0000
     1.0000   1.0000   1.0000   1.0000   1.0000   1.0000   1.0000   1.0000
     1.0000   1.0000   1.0000   1.0000   1.0000   1.0000   1.0000   1.0000
     1.0000   1.0000   1.0000   1.0000   1.0000   1.0000   1.0000   1.0000
     1.0000   1.0000   1.0000   1.0000   1.0000   1.0000   1.0000   1.0000
     1.0000   1.0000   1.0000   1.0000   1.0000   1.0000   1.0000   1.0000
     1.0000   1.0000   1.0000   1.0000   1.0000   1.0000   1.0000   1.0000
     1.0000   1.0000   1.0000   1.0000   1.0000   1.0000  -0.0000  -0.0000
    -0.0000  -0.0000  -0.0000  -0.0000  -0.0000  -0.0000  -0.0000  -0.0000
    -0.0000  -0.0000  -0.0000  -0.0000  -0.0000  -0.0000  -0.0000  -0.0000
    -0.0000  -0.0000  -0.0000  -0.0000  -0.0000  -0.0000  -0.0000  -0.0000
    -0.0000  -0.0000  -0.0000  -0.0000  -0.0000  -0.0000  -0.0000  -0.0000
    -0.0000  -0.0000  -0.0000  -0.0000  -0.0000  -0.0000  -0.0000  -0.0000
    -0.0000  -0.0000  -0.0000  -0.0000

          k =-1.1503-0.6846 0.3354 (  9866 PWs)   bands (ev):

   -39.2436 -39.2436 -39.2433 -39.2433 -39.2406 -39.2406 -39.2401 -39.2401
   -39.0322 -39.0322 -38.9924 -38.9924 -38.3502 -38.3502 -38.3499 -38.3499
   -38.3476 -38.3476 -38.3472 -38.3472 -38.3461 -38.3461 -38.3456 -38.3456
   -38.1407 -38.1407 -38.1237 -38.1237 -38.0893 -38.0893 -15.7527 -15.7527
   -15.7527 -15.7527 -15.7434 -15.7434 -15.7433 -15.7433 -12.7826 -12.7826
   -12.7808 -12.7808 -12.7650 -12.7650 -12.7624 -12.7624 -12.7521 -12.7521
   -12.7490 -12.7490  -3.8355  -3.8355  -3.7188  -3.7188  -3.6426  -3.6426
    -1.7497  -1.7497  -1.3546  -1.3546   3.5470   3.5470   4.9452   4.9452
     5.1316   5.1316   5.6939   5.6939   5.7809   5.7809   6.2710   6.2710
     6.9547   6.9547   7.4838   7.4838   7.9570   7.9570   9.4851   9.4851
    10.8384  10.8384  11.1841  11.1841  11.6529  11.6529  12.5847  12.5847
    13.0340  13.0340  13.4463  13.4463  15.0199  15.0199  17.2084  17.2084
    18.0476  18.0476  18.1583  18.1583  18.9415  18.9415  19.1510  19.1510
    19.3418  19.3418  19.6786  19.6786  20.3358  20.3358  20.4029  20.4029
    20.6018  20.6018  21.3045  21.3045  21.3645  21.3645  21.5283  21.5284
    21.8465  21.8465  22.1764  22.1765

     occupation numbers 
     1.0000   1.0000   1.0000   1.0000   1.0000   1.0000   1.0000   1.0000
     1.0000   1.0000   1.0000   1.0000   1.0000   1.0000   1.0000   1.0000
     1.0000   1.0000   1.0000   1.0000   1.0000   1.0000   1.0000   1.0000
     1.0000   1.0000   1.0000   1.0000   1.0000   1.0000   1.0000   1.0000
     1.0000   1.0000   1.0000   1.0000   1.0000   1.0000   1.0000   1.0000
     1.0000   1.0000   1.0000   1.0000   1.0000   1.0000   1.0000   1.0000
     1.0000   1.0000   1.0000   1.0000   1.0000   1.0000   1.0000   1.0000
     1.0000   1.0000   1.0000   1.0000   1.0000   1.0000   1.0000   1.0000
     1.0000   1.0000   1.0000   1.0000   1.0000   1.0000   1.0000   1.0000
     1.0000   1.0000   1.0000   1.0000   1.0000   1.0000  -0.0000  -0.0000
    -0.0000  -0.0000  -0.0000  -0.0000  -0.0000  -0.0000  -0.0000  -0.0000
    -0.0000  -0.0000  -0.0000  -0.0000  -0.0000  -0.0000  -0.0000  -0.0000
    -0.0000  -0.0000  -0.0000  -0.0000  -0.0000  -0.0000  -0.0000  -0.0000
    -0.0000  -0.0000  -0.0000  -0.0000  -0.0000  -0.0000  -0.0000  -0.0000
    -0.0000  -0.0000  -0.0000  -0.0000  -0.0000  -0.0000  -0.0000  -0.0000
    -0.0000  -0.0000  -0.0000  -0.0000

          k = 0.7071 0.4208-0.5013 (  9894 PWs)   bands (ev):

   -39.2441 -39.2441 -39.2434 -39.2434 -39.2410 -39.2410 -39.2407 -39.2407
   -39.0326 -39.0326 -38.9928 -38.9928 -38.3506 -38.3506 -38.3499 -38.3499
   -38.3481 -38.3481 -38.3477 -38.3477 -38.3464 -38.3464 -38.3462 -38.3462
   -38.1411 -38.1411 -38.1242 -38.1242 -38.0896 -38.0896 -15.7537 -15.7537
   -15.7535 -15.7535 -15.7440 -15.7439 -15.7429 -15.7429 -12.7810 -12.7810
   -12.7786 -12.7786 -12.7649 -12.7649 -12.7631 -12.7631 -12.7549 -12.7549
   -12.7521 -12.7521  -4.4440  -4.4440  -4.1659  -4.1659  -3.4768  -3.4768
    -1.3740  -1.3740  -0.8829  -0.8829   4.1906   4.1906   4.7634   4.7635
     5.4052   5.4052   5.8742   5.8743   6.0881   6.0881   6.3974   6.3974
     7.5118   7.5118   7.7213   7.7213   8.3152   8.3152   9.1990   9.1990
    10.5010  10.5010  10.9950  10.9950  11.5265  11.5265  12.6218  12.6218
    13.2781  13.2781  13.4167  13.4167  15.0634  15.0634  15.9789  15.9789
    17.1550  17.1550  17.5291  17.5291  17.6168  17.6168  18.1076  18.1076
    18.8213  18.8213  19.3060  19.3060  19.4968  19.4968  20.0392  20.0392
    20.3431  20.3431  20.7542  20.7542  21.2899  21.2899  21.6602  21.6602
    21.9574  21.9574  22.6338  22.6339

     occupation numbers 
     1.0000   1.0000   1.0000   1.0000   1.0000   1.0000   1.0000   1.0000
     1.0000   1.0000   1.0000   1.0000   1.0000   1.0000   1.0000   1.0000
     1.0000   1.0000   1.0000   1.0000   1.0000   1.0000   1.0000   1.0000
     1.0000   1.0000   1.0000   1.0000   1.0000   1.0000   1.0000   1.0000
     1.0000   1.0000   1.0000   1.0000   1.0000   1.0000   1.0000   1.0000
     1.0000   1.0000   1.0000   1.0000   1.0000   1.0000   1.0000   1.0000
     1.0000   1.0000   1.0000   1.0000   1.0000   1.0000   1.0000   1.0000
     1.0000   1.0000   1.0000   1.0000   1.0000   1.0000   1.0000   1.0000
     1.0000   1.0000   1.0000   1.0000   1.0000   1.0000   1.0000   1.0000
     1.0000   1.0000   1.0000   1.0000   1.0056   1.0056  -0.0000  -0.0000
    -0.0000  -0.0000  -0.0000  -0.0000  -0.0000  -0.0000  -0.0000  -0.0000
    -0.0000  -0.0000  -0.0000  -0.0000  -0.0000  -0.0000  -0.0000  -0.0000
    -0.0000  -0.0000  -0.0000  -0.0000  -0.0000  -0.0000  -0.0000  -0.0000
    -0.0000  -0.0000  -0.0000  -0.0000  -0.0000  -0.0000  -0.0000  -0.0000
    -0.0000  -0.0000  -0.0000  -0.0000  -0.0000  -0.0000  -0.0000  -0.0000
    -0.0000  -0.0000  -0.0000  -0.0000

          k = 0.3356 0.1997-0.3339 (  9930 PWs)   bands (ev):

   -39.2446 -39.2446 -39.2441 -39.2441 -39.2413 -39.2413 -39.2407 -39.2407
   -39.0328 -39.0328 -38.9934 -38.9934 -38.3512 -38.3512 -38.3507 -38.3507
   -38.3483 -38.3483 -38.3478 -38.3478 -38.3468 -38.3468 -38.3464 -38.3464
   -38.1414 -38.1414 -38.1243 -38.1243 -38.0903 -38.0903 -15.7557 -15.7557
   -15.7555 -15.7555 -15.7441 -15.7441 -15.7426 -15.7426 -12.7804 -12.7804
   -12.7786 -12.7785 -12.7628 -12.7628 -12.7624 -12.7624 -12.7588 -12.7588
   -12.7569 -12.7569  -5.0997  -5.0997  -4.6288  -4.6288  -3.7080  -3.7080
    -0.9503  -0.9503  -0.1117  -0.1117   5.2523   5.2524   5.6003   5.6004
     6.0694   6.0694   6.5586   6.5586   6.6571   6.6571   7.3929   7.3929
     7.5616   7.5616   7.6922   7.6922   8.1558   8.1558   9.3512   9.3512
    10.0382  10.0382  10.8933  10.8933  11.2884  11.2884  11.7614  11.7614
    12.2385  12.2385  14.0702  14.0702  15.1438  15.1438  15.8019  15.8019
    16.2702  16.2702  16.3324  16.3324  16.7858  16.7858  17.0244  17.0244
    17.8004  17.8004  18.5592  18.5592  18.8678  18.8678  18.9884  18.9884
    19.2841  19.2841  19.6307  19.6307  19.7334  19.7334  20.3626  20.3626
    20.6465  20.6465  21.4799  21.4800

     occupation numbers 
     1.0000   1.0000   1.0000   1.0000   1.0000   1.0000   1.0000   1.0000
     1.0000   1.0000   1.0000   1.0000   1.0000   1.0000   1.0000   1.0000
     1.0000   1.0000   1.0000   1.0000   1.0000   1.0000   1.0000   1.0000
     1.0000   1.0000   1.0000   1.0000   1.0000   1.0000   1.0000   1.0000
     1.0000   1.0000   1.0000   1.0000   1.0000   1.0000   1.0000   1.0000
     1.0000   1.0000   1.0000   1.0000   1.0000   1.0000   1.0000   1.0000
     1.0000   1.0000   1.0000   1.0000   1.0000   1.0000   1.0000   1.0000
     1.0000   1.0000   1.0000   1.0000   1.0000   1.0000   1.0000   1.0000
     1.0000   1.0000   1.0000   1.0000   1.0000   1.0000   1.0000   1.0000
     1.0000   1.0000   1.0000   1.0000   1.0000   1.0000  -0.0000  -0.0000
    -0.0000  -0.0000  -0.0000  -0.0000  -0.0000  -0.0000  -0.0000  -0.0000
    -0.0000  -0.0000  -0.0000  -0.0000  -0.0000  -0.0000  -0.0000  -0.0000
    -0.0000  -0.0000  -0.0000  -0.0000  -0.0000  -0.0000  -0.0000  -0.0000
    -0.0000  -0.0000  -0.0000  -0.0000  -0.0000  -0.0000  -0.0000  -0.0000
    -0.0000  -0.0000  -0.0000  -0.0000  -0.0000  -0.0000  -0.0000  -0.0000
    -0.0000  -0.0000  -0.0000  -0.0000

          k =-0.0359-0.0214-0.1666 (  9892 PWs)   bands (ev):

   -39.2442 -39.2442 -39.2433 -39.2433 -39.2407 -39.2407 -39.2403 -39.2403
   -39.0322 -39.0322 -38.9928 -38.9928 -38.3508 -38.3508 -38.3498 -38.3498
   -38.3481 -38.3481 -38.3471 -38.3471 -38.3462 -38.3462 -38.3458 -38.3458
   -38.1408 -38.1408 -38.1239 -38.1239 -38.0897 -38.0897 -15.7568 -15.7568
   -15.7566 -15.7566 -15.7439 -15.7439 -15.7425 -15.7425 -12.7820 -12.7820
   -12.7806 -12.7806 -12.7612 -12.7612 -12.7608 -12.7608 -12.7594 -12.7594
   -12.7584 -12.7584  -5.3476  -5.3476  -4.7886  -4.7886  -3.8607  -3.8607
    -0.7936  -0.7936   0.1659   0.1659   6.0456   6.0456   6.4268   6.4268
     6.7880   6.7880   7.1223   7.1223   7.1605   7.1605   7.2976   7.2976
     7.4257   7.4257   7.6815   7.6815   8.3646   8.3646   8.7271   8.7271
     9.8504   9.8504  10.0994  10.0994  10.8596  10.8596  11.5488  11.5488
    12.0219  12.0219  14.7448  14.7448  15.4760  15.4760  15.7130  15.7130
    15.7805  15.7805  16.2961  16.2961  16.8384  16.8384  16.8623  16.8623
    17.0915  17.0915  17.6412  17.6412  17.6712  17.6712  17.9126  17.9126
    19.1276  19.1276  19.4325  19.4325  19.4475  19.4475  19.8727  19.8727
    20.5778  20.5779  20.7051  20.7052

     occupation numbers 
     1.0000   1.0000   1.0000   1.0000   1.0000   1.0000   1.0000   1.0000
     1.0000   1.0000   1.0000   1.0000   1.0000   1.0000   1.0000   1.0000
     1.0000   1.0000   1.0000   1.0000   1.0000   1.0000   1.0000   1.0000
     1.0000   1.0000   1.0000   1.0000   1.0000   1.0000   1.0000   1.0000
     1.0000   1.0000   1.0000   1.0000   1.0000   1.0000   1.0000   1.0000
     1.0000   1.0000   1.0000   1.0000   1.0000   1.0000   1.0000   1.0000
     1.0000   1.0000   1.0000   1.0000   1.0000   1.0000   1.0000   1.0000
     1.0000   1.0000   1.0000   1.0000   1.0000   1.0000   1.0000   1.0000
     1.0000   1.0000   1.0000   1.0000   1.0000   1.0000   1.0000   1.0000
     1.0000   1.0000   1.0000   1.0000   1.0168   1.0168  -0.0152  -0.0152
    -0.0000  -0.0000  -0.0000  -0.0000  -0.0000  -0.0000  -0.0000  -0.0000
    -0.0000  -0.0000  -0.0000  -0.0000  -0.0000  -0.0000  -0.0000  -0.0000
    -0.0000  -0.0000  -0.0000  -0.0000  -0.0000  -0.0000  -0.0000  -0.0000
    -0.0000  -0.0000  -0.0000  -0.0000  -0.0000  -0.0000  -0.0000  -0.0000
    -0.0000  -0.0000  -0.0000  -0.0000  -0.0000  -0.0000  -0.0000  -0.0000
    -0.0000  -0.0000  -0.0000  -0.0000

     the Fermi energy is     8.6015 ev

     WARNING: integrated charge=    78.00454120, expected=    78.00000000

!    total energy              =   -1054.96667829 Ry
     estimated scf accuracy    <          1.5E-09 Ry
     smearing contrib. (-TS)   =       0.00008647 Ry
     internal energy E=F+TS    =   -1054.96676477 Ry

     The total energy is F=E-TS. E is the sum of the following terms:
     one-electron contribution =    -533.32682474 Ry
     hartree contribution      =     292.80985499 Ry
     xc contribution           =    -231.27211214 Ry
     ewald contribution        =    -583.17768287 Ry

     convergence has been achieved in  11 iterations

     Writing all to output data dir ./out_soc_nc_Bi2Se3/Bi2Se3_soc_nc.save/ :
     XML data file, charge density, pseudopotentials, collected wavefunctions

     init_run     :     13.66s CPU     14.21s WALL (       1 calls)
     electrons    :    941.66s CPU    962.16s WALL (       1 calls)

     Called by init_run:
     wfcinit      :     13.07s CPU     13.58s WALL (       1 calls)
     wfcinit:atom :      0.02s CPU      0.02s WALL (       9 calls)
     wfcinit:wfcr :     12.95s CPU     13.33s WALL (       9 calls)
     potinit      :      0.14s CPU      0.17s WALL (       1 calls)
     hinit0       :      0.43s CPU      0.44s WALL (       1 calls)

     Called by electrons:
     c_bands      :    748.00s CPU    763.91s WALL (      12 calls)
     sum_band     :    190.97s CPU    194.65s WALL (      12 calls)
     v_of_rho     :      1.28s CPU      1.52s WALL (      12 calls)
     v_h          :      0.05s CPU      0.07s WALL (      12 calls)
     v_xc         :      1.23s CPU      1.45s WALL (      12 calls)
     mix_rho      :      0.24s CPU      0.52s WALL (      12 calls)

     Called by c_bands:
     init_us_2    :      0.55s CPU      0.58s WALL (     225 calls)
     cegterg      :    366.35s CPU    377.05s WALL (     108 calls)

     Called by sum_band:
     sum_band:wei :      0.05s CPU      0.05s WALL (      12 calls)
     sum_band:loo :     84.05s CPU     87.06s WALL (      12 calls)
     sum_band:buf :      0.02s CPU      0.74s WALL (     108 calls)
     sum_band:ini :      0.24s CPU      0.26s WALL (     108 calls)

     Called by *egterg:
     cdiaghg      :      3.51s CPU      3.54s WALL (     441 calls)
     cegterg:over :      6.88s CPU      6.92s WALL (     342 calls)
     cegterg:upda :      3.66s CPU      4.03s WALL (     342 calls)
     cegterg:last :      5.82s CPU      5.85s WALL (     208 calls)
     h_psi        :    355.70s CPU    365.56s WALL (     459 calls)
     g_psi        :      0.19s CPU      0.19s WALL (     342 calls)

     Called by h_psi:
     h_psi:calbec :      4.85s CPU      4.92s WALL (     459 calls)
     vloc_psi     :    346.64s CPU    355.77s WALL (     459 calls)
                                        0.00s GPU  (     459 calls)
     add_vuspsi   :      3.87s CPU      3.90s WALL (     459 calls)

     General routines
     calbec       :      4.85s CPU      4.92s WALL (     459 calls)
     fft          :      0.82s CPU      0.88s WALL (     190 calls)
     ffts         :      0.12s CPU      0.14s WALL (      48 calls)
     fftw         :    357.78s CPU    368.23s WALL (  150692 calls)
     davcio       :      0.06s CPU      2.75s WALL (     468 calls)

     Parallel routines

     PWSCF        :    969.42s CPU    992.09s WALL


   This run was terminated on:  19:30:20  29Jul2026            

=------------------------------------------------------------------------------=
   JOB DONE.
=------------------------------------------------------------------------------=
