
     Program PWSCF v.7.5 starts on 29Jul2026 at 19:15:14 

     This program is part of the open-source Quantum ESPRESSO suite
     for quantum simulation of materials; please cite
         "P. Giannozzi et al., J. Phys.:Condens. Matter 21 395502 (2009);
         "P. Giannozzi et al., J. Phys.:Condens. Matter 29 465901 (2017);
         "P. Giannozzi et al., J. Chem. Phys. 152 154105 (2020);
          URL http://www.quantum-espresso.org", 
     in publications or presentations arising from this work. More details at
     http://www.quantum-espresso.org/quote

     Parallel version (MPI & OpenMP), running on      48 processor cores
     Number of MPI processes:                48
     Threads/MPI process:                     1

     MPI processes distributed on     1 nodes
     519647 MiB available memory on the printing compute node when the environment starts

     Reading input from Bi2Te3.scf.soc.nc.in

     Current dimensions of program PWSCF are:
     Max number of different atomic species (ntypx) = 10
     Max number of k-points (npk) =  40000
     Max angular momentum in pseudopotentials (lmaxx) =  4

     K-points division:     npool     =      24
     R & G space division:  proc/nbgrp/npool/nimage =       2
     Subspace diagonalization in iterative solution of the eigenvalue problem:
     a serial algorithm will be used


     Parallelization info
     --------------------
     sticks:   dense  smooth     PW     G-vecs:    dense   smooth      PW
     Min        1853    1853    548                47655    47655    7588
     Max        1854    1854    549                47658    47658    7589
     Sum        3707    3707   1097                95313    95313   15177

     Using Slab Decomposition



     bravais-lattice index     =            0
     lattice parameter (alat)  =      20.2452  a.u.
     unit-cell volume          =    1203.9706 (a.u.)^3
     number of atoms/cell      =            5
     number of atomic types    =            2
     number of electrons       =        78.00
     number of Kohn-Sham states=          124
     kinetic-energy cutoff     =      70.0000  Ry
     charge density cutoff     =     280.0000  Ry
     scf convergence threshold =      1.0E-08
     mixing beta               =       0.3000
     number of iterations used =            8  plain     mixing
     Exchange-correlation= PBE
                           (   1   4   3   4   0   0   0)
     Non magnetic calculation with spin-orbit


     celldm(1)=  20.245188  celldm(2)=   0.000000  celldm(3)=   0.000000
     celldm(4)=   0.000000  celldm(5)=   0.000000  celldm(6)=   0.000000

     crystal axes: (cart. coord. in units of alat)
               a(1) = (   0.999998   0.001635   0.000973 )  
               a(2) = (   0.913045   0.407858   0.000973 )  
               a(3) = (   0.913045   0.195440   0.357984 )  

     reciprocal axes: (cart. coord. in units 2 pi/alat)
               b(1) = (  1.004976 -2.246585 -1.336696 )  
               b(2) = ( -0.002724  2.461120 -1.336695 )  
               b(3) = ( -0.002724 -0.000583  2.800690 )  


     PseudoPot. # 1 for Bi read from file:
     ./pseudo_nc/Bi_FR.upf
     MD5 check sum: 260977096fd1df4b879f04c556a28fcb
     Pseudo is Norm-conserving + core correction, Zval = 15.0
     Generated using ONCVPSP code by D. R. Hamann
     Using radial grid of 1562 points, 10 beta functions with: 
                l(1) =   0
                l(2) =   0
                l(3) =   1
                l(4) =   1
                l(5) =   1
                l(6) =   1
                l(7) =   2
                l(8) =   2
                l(9) =   2
               l(10) =   2

     PseudoPot. # 2 for Te read from file:
     ./pseudo_nc/Te_FR.upf
     MD5 check sum: d198e370297ac1d7edee156d0fe975c4
     Pseudo is Norm-conserving + core correction, Zval = 16.0
     Generated using ONCVPSP code by D. R. Hamann
     Using radial grid of 1324 points, 10 beta functions with: 
                l(1) =   0
                l(2) =   0
                l(3) =   1
                l(4) =   1
                l(5) =   1
                l(6) =   1
                l(7) =   2
                l(8) =   2
                l(9) =   2
               l(10) =   2

     atomic species   valence    mass     pseudopotential
     Bi               15.00   208.98040     Bi( 1.00)
     Te               16.00   127.60000     Te( 1.00)

     No symmetry found


                                    s                        frac. trans.

      isym =  1     identity                                     

 cryst.   s( 1) = (     1          0          0      )
                  (     0          1          0      )
                  (     0          0          1      )

 cart.    s( 1) = (  1.0000000  0.0000000 -0.0000000 )
                  (  0.0000000  1.0000000 -0.0000000 )
                  ( -0.0000000  0.0000000  1.0000000 )


   Cartesian axes

     site n.     atom                  positions (alat units)
         1        Bi     tau(   1) = (   1.1280872   0.2414708   0.1436727  )
         2        Bi     tau(   2) = (   1.6980009   0.3634627   0.2162567  )
         3        Te     tau(   3) = (   0.5990627   0.1282313   0.0762964  )
         4        Te     tau(   4) = (   0.0000000   0.0000000   0.0000000  )
         5        Te     tau(   5) = (   2.2270254   0.4767021   0.2836330  )

   Crystallographic axes

     site n.     atom                  positions (cryst. coord.)
         1        Bi     tau(   1) = (  0.3991692  0.3991691  0.3991691  )
         2        Bi     tau(   2) = (  0.6008309  0.6008309  0.6008308  )
         3        Te     tau(   3) = (  0.2119760  0.2119759  0.2119759  )
         4        Te     tau(   4) = (  0.0000000  0.0000000  0.0000000  )
         5        Te     tau(   5) = (  0.7880240  0.7880240  0.7880240  )

     number of k points=   216  Methfessel-Paxton smearing, width (Ry)=  0.0100
                       cart. coord. in units 2pi/alat
        k(    1) = (   0.0000000   0.0000000   0.0000000), wk =   0.0046296
        k(    2) = (  -0.0004540  -0.0000972   0.4667817), wk =   0.0046296
        k(    3) = (  -0.0009080  -0.0001944   0.9335634), wk =   0.0046296
        k(    4) = (   0.0013619   0.0002915  -1.4003451), wk =   0.0046296
        k(    5) = (   0.0009080   0.0001944  -0.9335634), wk =   0.0046296
        k(    6) = (   0.0004540   0.0000972  -0.4667817), wk =   0.0046296
        k(    7) = (  -0.0004540   0.4101867  -0.2227825), wk =   0.0046296
        k(    8) = (  -0.0009080   0.4100895   0.2439992), wk =   0.0046296
        k(    9) = (  -0.0013620   0.4099923   0.7107809), wk =   0.0046296
        k(   10) = (   0.0009079   0.4104782  -1.6231276), wk =   0.0046296
        k(   11) = (   0.0004540   0.4103810  -1.1563459), wk =   0.0046296
        k(   12) = (  -0.0000000   0.4102839  -0.6895642), wk =   0.0046296
        k(   13) = (  -0.0009080   0.8203734  -0.4455650), wk =   0.0046296
        k(   14) = (  -0.0013620   0.8202762   0.0212167), wk =   0.0046296
        k(   15) = (  -0.0018160   0.8201790   0.4879985), wk =   0.0046296
        k(   16) = (   0.0004539   0.8206649  -1.8459101), wk =   0.0046296
        k(   17) = (  -0.0000000   0.8205677  -1.3791284), wk =   0.0046296
        k(   18) = (  -0.0004540   0.8204706  -0.9123467), wk =   0.0046296
        k(   19) = (   0.0013620  -1.2305601   0.6683475), wk =   0.0046296
        k(   20) = (   0.0009080  -1.2306573   1.1351292), wk =   0.0046296
        k(   21) = (   0.0004540  -1.2307544   1.6019109), wk =   0.0046296
        k(   22) = (   0.0027239  -1.2302686  -0.7319977), wk =   0.0046296
        k(   23) = (   0.0022700  -1.2303657  -0.2652160), wk =   0.0046296
        k(   24) = (   0.0018160  -1.2304629   0.2015657), wk =   0.0046296
        k(   25) = (   0.0009080  -0.8203734   0.4455650), wk =   0.0046296
        k(   26) = (   0.0004540  -0.8204706   0.9123467), wk =   0.0046296
        k(   27) = (   0.0000000  -0.8205677   1.3791284), wk =   0.0046296
        k(   28) = (   0.0022699  -0.8200819  -0.9547802), wk =   0.0046296
        k(   29) = (   0.0018160  -0.8201790  -0.4879985), wk =   0.0046296
        k(   30) = (   0.0013620  -0.8202762  -0.0212167), wk =   0.0046296
        k(   31) = (   0.0004540  -0.4101867   0.2227825), wk =   0.0046296
        k(   32) = (   0.0000000  -0.4102839   0.6895642), wk =   0.0046296
        k(   33) = (  -0.0004540  -0.4103810   1.1563459), wk =   0.0046296
        k(   34) = (   0.0018159  -0.4098952  -1.1775627), wk =   0.0046296
        k(   35) = (   0.0013620  -0.4099923  -0.7107809), wk =   0.0046296
        k(   36) = (   0.0009080  -0.4100895  -0.2439992), wk =   0.0046296
        k(   37) = (   0.1674960  -0.3744308  -0.2227827), wk =   0.0046296
        k(   38) = (   0.1670420  -0.3745280   0.2439991), wk =   0.0046296
        k(   39) = (   0.1665880  -0.3746252   0.7107808), wk =   0.0046296
        k(   40) = (   0.1688579  -0.3741393  -1.6231278), wk =   0.0046296
        k(   41) = (   0.1684040  -0.3742365  -1.1563461), wk =   0.0046296
        k(   42) = (   0.1679500  -0.3743337  -0.6895644), wk =   0.0046296
        k(   43) = (   0.1670420   0.0357559  -0.4455652), wk =   0.0046296
        k(   44) = (   0.1665880   0.0356587   0.0212166), wk =   0.0046296
        k(   45) = (   0.1661340   0.0355615   0.4879983), wk =   0.0046296
        k(   46) = (   0.1684039   0.0360474  -1.8459103), wk =   0.0046296
        k(   47) = (   0.1679500   0.0359502  -1.3791286), wk =   0.0046296
        k(   48) = (   0.1674960   0.0358530  -0.9123469), wk =   0.0046296
        k(   49) = (   0.1665880   0.4459425  -0.6683476), wk =   0.0046296
        k(   50) = (   0.1661340   0.4458454  -0.2015659), wk =   0.0046296
        k(   51) = (   0.1656800   0.4457482   0.2652158), wk =   0.0046296
        k(   52) = (   0.1679499   0.4462341  -2.0686928), wk =   0.0046296
        k(   53) = (   0.1674960   0.4461369  -1.6019111), wk =   0.0046296
        k(   54) = (   0.1670420   0.4460397  -1.1351294), wk =   0.0046296
        k(   55) = (   0.1688580  -1.6049909   0.4455648), wk =   0.0046296
        k(   56) = (   0.1684040  -1.6050881   0.9123465), wk =   0.0046296
        k(   57) = (   0.1679500  -1.6051853   1.3791282), wk =   0.0046296
        k(   58) = (   0.1702199  -1.6046994  -0.9547803), wk =   0.0046296
        k(   59) = (   0.1697659  -1.6047966  -0.4879986), wk =   0.0046296
        k(   60) = (   0.1693120  -1.6048937  -0.0212169), wk =   0.0046296
        k(   61) = (   0.1684040  -1.1948042   0.2227823), wk =   0.0046296
        k(   62) = (   0.1679500  -1.1949014   0.6895640), wk =   0.0046296
        k(   63) = (   0.1674960  -1.1949986   1.1563457), wk =   0.0046296
        k(   64) = (   0.1697659  -1.1945127  -1.1775628), wk =   0.0046296
        k(   65) = (   0.1693119  -1.1946099  -0.7107811), wk =   0.0046296
        k(   66) = (   0.1688580  -1.1947070  -0.2439994), wk =   0.0046296
        k(   67) = (   0.1679500  -0.7846175  -0.0000002), wk =   0.0046296
        k(   68) = (   0.1674960  -0.7847147   0.4667815), wk =   0.0046296
        k(   69) = (   0.1670420  -0.7848119   0.9335633), wk =   0.0046296
        k(   70) = (   0.1693119  -0.7843260  -1.4003453), wk =   0.0046296
        k(   71) = (   0.1688580  -0.7844232  -0.9335636), wk =   0.0046296
        k(   72) = (   0.1684040  -0.7845204  -0.4667819), wk =   0.0046296
        k(   73) = (   0.3349920  -0.7488617  -0.4455653), wk =   0.0046296
        k(   74) = (   0.3345380  -0.7489589   0.0212164), wk =   0.0046296
        k(   75) = (   0.3340840  -0.7490560   0.4879981), wk =   0.0046296
        k(   76) = (   0.3363539  -0.7485701  -1.8459105), wk =   0.0046296
        k(   77) = (   0.3358999  -0.7486673  -1.3791288), wk =   0.0046296
        k(   78) = (   0.3354460  -0.7487645  -0.9123470), wk =   0.0046296
        k(   79) = (   0.3345380  -0.3386750  -0.6683478), wk =   0.0046296
        k(   80) = (   0.3340840  -0.3387722  -0.2015661), wk =   0.0046296
        k(   81) = (   0.3336300  -0.3388693   0.2652156), wk =   0.0046296
        k(   82) = (   0.3358999  -0.3383835  -2.0686930), wk =   0.0046296
        k(   83) = (   0.3354460  -0.3384806  -1.6019112), wk =   0.0046296
        k(   84) = (   0.3349920  -0.3385778  -1.1351295), wk =   0.0046296
        k(   85) = (   0.3340840   0.0715117  -0.8911303), wk =   0.0046296
        k(   86) = (   0.3336300   0.0714145  -0.4243486), wk =   0.0046296
        k(   87) = (   0.3331760   0.0713174   0.0424331), wk =   0.0046296
        k(   88) = (   0.3354459   0.0718032  -2.2914754), wk =   0.0046296
        k(   89) = (   0.3349920   0.0717061  -1.8246937), wk =   0.0046296
        k(   90) = (   0.3345380   0.0716089  -1.3579120), wk =   0.0046296
        k(   91) = (   0.3363540  -1.9794218   0.2227821), wk =   0.0046296
        k(   92) = (   0.3359000  -1.9795189   0.6895638), wk =   0.0046296
        k(   93) = (   0.3354460  -1.9796161   1.1563456), wk =   0.0046296
        k(   94) = (   0.3377159  -1.9791302  -1.1775630), wk =   0.0046296
        k(   95) = (   0.3372619  -1.9792274  -0.7107813), wk =   0.0046296
        k(   96) = (   0.3368080  -1.9793246  -0.2439996), wk =   0.0046296
        k(   97) = (   0.3359000  -1.5692351  -0.0000004), wk =   0.0046296
        k(   98) = (   0.3354460  -1.5693322   0.4667814), wk =   0.0046296
        k(   99) = (   0.3349920  -1.5694294   0.9335631), wk =   0.0046296
        k(  100) = (   0.3372619  -1.5689435  -1.4003455), wk =   0.0046296
        k(  101) = (   0.3368079  -1.5690407  -0.9335638), wk =   0.0046296
        k(  102) = (   0.3363540  -1.5691379  -0.4667821), wk =   0.0046296
        k(  103) = (   0.3354460  -1.1590484  -0.2227828), wk =   0.0046296
        k(  104) = (   0.3349920  -1.1591455   0.2439989), wk =   0.0046296
        k(  105) = (   0.3345380  -1.1592427   0.7107806), wk =   0.0046296
        k(  106) = (   0.3368079  -1.1587568  -1.6231280), wk =   0.0046296
        k(  107) = (   0.3363539  -1.1588540  -1.1563463), wk =   0.0046296
        k(  108) = (   0.3359000  -1.1589512  -0.6895646), wk =   0.0046296
        k(  109) = (  -0.5024880   1.1232925   0.6683480), wk =   0.0046296
        k(  110) = (  -0.5029420   1.1231953   1.1351297), wk =   0.0046296
        k(  111) = (  -0.5033959   1.1230982   1.6019114), wk =   0.0046296
        k(  112) = (  -0.5011260   1.1235840  -0.7319972), wk =   0.0046296
        k(  113) = (  -0.5015800   1.1234869  -0.2652154), wk =   0.0046296
        k(  114) = (  -0.5020340   1.1233897   0.2015663), wk =   0.0046296
        k(  115) = (  -0.5029420   1.5334792   0.4455655), wk =   0.0046296
        k(  116) = (  -0.5033960   1.5333820   0.9123472), wk =   0.0046296
        k(  117) = (  -0.5038499   1.5332849   1.3791289), wk =   0.0046296
        k(  118) = (  -0.5015800   1.5337707  -0.9547796), wk =   0.0046296
        k(  119) = (  -0.5020340   1.5336736  -0.4879979), wk =   0.0046296
        k(  120) = (  -0.5024880   1.5335764  -0.0212162), wk =   0.0046296
        k(  121) = (  -0.5033960   1.9436659   0.2227830), wk =   0.0046296
        k(  122) = (  -0.5038500   1.9435687   0.6895647), wk =   0.0046296
        k(  123) = (  -0.5043039   1.9434715   1.1563464), wk =   0.0046296
        k(  124) = (  -0.5020340   1.9439574  -1.1775621), wk =   0.0046296
        k(  125) = (  -0.5024880   1.9438603  -0.7107804), wk =   0.0046296
        k(  126) = (  -0.5029420   1.9437631  -0.2439987), wk =   0.0046296
        k(  127) = (  -0.5011260  -0.1072676   1.3366955), wk =   0.0046296
        k(  128) = (  -0.5015800  -0.1073647   1.8034772), wk =   0.0046296
        k(  129) = (  -0.5020339  -0.1074619   2.2702589), wk =   0.0046296
        k(  130) = (  -0.4997640  -0.1069760  -0.0636497), wk =   0.0046296
        k(  131) = (  -0.5002180  -0.1070732   0.4031320), wk =   0.0046296
        k(  132) = (  -0.5006720  -0.1071704   0.8699137), wk =   0.0046296
        k(  133) = (  -0.5015800   0.3029191   1.1139130), wk =   0.0046296
        k(  134) = (  -0.5020340   0.3028220   1.5806947), wk =   0.0046296
        k(  135) = (  -0.5024879   0.3027248   2.0474764), wk =   0.0046296
        k(  136) = (  -0.5002180   0.3032107  -0.2864322), wk =   0.0046296
        k(  137) = (  -0.5006720   0.3031135   0.1803495), wk =   0.0046296
        k(  138) = (  -0.5011260   0.3030163   0.6471313), wk =   0.0046296
        k(  139) = (  -0.5020340   0.7131058   0.8911305), wk =   0.0046296
        k(  140) = (  -0.5024880   0.7130086   1.3579122), wk =   0.0046296
        k(  141) = (  -0.5029419   0.7129115   1.8246939), wk =   0.0046296
        k(  142) = (  -0.5006720   0.7133973  -0.5092147), wk =   0.0046296
        k(  143) = (  -0.5011260   0.7133002  -0.0424330), wk =   0.0046296
        k(  144) = (  -0.5015800   0.7132030   0.4243488), wk =   0.0046296
        k(  145) = (  -0.3349920   0.7488617   0.4455653), wk =   0.0046296
        k(  146) = (  -0.3354460   0.7487645   0.9123470), wk =   0.0046296
        k(  147) = (  -0.3358999   0.7486673   1.3791288), wk =   0.0046296
        k(  148) = (  -0.3336300   0.7491532  -0.9547798), wk =   0.0046296
        k(  149) = (  -0.3340840   0.7490560  -0.4879981), wk =   0.0046296
        k(  150) = (  -0.3345380   0.7489589  -0.0212164), wk =   0.0046296
        k(  151) = (  -0.3354460   1.1590484   0.2227828), wk =   0.0046296
        k(  152) = (  -0.3359000   1.1589512   0.6895646), wk =   0.0046296
        k(  153) = (  -0.3363539   1.1588540   1.1563463), wk =   0.0046296
        k(  154) = (  -0.3340840   1.1593399  -1.1775623), wk =   0.0046296
        k(  155) = (  -0.3345380   1.1592427  -0.7107806), wk =   0.0046296
        k(  156) = (  -0.3349920   1.1591455  -0.2439989), wk =   0.0046296
        k(  157) = (  -0.3359000   1.5692351   0.0000004), wk =   0.0046296
        k(  158) = (  -0.3363540   1.5691379   0.4667821), wk =   0.0046296
        k(  159) = (  -0.3368079   1.5690407   0.9335638), wk =   0.0046296
        k(  160) = (  -0.3345380   1.5695266  -1.4003448), wk =   0.0046296
        k(  161) = (  -0.3349920   1.5694294  -0.9335631), wk =   0.0046296
        k(  162) = (  -0.3354460   1.5693322  -0.4667814), wk =   0.0046296
        k(  163) = (  -0.3336300  -0.4816984   1.1139128), wk =   0.0046296
        k(  164) = (  -0.3340840  -0.4817956   1.5806945), wk =   0.0046296
        k(  165) = (  -0.3345380  -0.4818928   2.0474762), wk =   0.0046296
        k(  166) = (  -0.3322681  -0.4814069  -0.2864324), wk =   0.0046296
        k(  167) = (  -0.3327220  -0.4815041   0.1803494), wk =   0.0046296
        k(  168) = (  -0.3331760  -0.4816012   0.6471311), wk =   0.0046296
        k(  169) = (  -0.3340840  -0.0715117   0.8911303), wk =   0.0046296
        k(  170) = (  -0.3345380  -0.0716089   1.3579120), wk =   0.0046296
        k(  171) = (  -0.3349920  -0.0717061   1.8246937), wk =   0.0046296
        k(  172) = (  -0.3327221  -0.0712202  -0.5092148), wk =   0.0046296
        k(  173) = (  -0.3331760  -0.0713174  -0.0424331), wk =   0.0046296
        k(  174) = (  -0.3336300  -0.0714145   0.4243486), wk =   0.0046296
        k(  175) = (  -0.3345380   0.3386750   0.6683478), wk =   0.0046296
        k(  176) = (  -0.3349920   0.3385778   1.1351295), wk =   0.0046296
        k(  177) = (  -0.3354460   0.3384806   1.6019112), wk =   0.0046296
        k(  178) = (  -0.3331761   0.3389665  -0.7319973), wk =   0.0046296
        k(  179) = (  -0.3336300   0.3388693  -0.2652156), wk =   0.0046296
        k(  180) = (  -0.3340840   0.3387722   0.2015661), wk =   0.0046296
        k(  181) = (  -0.1674960   0.3744308   0.2227827), wk =   0.0046296
        k(  182) = (  -0.1679500   0.3743337   0.6895644), wk =   0.0046296
        k(  183) = (  -0.1684040   0.3742365   1.1563461), wk =   0.0046296
        k(  184) = (  -0.1661341   0.3747224  -1.1775625), wk =   0.0046296
        k(  185) = (  -0.1665880   0.3746252  -0.7107808), wk =   0.0046296
        k(  186) = (  -0.1670420   0.3745280  -0.2439991), wk =   0.0046296
        k(  187) = (  -0.1679500   0.7846175   0.0000002), wk =   0.0046296
        k(  188) = (  -0.1684040   0.7845204   0.4667819), wk =   0.0046296
        k(  189) = (  -0.1688580   0.7844232   0.9335636), wk =   0.0046296
        k(  190) = (  -0.1665881   0.7849091  -1.4003450), wk =   0.0046296
        k(  191) = (  -0.1670420   0.7848119  -0.9335633), wk =   0.0046296
        k(  192) = (  -0.1674960   0.7847147  -0.4667815), wk =   0.0046296
        k(  193) = (  -0.1684040   1.1948042  -0.2227823), wk =   0.0046296
        k(  194) = (  -0.1688580   1.1947070   0.2439994), wk =   0.0046296
        k(  195) = (  -0.1693119   1.1946099   0.7107811), wk =   0.0046296
        k(  196) = (  -0.1670420   1.1950958  -1.6231275), wk =   0.0046296
        k(  197) = (  -0.1674960   1.1949986  -1.1563457), wk =   0.0046296
        k(  198) = (  -0.1679500   1.1949014  -0.6895640), wk =   0.0046296
        k(  199) = (  -0.1661340  -0.8561292   0.8911301), wk =   0.0046296
        k(  200) = (  -0.1665880  -0.8562264   1.3579118), wk =   0.0046296
        k(  201) = (  -0.1670420  -0.8563236   1.8246936), wk =   0.0046296
        k(  202) = (  -0.1647721  -0.8558377  -0.5092150), wk =   0.0046296
        k(  203) = (  -0.1652260  -0.8559349  -0.0424333), wk =   0.0046296
        k(  204) = (  -0.1656800  -0.8560321   0.4243484), wk =   0.0046296
        k(  205) = (  -0.1665880  -0.4459425   0.6683476), wk =   0.0046296
        k(  206) = (  -0.1670420  -0.4460397   1.1351294), wk =   0.0046296
        k(  207) = (  -0.1674960  -0.4461369   1.6019111), wk =   0.0046296
        k(  208) = (  -0.1652261  -0.4456510  -0.7319975), wk =   0.0046296
        k(  209) = (  -0.1656800  -0.4457482  -0.2652158), wk =   0.0046296
        k(  210) = (  -0.1661340  -0.4458454   0.2015659), wk =   0.0046296
        k(  211) = (  -0.1670420  -0.0357559   0.4455652), wk =   0.0046296
        k(  212) = (  -0.1674960  -0.0358530   0.9123469), wk =   0.0046296
        k(  213) = (  -0.1679500  -0.0359502   1.3791286), wk =   0.0046296
        k(  214) = (  -0.1656801  -0.0354643  -0.9547800), wk =   0.0046296
        k(  215) = (  -0.1661340  -0.0355615  -0.4879983), wk =   0.0046296
        k(  216) = (  -0.1665880  -0.0356587  -0.0212166), wk =   0.0046296

                       cryst. coord.
        k(    1) = (   0.0000000   0.0000000   0.0000000), wk =   0.0046296
        k(    2) = (  -0.0000000  -0.0000000   0.1666667), wk =   0.0046296
        k(    3) = (  -0.0000000  -0.0000000   0.3333333), wk =   0.0046296
        k(    4) = (   0.0000000   0.0000000  -0.5000000), wk =   0.0046296
        k(    5) = (   0.0000000   0.0000000  -0.3333333), wk =   0.0046296
        k(    6) = (   0.0000000   0.0000000  -0.1666667), wk =   0.0046296
        k(    7) = (   0.0000000   0.1666667   0.0000000), wk =   0.0046296
        k(    8) = (  -0.0000000   0.1666667   0.1666667), wk =   0.0046296
        k(    9) = (  -0.0000000   0.1666667   0.3333333), wk =   0.0046296
        k(   10) = (   0.0000000   0.1666667  -0.5000000), wk =   0.0046296
        k(   11) = (   0.0000000   0.1666667  -0.3333333), wk =   0.0046296
        k(   12) = (   0.0000000   0.1666667  -0.1666667), wk =   0.0046296
        k(   13) = (   0.0000000   0.3333333   0.0000000), wk =   0.0046296
        k(   14) = (   0.0000000   0.3333333   0.1666667), wk =   0.0046296
        k(   15) = (  -0.0000000   0.3333333   0.3333333), wk =   0.0046296
        k(   16) = (   0.0000000   0.3333333  -0.5000000), wk =   0.0046296
        k(   17) = (   0.0000000   0.3333333  -0.3333333), wk =   0.0046296
        k(   18) = (   0.0000000   0.3333333  -0.1666667), wk =   0.0046296
        k(   19) = (  -0.0000000  -0.5000000  -0.0000000), wk =   0.0046296
        k(   20) = (  -0.0000000  -0.5000000   0.1666667), wk =   0.0046296
        k(   21) = (  -0.0000000  -0.5000000   0.3333333), wk =   0.0046296
        k(   22) = (  -0.0000000  -0.5000000  -0.5000000), wk =   0.0046296
        k(   23) = (   0.0000000  -0.5000000  -0.3333333), wk =   0.0046296
        k(   24) = (   0.0000000  -0.5000000  -0.1666667), wk =   0.0046296
        k(   25) = (  -0.0000000  -0.3333333  -0.0000000), wk =   0.0046296
        k(   26) = (  -0.0000000  -0.3333333   0.1666667), wk =   0.0046296
        k(   27) = (  -0.0000000  -0.3333333   0.3333333), wk =   0.0046296
        k(   28) = (  -0.0000000  -0.3333333  -0.5000000), wk =   0.0046296
        k(   29) = (  -0.0000000  -0.3333333  -0.3333333), wk =   0.0046296
        k(   30) = (  -0.0000000  -0.3333333  -0.1666667), wk =   0.0046296
        k(   31) = (  -0.0000000  -0.1666667  -0.0000000), wk =   0.0046296
        k(   32) = (  -0.0000000  -0.1666667   0.1666667), wk =   0.0046296
        k(   33) = (  -0.0000000  -0.1666667   0.3333333), wk =   0.0046296
        k(   34) = (   0.0000000  -0.1666667  -0.5000000), wk =   0.0046296
        k(   35) = (  -0.0000000  -0.1666667  -0.3333333), wk =   0.0046296
        k(   36) = (  -0.0000000  -0.1666667  -0.1666667), wk =   0.0046296
        k(   37) = (   0.1666667   0.0000000   0.0000000), wk =   0.0046296
        k(   38) = (   0.1666667   0.0000000   0.1666667), wk =   0.0046296
        k(   39) = (   0.1666667   0.0000000   0.3333333), wk =   0.0046296
        k(   40) = (   0.1666667  -0.0000000  -0.5000000), wk =   0.0046296
        k(   41) = (   0.1666667  -0.0000000  -0.3333333), wk =   0.0046296
        k(   42) = (   0.1666667  -0.0000000  -0.1666667), wk =   0.0046296
        k(   43) = (   0.1666667   0.1666667   0.0000000), wk =   0.0046296
        k(   44) = (   0.1666667   0.1666667   0.1666667), wk =   0.0046296
        k(   45) = (   0.1666667   0.1666667   0.3333333), wk =   0.0046296
        k(   46) = (   0.1666667   0.1666667  -0.5000000), wk =   0.0046296
        k(   47) = (   0.1666667   0.1666667  -0.3333333), wk =   0.0046296
        k(   48) = (   0.1666667   0.1666667  -0.1666667), wk =   0.0046296
        k(   49) = (   0.1666667   0.3333333   0.0000000), wk =   0.0046296
        k(   50) = (   0.1666667   0.3333333   0.1666667), wk =   0.0046296
        k(   51) = (   0.1666667   0.3333333   0.3333333), wk =   0.0046296
        k(   52) = (   0.1666667   0.3333333  -0.5000000), wk =   0.0046296
        k(   53) = (   0.1666667   0.3333333  -0.3333333), wk =   0.0046296
        k(   54) = (   0.1666667   0.3333333  -0.1666667), wk =   0.0046296
        k(   55) = (   0.1666667  -0.5000000   0.0000000), wk =   0.0046296
        k(   56) = (   0.1666667  -0.5000000   0.1666667), wk =   0.0046296
        k(   57) = (   0.1666667  -0.5000000   0.3333333), wk =   0.0046296
        k(   58) = (   0.1666667  -0.5000000  -0.5000000), wk =   0.0046296
        k(   59) = (   0.1666667  -0.5000000  -0.3333333), wk =   0.0046296
        k(   60) = (   0.1666667  -0.5000000  -0.1666667), wk =   0.0046296
        k(   61) = (   0.1666667  -0.3333333   0.0000000), wk =   0.0046296
        k(   62) = (   0.1666667  -0.3333333   0.1666667), wk =   0.0046296
        k(   63) = (   0.1666667  -0.3333333   0.3333333), wk =   0.0046296
        k(   64) = (   0.1666667  -0.3333333  -0.5000000), wk =   0.0046296
        k(   65) = (   0.1666667  -0.3333333  -0.3333333), wk =   0.0046296
        k(   66) = (   0.1666667  -0.3333333  -0.1666667), wk =   0.0046296
        k(   67) = (   0.1666667  -0.1666667   0.0000000), wk =   0.0046296
        k(   68) = (   0.1666667  -0.1666667   0.1666667), wk =   0.0046296
        k(   69) = (   0.1666667  -0.1666667   0.3333333), wk =   0.0046296
        k(   70) = (   0.1666667  -0.1666667  -0.5000000), wk =   0.0046296
        k(   71) = (   0.1666667  -0.1666667  -0.3333333), wk =   0.0046296
        k(   72) = (   0.1666667  -0.1666667  -0.1666667), wk =   0.0046296
        k(   73) = (   0.3333333   0.0000000   0.0000000), wk =   0.0046296
        k(   74) = (   0.3333333  -0.0000000   0.1666667), wk =   0.0046296
        k(   75) = (   0.3333333   0.0000000   0.3333333), wk =   0.0046296
        k(   76) = (   0.3333333   0.0000000  -0.5000000), wk =   0.0046296
        k(   77) = (   0.3333333  -0.0000000  -0.3333333), wk =   0.0046296
        k(   78) = (   0.3333333   0.0000000  -0.1666667), wk =   0.0046296
        k(   79) = (   0.3333333   0.1666667   0.0000000), wk =   0.0046296
        k(   80) = (   0.3333333   0.1666667   0.1666667), wk =   0.0046296
        k(   81) = (   0.3333333   0.1666667   0.3333333), wk =   0.0046296
        k(   82) = (   0.3333333   0.1666667  -0.5000000), wk =   0.0046296
        k(   83) = (   0.3333333   0.1666667  -0.3333333), wk =   0.0046296
        k(   84) = (   0.3333333   0.1666667  -0.1666667), wk =   0.0046296
        k(   85) = (   0.3333333   0.3333333   0.0000000), wk =   0.0046296
        k(   86) = (   0.3333333   0.3333333   0.1666667), wk =   0.0046296
        k(   87) = (   0.3333333   0.3333333   0.3333333), wk =   0.0046296
        k(   88) = (   0.3333333   0.3333333  -0.5000000), wk =   0.0046296
        k(   89) = (   0.3333333   0.3333333  -0.3333333), wk =   0.0046296
        k(   90) = (   0.3333333   0.3333333  -0.1666667), wk =   0.0046296
        k(   91) = (   0.3333333  -0.5000000   0.0000000), wk =   0.0046296
        k(   92) = (   0.3333333  -0.5000000   0.1666667), wk =   0.0046296
        k(   93) = (   0.3333333  -0.5000000   0.3333333), wk =   0.0046296
        k(   94) = (   0.3333333  -0.5000000  -0.5000000), wk =   0.0046296
        k(   95) = (   0.3333333  -0.5000000  -0.3333333), wk =   0.0046296
        k(   96) = (   0.3333333  -0.5000000  -0.1666667), wk =   0.0046296
        k(   97) = (   0.3333333  -0.3333333   0.0000000), wk =   0.0046296
        k(   98) = (   0.3333333  -0.3333333   0.1666667), wk =   0.0046296
        k(   99) = (   0.3333333  -0.3333333   0.3333333), wk =   0.0046296
        k(  100) = (   0.3333333  -0.3333333  -0.5000000), wk =   0.0046296
        k(  101) = (   0.3333333  -0.3333333  -0.3333333), wk =   0.0046296
        k(  102) = (   0.3333333  -0.3333333  -0.1666667), wk =   0.0046296
        k(  103) = (   0.3333333  -0.1666667  -0.0000000), wk =   0.0046296
        k(  104) = (   0.3333333  -0.1666667   0.1666667), wk =   0.0046296
        k(  105) = (   0.3333333  -0.1666667   0.3333333), wk =   0.0046296
        k(  106) = (   0.3333333  -0.1666667  -0.5000000), wk =   0.0046296
        k(  107) = (   0.3333333  -0.1666667  -0.3333333), wk =   0.0046296
        k(  108) = (   0.3333333  -0.1666667  -0.1666667), wk =   0.0046296
        k(  109) = (  -0.5000000  -0.0000000  -0.0000000), wk =   0.0046296
        k(  110) = (  -0.5000000  -0.0000000   0.1666667), wk =   0.0046296
        k(  111) = (  -0.5000000  -0.0000000   0.3333333), wk =   0.0046296
        k(  112) = (  -0.5000000   0.0000000  -0.5000000), wk =   0.0046296
        k(  113) = (  -0.5000000   0.0000000  -0.3333333), wk =   0.0046296
        k(  114) = (  -0.5000000  -0.0000000  -0.1666667), wk =   0.0046296
        k(  115) = (  -0.5000000   0.1666667  -0.0000000), wk =   0.0046296
        k(  116) = (  -0.5000000   0.1666667   0.1666667), wk =   0.0046296
        k(  117) = (  -0.5000000   0.1666667   0.3333333), wk =   0.0046296
        k(  118) = (  -0.5000000   0.1666667  -0.5000000), wk =   0.0046296
        k(  119) = (  -0.5000000   0.1666667  -0.3333333), wk =   0.0046296
        k(  120) = (  -0.5000000   0.1666667  -0.1666667), wk =   0.0046296
        k(  121) = (  -0.5000000   0.3333333  -0.0000000), wk =   0.0046296
        k(  122) = (  -0.5000000   0.3333333   0.1666667), wk =   0.0046296
        k(  123) = (  -0.5000000   0.3333333   0.3333333), wk =   0.0046296
        k(  124) = (  -0.5000000   0.3333333  -0.5000000), wk =   0.0046296
        k(  125) = (  -0.5000000   0.3333333  -0.3333333), wk =   0.0046296
        k(  126) = (  -0.5000000   0.3333333  -0.1666667), wk =   0.0046296
        k(  127) = (  -0.5000000  -0.5000000  -0.0000000), wk =   0.0046296
        k(  128) = (  -0.5000000  -0.5000000   0.1666667), wk =   0.0046296
        k(  129) = (  -0.5000000  -0.5000000   0.3333333), wk =   0.0046296
        k(  130) = (  -0.5000000  -0.5000000  -0.5000000), wk =   0.0046296
        k(  131) = (  -0.5000000  -0.5000000  -0.3333333), wk =   0.0046296
        k(  132) = (  -0.5000000  -0.5000000  -0.1666667), wk =   0.0046296
        k(  133) = (  -0.5000000  -0.3333333  -0.0000000), wk =   0.0046296
        k(  134) = (  -0.5000000  -0.3333333   0.1666667), wk =   0.0046296
        k(  135) = (  -0.5000000  -0.3333333   0.3333333), wk =   0.0046296
        k(  136) = (  -0.5000000  -0.3333333  -0.5000000), wk =   0.0046296
        k(  137) = (  -0.5000000  -0.3333333  -0.3333333), wk =   0.0046296
        k(  138) = (  -0.5000000  -0.3333333  -0.1666667), wk =   0.0046296
        k(  139) = (  -0.5000000  -0.1666667  -0.0000000), wk =   0.0046296
        k(  140) = (  -0.5000000  -0.1666667   0.1666667), wk =   0.0046296
        k(  141) = (  -0.5000000  -0.1666667   0.3333333), wk =   0.0046296
        k(  142) = (  -0.5000000  -0.1666667  -0.5000000), wk =   0.0046296
        k(  143) = (  -0.5000000  -0.1666667  -0.3333333), wk =   0.0046296
        k(  144) = (  -0.5000000  -0.1666667  -0.1666667), wk =   0.0046296
        k(  145) = (  -0.3333333  -0.0000000  -0.0000000), wk =   0.0046296
        k(  146) = (  -0.3333333  -0.0000000   0.1666667), wk =   0.0046296
        k(  147) = (  -0.3333333   0.0000000   0.3333333), wk =   0.0046296
        k(  148) = (  -0.3333333  -0.0000000  -0.5000000), wk =   0.0046296
        k(  149) = (  -0.3333333  -0.0000000  -0.3333333), wk =   0.0046296
        k(  150) = (  -0.3333333   0.0000000  -0.1666667), wk =   0.0046296
        k(  151) = (  -0.3333333   0.1666667  -0.0000000), wk =   0.0046296
        k(  152) = (  -0.3333333   0.1666667   0.1666667), wk =   0.0046296
        k(  153) = (  -0.3333333   0.1666667   0.3333333), wk =   0.0046296
        k(  154) = (  -0.3333333   0.1666667  -0.5000000), wk =   0.0046296
        k(  155) = (  -0.3333333   0.1666667  -0.3333333), wk =   0.0046296
        k(  156) = (  -0.3333333   0.1666667  -0.1666667), wk =   0.0046296
        k(  157) = (  -0.3333333   0.3333333  -0.0000000), wk =   0.0046296
        k(  158) = (  -0.3333333   0.3333333   0.1666667), wk =   0.0046296
        k(  159) = (  -0.3333333   0.3333333   0.3333333), wk =   0.0046296
        k(  160) = (  -0.3333333   0.3333333  -0.5000000), wk =   0.0046296
        k(  161) = (  -0.3333333   0.3333333  -0.3333333), wk =   0.0046296
        k(  162) = (  -0.3333333   0.3333333  -0.1666667), wk =   0.0046296
        k(  163) = (  -0.3333333  -0.5000000  -0.0000000), wk =   0.0046296
        k(  164) = (  -0.3333333  -0.5000000   0.1666667), wk =   0.0046296
        k(  165) = (  -0.3333333  -0.5000000   0.3333333), wk =   0.0046296
        k(  166) = (  -0.3333333  -0.5000000  -0.5000000), wk =   0.0046296
        k(  167) = (  -0.3333333  -0.5000000  -0.3333333), wk =   0.0046296
        k(  168) = (  -0.3333333  -0.5000000  -0.1666667), wk =   0.0046296
        k(  169) = (  -0.3333333  -0.3333333  -0.0000000), wk =   0.0046296
        k(  170) = (  -0.3333333  -0.3333333   0.1666667), wk =   0.0046296
        k(  171) = (  -0.3333333  -0.3333333   0.3333333), wk =   0.0046296
        k(  172) = (  -0.3333333  -0.3333333  -0.5000000), wk =   0.0046296
        k(  173) = (  -0.3333333  -0.3333333  -0.3333333), wk =   0.0046296
        k(  174) = (  -0.3333333  -0.3333333  -0.1666667), wk =   0.0046296
        k(  175) = (  -0.3333333  -0.1666667  -0.0000000), wk =   0.0046296
        k(  176) = (  -0.3333333  -0.1666667   0.1666667), wk =   0.0046296
        k(  177) = (  -0.3333333  -0.1666667   0.3333333), wk =   0.0046296
        k(  178) = (  -0.3333333  -0.1666667  -0.5000000), wk =   0.0046296
        k(  179) = (  -0.3333333  -0.1666667  -0.3333333), wk =   0.0046296
        k(  180) = (  -0.3333333  -0.1666667  -0.1666667), wk =   0.0046296
        k(  181) = (  -0.1666667   0.0000000  -0.0000000), wk =   0.0046296
        k(  182) = (  -0.1666667   0.0000000   0.1666667), wk =   0.0046296
        k(  183) = (  -0.1666667   0.0000000   0.3333333), wk =   0.0046296
        k(  184) = (  -0.1666667   0.0000000  -0.5000000), wk =   0.0046296
        k(  185) = (  -0.1666667  -0.0000000  -0.3333333), wk =   0.0046296
        k(  186) = (  -0.1666667  -0.0000000  -0.1666667), wk =   0.0046296
        k(  187) = (  -0.1666667   0.1666667  -0.0000000), wk =   0.0046296
        k(  188) = (  -0.1666667   0.1666667   0.1666667), wk =   0.0046296
        k(  189) = (  -0.1666667   0.1666667   0.3333333), wk =   0.0046296
        k(  190) = (  -0.1666667   0.1666667  -0.5000000), wk =   0.0046296
        k(  191) = (  -0.1666667   0.1666667  -0.3333333), wk =   0.0046296
        k(  192) = (  -0.1666667   0.1666667  -0.1666667), wk =   0.0046296
        k(  193) = (  -0.1666667   0.3333333   0.0000000), wk =   0.0046296
        k(  194) = (  -0.1666667   0.3333333   0.1666667), wk =   0.0046296
        k(  195) = (  -0.1666667   0.3333333   0.3333333), wk =   0.0046296
        k(  196) = (  -0.1666667   0.3333333  -0.5000000), wk =   0.0046296
        k(  197) = (  -0.1666667   0.3333333  -0.3333333), wk =   0.0046296
        k(  198) = (  -0.1666667   0.3333333  -0.1666667), wk =   0.0046296
        k(  199) = (  -0.1666667  -0.5000000  -0.0000000), wk =   0.0046296
        k(  200) = (  -0.1666667  -0.5000000   0.1666667), wk =   0.0046296
        k(  201) = (  -0.1666667  -0.5000000   0.3333333), wk =   0.0046296
        k(  202) = (  -0.1666667  -0.5000000  -0.5000000), wk =   0.0046296
        k(  203) = (  -0.1666667  -0.5000000  -0.3333333), wk =   0.0046296
        k(  204) = (  -0.1666667  -0.5000000  -0.1666667), wk =   0.0046296
        k(  205) = (  -0.1666667  -0.3333333  -0.0000000), wk =   0.0046296
        k(  206) = (  -0.1666667  -0.3333333   0.1666667), wk =   0.0046296
        k(  207) = (  -0.1666667  -0.3333333   0.3333333), wk =   0.0046296
        k(  208) = (  -0.1666667  -0.3333333  -0.5000000), wk =   0.0046296
        k(  209) = (  -0.1666667  -0.3333333  -0.3333333), wk =   0.0046296
        k(  210) = (  -0.1666667  -0.3333333  -0.1666667), wk =   0.0046296
        k(  211) = (  -0.1666667  -0.1666667  -0.0000000), wk =   0.0046296
        k(  212) = (  -0.1666667  -0.1666667   0.1666667), wk =   0.0046296
        k(  213) = (  -0.1666667  -0.1666667   0.3333333), wk =   0.0046296
        k(  214) = (  -0.1666667  -0.1666667  -0.5000000), wk =   0.0046296
        k(  215) = (  -0.1666667  -0.1666667  -0.3333333), wk =   0.0046296
        k(  216) = (  -0.1666667  -0.1666667  -0.1666667), wk =   0.0046296

     Dense  grid:    95313 G-vectors     FFT dimensions: ( 108, 108, 108)

     Dynamical RAM for                 wfc:      22.53 MB

     Dynamical RAM for     wfc (w. buffer):      22.53 MB

     Dynamical RAM for           str. fact:       1.45 MB

     Dynamical RAM for           local pot:       0.00 MB

     Dynamical RAM for          nlocal pot:      15.44 MB

     Dynamical RAM for                qrad:       7.04 MB

     Dynamical RAM for          rho,v,vnew:      66.39 MB

     Dynamical RAM for               rhoin:      22.13 MB

     Dynamical RAM for           G-vectors:       3.09 MB

     Dynamical RAM for          h,s,v(r/c):       2.82 MB

     Dynamical RAM for          <psi|beta>:       0.64 MB

     Dynamical RAM for                 psi:      45.05 MB

     Dynamical RAM for                hpsi:      45.05 MB

     Dynamical RAM for      wfcinit/wfcrot:      34.14 MB

     Estimated static dynamical RAM per process >     178.70 MB

     Estimated max dynamical RAM per process >     272.27 MB

     Estimated total dynamical RAM >      12.76 GB

     Initial potential from superposition of free atoms

     starting charge      77.9972, renormalised to      78.0000
     Starting wfcs are   90 randomized atomic wfcs +   34 random wfcs

     total cpu time spent up to now is       43.1 secs

     per-process dynamical memory:   260.9 Mb

     Self-consistent Calculation

     iteration #  1     ecut=    70.00 Ry     beta= 0.30
     Davidson diagonalization with overlap

---- Real-time Memory Report at c_bands before calling an iterative solver
           347 MiB given to the printing process from OS
           254 MiB allocation reported by mallinfo(arena+hblkhd)
        503778 MiB available memory on the node where the printing process lives
------------------
     ethr =  1.00E-02,  avg # of iterations =  6.1

     Threshold (ethr) on eigenvalues was too large:
     Diagonalizing with lowered threshold

     Davidson diagonalization with overlap

---- Real-time Memory Report at c_bands before calling an iterative solver
           417 MiB given to the printing process from OS
           293 MiB allocation reported by mallinfo(arena+hblkhd)
        511055 MiB available memory on the node where the printing process lives
------------------
     ethr =  9.22E-05,  avg # of iterations =  8.4

     total cpu time spent up to now is      340.3 secs

     total energy              =    -956.51329184 Ry
     estimated scf accuracy    <       0.07067583 Ry

     iteration #  2     ecut=    70.00 Ry     beta= 0.30
     Davidson diagonalization with overlap

---- Real-time Memory Report at c_bands before calling an iterative solver
           439 MiB given to the printing process from OS
           283 MiB allocation reported by mallinfo(arena+hblkhd)
        493459 MiB available memory on the node where the printing process lives
------------------
     ethr =  9.06E-05,  avg # of iterations =  1.7

     total cpu time spent up to now is      452.6 secs

     total energy              =    -956.51830554 Ry
     estimated scf accuracy    <       0.02120656 Ry

     iteration #  3     ecut=    70.00 Ry     beta= 0.30
     Davidson diagonalization with overlap

---- Real-time Memory Report at c_bands before calling an iterative solver
           440 MiB given to the printing process from OS
           283 MiB allocation reported by mallinfo(arena+hblkhd)
        496958 MiB available memory on the node where the printing process lives
------------------
     ethr =  2.72E-05,  avg # of iterations =  2.4

     total cpu time spent up to now is      572.5 secs

     total energy              =    -956.52037412 Ry
     estimated scf accuracy    <       0.02769017 Ry

     iteration #  4     ecut=    70.00 Ry     beta= 0.30
     Davidson diagonalization with overlap

---- Real-time Memory Report at c_bands before calling an iterative solver
           442 MiB given to the printing process from OS
           283 MiB allocation reported by mallinfo(arena+hblkhd)
        494821 MiB available memory on the node where the printing process lives
------------------
     ethr =  2.72E-05,  avg # of iterations =  1.1

     total cpu time spent up to now is      683.3 secs

     total energy              =    -956.52306218 Ry
     estimated scf accuracy    <       0.00190802 Ry

     iteration #  5     ecut=    70.00 Ry     beta= 0.30
     Davidson diagonalization with overlap

---- Real-time Memory Report at c_bands before calling an iterative solver
           442 MiB given to the printing process from OS
           283 MiB allocation reported by mallinfo(arena+hblkhd)
        497867 MiB available memory on the node where the printing process lives
------------------
     ethr =  2.45E-06,  avg # of iterations =  3.4

     total cpu time spent up to now is      798.9 secs

     total energy              =    -956.52318921 Ry
     estimated scf accuracy    <       0.00010373 Ry

     iteration #  6     ecut=    70.00 Ry     beta= 0.30
     Davidson diagonalization with overlap

---- Real-time Memory Report at c_bands before calling an iterative solver
           442 MiB given to the printing process from OS
           283 MiB allocation reported by mallinfo(arena+hblkhd)
        497566 MiB available memory on the node where the printing process lives
------------------
     ethr =  1.33E-07,  avg # of iterations =  1.6

     total cpu time spent up to now is      910.6 secs

     total energy              =    -956.52319773 Ry
     estimated scf accuracy    <       0.00001116 Ry

     iteration #  7     ecut=    70.00 Ry     beta= 0.30
     Davidson diagonalization with overlap

---- Real-time Memory Report at c_bands before calling an iterative solver
           442 MiB given to the printing process from OS
           283 MiB allocation reported by mallinfo(arena+hblkhd)
        507600 MiB available memory on the node where the printing process lives
------------------
     ethr =  1.43E-08,  avg # of iterations =  2.0

     total cpu time spent up to now is     1027.8 secs

     total energy              =    -956.52319882 Ry
     estimated scf accuracy    <       0.00000095 Ry

     iteration #  8     ecut=    70.00 Ry     beta= 0.30
     Davidson diagonalization with overlap

---- Real-time Memory Report at c_bands before calling an iterative solver
           442 MiB given to the printing process from OS
           283 MiB allocation reported by mallinfo(arena+hblkhd)
        506661 MiB available memory on the node where the printing process lives
------------------
     ethr =  1.21E-09,  avg # of iterations =  2.0

     total cpu time spent up to now is     1163.9 secs

     total energy              =    -956.52319907 Ry
     estimated scf accuracy    <       0.00000008 Ry

     iteration #  9     ecut=    70.00 Ry     beta= 0.30
     Davidson diagonalization with overlap

---- Real-time Memory Report at c_bands before calling an iterative solver
           442 MiB given to the printing process from OS
           283 MiB allocation reported by mallinfo(arena+hblkhd)
        510269 MiB available memory on the node where the printing process lives
------------------
     ethr =  9.68E-11,  avg # of iterations =  1.7

     total cpu time spent up to now is     1274.8 secs

     total energy              =    -956.52319908 Ry
     estimated scf accuracy    <       0.00000002 Ry

     iteration # 10     ecut=    70.00 Ry     beta= 0.30
     Davidson diagonalization with overlap

---- Real-time Memory Report at c_bands before calling an iterative solver
           442 MiB given to the printing process from OS
           283 MiB allocation reported by mallinfo(arena+hblkhd)
        509613 MiB available memory on the node where the printing process lives
------------------
     ethr =  3.10E-11,  avg # of iterations =  1.8

     total cpu time spent up to now is     1386.4 secs

     total energy              =    -956.52319909 Ry
     estimated scf accuracy    <       0.00000001 Ry

     iteration # 11     ecut=    70.00 Ry     beta= 0.30
     Davidson diagonalization with overlap

---- Real-time Memory Report at c_bands before calling an iterative solver
           442 MiB given to the printing process from OS
           283 MiB allocation reported by mallinfo(arena+hblkhd)
        509929 MiB available memory on the node where the printing process lives
------------------
     ethr =  1.86E-11,  avg # of iterations =  2.0

     total cpu time spent up to now is     1500.4 secs

     End of self-consistent calculation

          k = 0.0000 0.0000 0.0000 ( 11957 PWs)   bands (ev):

   -28.7946 -28.7946 -28.7932 -28.7932 -28.7908 -28.7908 -28.7902 -28.7902
   -28.5549 -28.5549 -28.5260 -28.5260 -27.3295 -27.3295 -27.3289 -27.3289
   -27.3283 -27.3283 -27.3262 -27.3262 -27.3244 -27.3244 -27.3241 -27.3241
   -27.0917 -27.0917 -27.0798 -27.0798 -27.0541 -27.0541 -15.8367 -15.8367
   -15.8364 -15.8364 -15.8273 -15.8273 -15.8269 -15.8269 -12.8571 -12.8571
   -12.8560 -12.8560 -12.8445 -12.8445 -12.8442 -12.8442 -12.8415 -12.8415
   -12.8401 -12.8401  -4.2252  -4.2252  -3.6060  -3.6060  -2.3835  -2.3835
    -0.1291  -0.1291   0.4456   0.4456   5.9933   5.9933   6.0926   6.0926
     6.9486   6.9486   7.1636   7.1636   7.4957   7.4957   7.5212   7.5212
     7.5522   7.5522   8.1562   8.1562   8.2015   8.2015   8.7423   8.7423
     9.4734   9.4734   9.6699   9.6699  10.0631  10.0631  11.1757  11.1757
    11.4197  11.4197  13.7681  13.7681  14.3646  14.3646  14.7588  14.7588
    14.8234  14.8234  14.9691  14.9691  15.2721  15.2721  15.2742  15.2742
    16.0396  16.0396  16.0459  16.0459  16.7244  16.7244  16.9371  16.9371
    17.1896  17.1896  18.0275  18.0275  18.5086  18.5086  18.6413  18.6413
    19.1040  19.1040  19.1373  19.1373

     occupation numbers 
     1.0000   1.0000   1.0000   1.0000   1.0000   1.0000   1.0000   1.0000
     1.0000   1.0000   1.0000   1.0000   1.0000   1.0000   1.0000   1.0000
     1.0000   1.0000   1.0000   1.0000   1.0000   1.0000   1.0000   1.0000
     1.0000   1.0000   1.0000   1.0000   1.0000   1.0000   1.0000   1.0000
     1.0000   1.0000   1.0000   1.0000   1.0000   1.0000   1.0000   1.0000
     1.0000   1.0000   1.0000   1.0000   1.0000   1.0000   1.0000   1.0000
     1.0000   1.0000   1.0000   1.0000   1.0000   1.0000   1.0000   1.0000
     1.0000   1.0000   1.0000   1.0000   1.0000   1.0000   1.0000   1.0000
     1.0000   1.0000   1.0000   1.0000   1.0000   1.0000   1.0000   1.0000
     1.0000   1.0000   1.0000   1.0000   1.0001   1.0001  -0.0227  -0.0227
    -0.0000  -0.0000  -0.0000  -0.0000  -0.0000  -0.0000  -0.0000  -0.0000
    -0.0000  -0.0000  -0.0000  -0.0000  -0.0000  -0.0000  -0.0000  -0.0000
    -0.0000  -0.0000  -0.0000  -0.0000  -0.0000  -0.0000  -0.0000  -0.0000
    -0.0000  -0.0000  -0.0000  -0.0000  -0.0000  -0.0000  -0.0000  -0.0000
    -0.0000  -0.0000  -0.0000  -0.0000  -0.0000  -0.0000  -0.0000  -0.0000
    -0.0000  -0.0000  -0.0000  -0.0000

          k =-0.0005-0.0001 0.4668 ( 11897 PWs)   bands (ev):

   -28.7945 -28.7945 -28.7933 -28.7933 -28.7907 -28.7907 -28.7901 -28.7901
   -28.5549 -28.5549 -28.5259 -28.5259 -27.3295 -27.3295 -27.3290 -27.3290
   -27.3280 -27.3280 -27.3263 -27.3263 -27.3243 -27.3243 -27.3240 -27.3240
   -27.0916 -27.0916 -27.0798 -27.0798 -27.0540 -27.0540 -15.8361 -15.8361
   -15.8359 -15.8359 -15.8275 -15.8275 -15.8269 -15.8269 -12.8561 -12.8561
   -12.8549 -12.8549 -12.8455 -12.8455 -12.8454 -12.8453 -12.8406 -12.8406
   -12.8394 -12.8394  -3.9958  -3.9958  -3.4100  -3.4100  -2.2382  -2.2382
    -0.3222  -0.3222   0.2045   0.2045   5.3765   5.3765   5.4700   5.4700
     6.0625   6.0625   6.6613   6.6613   6.7609   6.7610   7.3505   7.3505
     7.7322   7.7322   8.0005   8.0005   8.2070   8.2070   9.1954   9.1954
     9.6226   9.6226  10.5580  10.5580  10.7661  10.7661  11.2746  11.2746
    11.7028  11.7028  13.1276  13.1276  13.9290  13.9290  14.9830  14.9830
    15.0790  15.0790  15.5270  15.5270  15.6446  15.6446  15.8586  15.8586
    16.2942  16.2942  17.0596  17.0596  17.1659  17.1659  17.6795  17.6795
    17.8972  17.8972  18.0848  18.0848  18.1386  18.1386  18.7463  18.7463
    18.8497  18.8497  19.2513  19.2513

     occupation numbers 
     1.0000   1.0000   1.0000   1.0000   1.0000   1.0000   1.0000   1.0000
     1.0000   1.0000   1.0000   1.0000   1.0000   1.0000   1.0000   1.0000
     1.0000   1.0000   1.0000   1.0000   1.0000   1.0000   1.0000   1.0000
     1.0000   1.0000   1.0000   1.0000   1.0000   1.0000   1.0000   1.0000
     1.0000   1.0000   1.0000   1.0000   1.0000   1.0000   1.0000   1.0000
     1.0000   1.0000   1.0000   1.0000   1.0000   1.0000   1.0000   1.0000
     1.0000   1.0000   1.0000   1.0000   1.0000   1.0000   1.0000   1.0000
     1.0000   1.0000   1.0000   1.0000   1.0000   1.0000   1.0000   1.0000
     1.0000   1.0000   1.0000   1.0000   1.0000   1.0000   1.0000   1.0000
     1.0000   1.0000   1.0000   1.0000   1.0001   1.0001  -0.0000  -0.0000
    -0.0000  -0.0000  -0.0000  -0.0000  -0.0000  -0.0000  -0.0000  -0.0000
    -0.0000  -0.0000  -0.0000  -0.0000  -0.0000  -0.0000  -0.0000  -0.0000
    -0.0000  -0.0000  -0.0000  -0.0000  -0.0000  -0.0000  -0.0000  -0.0000
    -0.0000  -0.0000  -0.0000  -0.0000  -0.0000  -0.0000  -0.0000  -0.0000
    -0.0000  -0.0000  -0.0000  -0.0000  -0.0000  -0.0000  -0.0000  -0.0000
    -0.0000  -0.0000  -0.0000  -0.0000

          k =-0.0009-0.0002 0.9336 ( 11906 PWs)   bands (ev):

   -28.7943 -28.7943 -28.7935 -28.7935 -28.7904 -28.7904 -28.7901 -28.7901
   -28.5549 -28.5549 -28.5258 -28.5258 -27.3294 -27.3294 -27.3290 -27.3290
   -27.3276 -27.3276 -27.3266 -27.3266 -27.3240 -27.3240 -27.3238 -27.3238
   -27.0915 -27.0915 -27.0799 -27.0799 -27.0537 -27.0537 -15.8351 -15.8351
   -15.8349 -15.8349 -15.8276 -15.8276 -15.8272 -15.8272 -12.8558 -12.8557
   -12.8546 -12.8546 -12.8465 -12.8465 -12.8461 -12.8461 -12.8387 -12.8387
   -12.8374 -12.8374  -3.3373  -3.3373  -2.9040  -2.9040  -1.9055  -1.9055
    -1.0269  -1.0269  -0.4138  -0.4138   4.2611   4.2611   5.1097   5.1097
     5.2441   5.2441   5.9040   5.9040   6.1485   6.1485   6.6038   6.6038
     7.2694   7.2694   7.7630   7.7630   8.2416   8.2416   9.2111   9.2111
    10.2995  10.2995  10.5153  10.5153  11.0742  11.0742  12.0310  12.0310
    12.5228  12.5228  12.7850  12.7850  14.1366  14.1366  15.0324  15.0324
    16.2312  16.2312  16.3498  16.3498  16.6893  16.6893  16.9074  16.9074
    17.2889  17.2889  17.8622  17.8622  18.0984  18.0984  18.1644  18.1644
    18.4011  18.4011  18.6066  18.6066  19.3703  19.3703  20.5163  20.5163
    20.7393  20.7393  20.9302  20.9302

     occupation numbers 
     1.0000   1.0000   1.0000   1.0000   1.0000   1.0000   1.0000   1.0000
     1.0000   1.0000   1.0000   1.0000   1.0000   1.0000   1.0000   1.0000
     1.0000   1.0000   1.0000   1.0000   1.0000   1.0000   1.0000   1.0000
     1.0000   1.0000   1.0000   1.0000   1.0000   1.0000   1.0000   1.0000
     1.0000   1.0000   1.0000   1.0000   1.0000   1.0000   1.0000   1.0000
     1.0000   1.0000   1.0000   1.0000   1.0000   1.0000   1.0000   1.0000
     1.0000   1.0000   1.0000   1.0000   1.0000   1.0000   1.0000   1.0000
     1.0000   1.0000   1.0000   1.0000   1.0000   1.0000   1.0000   1.0000
     1.0000   1.0000   1.0000   1.0000   1.0000   1.0000   1.0000   1.0000
     1.0000   1.0000   1.0000   1.0000   1.0004   1.0004  -0.0000  -0.0000
    -0.0000  -0.0000  -0.0000  -0.0000  -0.0000  -0.0000  -0.0000  -0.0000
    -0.0000  -0.0000  -0.0000  -0.0000  -0.0000  -0.0000  -0.0000  -0.0000
    -0.0000  -0.0000  -0.0000  -0.0000  -0.0000  -0.0000  -0.0000  -0.0000
    -0.0000  -0.0000  -0.0000  -0.0000  -0.0000  -0.0000  -0.0000  -0.0000
    -0.0000  -0.0000  -0.0000  -0.0000  -0.0000  -0.0000  -0.0000  -0.0000
    -0.0000  -0.0000  -0.0000  -0.0000

          k = 0.0014 0.0003-1.4003 ( 11896 PWs)   bands (ev):

   -28.7941 -28.7941 -28.7936 -28.7936 -28.7902 -28.7902 -28.7901 -28.7901
   -28.5548 -28.5548 -28.5257 -28.5257 -27.3294 -27.3294 -27.3289 -27.3289
   -27.3274 -27.3274 -27.3267 -27.3267 -27.3237 -27.3237 -27.3237 -27.3237
   -27.0915 -27.0915 -27.0799 -27.0799 -27.0536 -27.0536 -15.8346 -15.8346
   -15.8345 -15.8345 -15.8276 -15.8276 -15.8274 -15.8274 -12.8563 -12.8563
   -12.8556 -12.8556 -12.8464 -12.8464 -12.8458 -12.8458 -12.8375 -12.8375
   -12.8361 -12.8361  -2.5503  -2.5503  -2.5177  -2.5177  -2.1388  -2.1388
    -1.3303  -1.3303  -0.9997  -0.9997   3.7079   3.7079   5.1359   5.1359
     5.2729   5.2729   5.5811   5.5811   6.0005   6.0005   6.2211   6.2211
     6.5166   6.5166   7.7496   7.7496   8.2887   8.2887   9.0136   9.0136
    10.2134  10.2134  11.0202  11.0202  11.4082  11.4082  12.0546  12.0546
    12.2637  12.2637  12.5919  12.5919  13.8401  13.8401  16.8572  16.8572
    17.0096  17.0096  17.3534  17.3534  17.4830  17.4830  17.7416  17.7416
    18.0393  18.0393  18.2822  18.2822  18.6766  18.6766  19.0427  19.0427
    19.0674  19.0674  19.1778  19.1778  19.7586  19.7586  20.2236  20.2236
    20.3286  20.3286  20.6785  20.6957

     occupation numbers 
     1.0000   1.0000   1.0000   1.0000   1.0000   1.0000   1.0000   1.0000
     1.0000   1.0000   1.0000   1.0000   1.0000   1.0000   1.0000   1.0000
     1.0000   1.0000   1.0000   1.0000   1.0000   1.0000   1.0000   1.0000
     1.0000   1.0000   1.0000   1.0000   1.0000   1.0000   1.0000   1.0000
     1.0000   1.0000   1.0000   1.0000   1.0000   1.0000   1.0000   1.0000
     1.0000   1.0000   1.0000   1.0000   1.0000   1.0000   1.0000   1.0000
     1.0000   1.0000   1.0000   1.0000   1.0000   1.0000   1.0000   1.0000
     1.0000   1.0000   1.0000   1.0000   1.0000   1.0000   1.0000   1.0000
     1.0000   1.0000   1.0000   1.0000   1.0000   1.0000   1.0000   1.0000
     1.0000   1.0000   1.0000   1.0000   1.0022   1.0022  -0.0001  -0.0001
    -0.0000  -0.0000  -0.0000  -0.0000  -0.0000  -0.0000  -0.0000  -0.0000
    -0.0000  -0.0000  -0.0000  -0.0000  -0.0000  -0.0000  -0.0000  -0.0000
    -0.0000  -0.0000  -0.0000  -0.0000  -0.0000  -0.0000  -0.0000  -0.0000
    -0.0000  -0.0000  -0.0000  -0.0000  -0.0000  -0.0000  -0.0000  -0.0000
    -0.0000  -0.0000  -0.0000  -0.0000  -0.0000  -0.0000  -0.0000  -0.0000
    -0.0000  -0.0000  -0.0000  -0.0000

          k = 0.0009 0.0002-0.9336 ( 11906 PWs)   bands (ev):

   -28.7943 -28.7943 -28.7935 -28.7935 -28.7904 -28.7904 -28.7901 -28.7901
   -28.5549 -28.5549 -28.5258 -28.5258 -27.3294 -27.3294 -27.3290 -27.3290
   -27.3276 -27.3276 -27.3266 -27.3266 -27.3240 -27.3240 -27.3238 -27.3238
   -27.0915 -27.0915 -27.0799 -27.0799 -27.0537 -27.0537 -15.8351 -15.8351
   -15.8349 -15.8349 -15.8276 -15.8276 -15.8272 -15.8272 -12.8558 -12.8557
   -12.8546 -12.8546 -12.8465 -12.8465 -12.8461 -12.8461 -12.8387 -12.8387
   -12.8374 -12.8374  -3.3373  -3.3373  -2.9040  -2.9040  -1.9055  -1.9055
    -1.0269  -1.0269  -0.4138  -0.4138   4.2611   4.2611   5.1097   5.1097
     5.2441   5.2441   5.9040   5.9040   6.1485   6.1485   6.6038   6.6038
     7.2694   7.2694   7.7630   7.7630   8.2416   8.2416   9.2111   9.2111
    10.2995  10.2995  10.5153  10.5153  11.0742  11.0742  12.0310  12.0310
    12.5228  12.5228  12.7850  12.7850  14.1366  14.1366  15.0324  15.0324
    16.2312  16.2312  16.3498  16.3498  16.6893  16.6893  16.9074  16.9074
    17.2889  17.2889  17.8622  17.8622  18.0984  18.0984  18.1644  18.1644
    18.4011  18.4011  18.6066  18.6066  19.3703  19.3703  20.5163  20.5163
    20.7393  20.7393  20.9302  20.9302

     occupation numbers 
     1.0000   1.0000   1.0000   1.0000   1.0000   1.0000   1.0000   1.0000
     1.0000   1.0000   1.0000   1.0000   1.0000   1.0000   1.0000   1.0000
     1.0000   1.0000   1.0000   1.0000   1.0000   1.0000   1.0000   1.0000
     1.0000   1.0000   1.0000   1.0000   1.0000   1.0000   1.0000   1.0000
     1.0000   1.0000   1.0000   1.0000   1.0000   1.0000   1.0000   1.0000
     1.0000   1.0000   1.0000   1.0000   1.0000   1.0000   1.0000   1.0000
     1.0000   1.0000   1.0000   1.0000   1.0000   1.0000   1.0000   1.0000
     1.0000   1.0000   1.0000   1.0000   1.0000   1.0000   1.0000   1.0000
     1.0000   1.0000   1.0000   1.0000   1.0000   1.0000   1.0000   1.0000
     1.0000   1.0000   1.0000   1.0000   1.0004   1.0004  -0.0000  -0.0000
    -0.0000  -0.0000  -0.0000  -0.0000  -0.0000  -0.0000  -0.0000  -0.0000
    -0.0000  -0.0000  -0.0000  -0.0000  -0.0000  -0.0000  -0.0000  -0.0000
    -0.0000  -0.0000  -0.0000  -0.0000  -0.0000  -0.0000  -0.0000  -0.0000
    -0.0000  -0.0000  -0.0000  -0.0000  -0.0000  -0.0000  -0.0000  -0.0000
    -0.0000  -0.0000  -0.0000  -0.0000  -0.0000  -0.0000  -0.0000  -0.0000
    -0.0000  -0.0000  -0.0000  -0.0000

          k = 0.0005 0.0001-0.4668 ( 11897 PWs)   bands (ev):

   -28.7945 -28.7945 -28.7933 -28.7933 -28.7907 -28.7907 -28.7901 -28.7901
   -28.5549 -28.5549 -28.5259 -28.5259 -27.3295 -27.3295 -27.3290 -27.3290
   -27.3280 -27.3280 -27.3263 -27.3263 -27.3243 -27.3243 -27.3240 -27.3240
   -27.0916 -27.0916 -27.0798 -27.0798 -27.0540 -27.0540 -15.8361 -15.8361
   -15.8359 -15.8359 -15.8275 -15.8275 -15.8269 -15.8269 -12.8561 -12.8561
   -12.8549 -12.8549 -12.8455 -12.8455 -12.8454 -12.8453 -12.8406 -12.8406
   -12.8394 -12.8394  -3.9958  -3.9958  -3.4100  -3.4100  -2.2382  -2.2382
    -0.3222  -0.3222   0.2045   0.2045   5.3765   5.3765   5.4700   5.4700
     6.0625   6.0625   6.6613   6.6613   6.7609   6.7610   7.3505   7.3505
     7.7322   7.7322   8.0005   8.0005   8.2070   8.2070   9.1954   9.1954
     9.6226   9.6226  10.5580  10.5580  10.7661  10.7661  11.2746  11.2746
    11.7028  11.7028  13.1276  13.1276  13.9290  13.9290  14.9830  14.9830
    15.0790  15.0790  15.5270  15.5270  15.6446  15.6446  15.8586  15.8586
    16.2942  16.2942  17.0596  17.0596  17.1659  17.1659  17.6795  17.6795
    17.8972  17.8972  18.0848  18.0848  18.1386  18.1386  18.7463  18.7463
    18.8497  18.8497  19.2513  19.2513

     occupation numbers 
     1.0000   1.0000   1.0000   1.0000   1.0000   1.0000   1.0000   1.0000
     1.0000   1.0000   1.0000   1.0000   1.0000   1.0000   1.0000   1.0000
     1.0000   1.0000   1.0000   1.0000   1.0000   1.0000   1.0000   1.0000
     1.0000   1.0000   1.0000   1.0000   1.0000   1.0000   1.0000   1.0000
     1.0000   1.0000   1.0000   1.0000   1.0000   1.0000   1.0000   1.0000
     1.0000   1.0000   1.0000   1.0000   1.0000   1.0000   1.0000   1.0000
     1.0000   1.0000   1.0000   1.0000   1.0000   1.0000   1.0000   1.0000
     1.0000   1.0000   1.0000   1.0000   1.0000   1.0000   1.0000   1.0000
     1.0000   1.0000   1.0000   1.0000   1.0000   1.0000   1.0000   1.0000
     1.0000   1.0000   1.0000   1.0000   1.0001   1.0001  -0.0000  -0.0000
    -0.0000  -0.0000  -0.0000  -0.0000  -0.0000  -0.0000  -0.0000  -0.0000
    -0.0000  -0.0000  -0.0000  -0.0000  -0.0000  -0.0000  -0.0000  -0.0000
    -0.0000  -0.0000  -0.0000  -0.0000  -0.0000  -0.0000  -0.0000  -0.0000
    -0.0000  -0.0000  -0.0000  -0.0000  -0.0000  -0.0000  -0.0000  -0.0000
    -0.0000  -0.0000  -0.0000  -0.0000  -0.0000  -0.0000  -0.0000  -0.0000
    -0.0000  -0.0000  -0.0000  -0.0000

          k =-0.0005 0.4102-0.2228 ( 11897 PWs)   bands (ev):

   -28.7945 -28.7945 -28.7933 -28.7933 -28.7907 -28.7907 -28.7901 -28.7901
   -28.5549 -28.5549 -28.5259 -28.5259 -27.3295 -27.3295 -27.3290 -27.3290
   -27.3280 -27.3280 -27.3263 -27.3263 -27.3243 -27.3243 -27.3240 -27.3240
   -27.0916 -27.0916 -27.0798 -27.0798 -27.0540 -27.0540 -15.8361 -15.8361
   -15.8359 -15.8359 -15.8275 -15.8275 -15.8269 -15.8269 -12.8561 -12.8561
   -12.8549 -12.8549 -12.8455 -12.8455 -12.8454 -12.8453 -12.8406 -12.8406
   -12.8394 -12.8394  -3.9958  -3.9958  -3.4100  -3.4100  -2.2382  -2.2382
    -0.3222  -0.3222   0.2045   0.2045   5.3765   5.3765   5.4700   5.4700
     6.0625   6.0625   6.6613   6.6613   6.7609   6.7610   7.3505   7.3505
     7.7322   7.7322   8.0005   8.0005   8.2070   8.2070   9.1954   9.1954
     9.6226   9.6226  10.5580  10.5580  10.7661  10.7661  11.2746  11.2746
    11.7028  11.7028  13.1276  13.1276  13.9290  13.9290  14.9830  14.9830
    15.0790  15.0790  15.5270  15.5270  15.6446  15.6446  15.8586  15.8586
    16.2942  16.2942  17.0596  17.0596  17.1659  17.1659  17.6795  17.6795
    17.8972  17.8972  18.0848  18.0848  18.1386  18.1386  18.7463  18.7463
    18.8497  18.8497  19.2513  19.2513

     occupation numbers 
     1.0000   1.0000   1.0000   1.0000   1.0000   1.0000   1.0000   1.0000
     1.0000   1.0000   1.0000   1.0000   1.0000   1.0000   1.0000   1.0000
     1.0000   1.0000   1.0000   1.0000   1.0000   1.0000   1.0000   1.0000
     1.0000   1.0000   1.0000   1.0000   1.0000   1.0000   1.0000   1.0000
     1.0000   1.0000   1.0000   1.0000   1.0000   1.0000   1.0000   1.0000
     1.0000   1.0000   1.0000   1.0000   1.0000   1.0000   1.0000   1.0000
     1.0000   1.0000   1.0000   1.0000   1.0000   1.0000   1.0000   1.0000
     1.0000   1.0000   1.0000   1.0000   1.0000   1.0000   1.0000   1.0000
     1.0000   1.0000   1.0000   1.0000   1.0000   1.0000   1.0000   1.0000
     1.0000   1.0000   1.0000   1.0000   1.0001   1.0001  -0.0000  -0.0000
    -0.0000  -0.0000  -0.0000  -0.0000  -0.0000  -0.0000  -0.0000  -0.0000
    -0.0000  -0.0000  -0.0000  -0.0000  -0.0000  -0.0000  -0.0000  -0.0000
    -0.0000  -0.0000  -0.0000  -0.0000  -0.0000  -0.0000  -0.0000  -0.0000
    -0.0000  -0.0000  -0.0000  -0.0000  -0.0000  -0.0000  -0.0000  -0.0000
    -0.0000  -0.0000  -0.0000  -0.0000  -0.0000  -0.0000  -0.0000  -0.0000
    -0.0000  -0.0000  -0.0000  -0.0000

          k =-0.0009 0.4101 0.2440 ( 11889 PWs)   bands (ev):

   -28.7945 -28.7945 -28.7932 -28.7932 -28.7907 -28.7907 -28.7901 -28.7901
   -28.5549 -28.5549 -28.5259 -28.5259 -27.3295 -27.3295 -27.3290 -27.3290
   -27.3280 -27.3280 -27.3263 -27.3263 -27.3243 -27.3243 -27.3240 -27.3240
   -27.0916 -27.0916 -27.0798 -27.0798 -27.0540 -27.0540 -15.8361 -15.8361
   -15.8359 -15.8359 -15.8275 -15.8275 -15.8269 -15.8269 -12.8561 -12.8561
   -12.8549 -12.8549 -12.8455 -12.8455 -12.8454 -12.8453 -12.8406 -12.8406
   -12.8394 -12.8394  -3.9897  -3.9897  -3.4254  -3.4254  -2.2199  -2.2199
    -0.3377  -0.3377   0.2066   0.2066   5.3351   5.3351   5.6046   5.6046
     5.9751   5.9751   6.6487   6.6487   6.8496   6.8496   7.2791   7.2791
     7.7540   7.7540   7.9345   7.9345   8.1877   8.1877   9.3304   9.3304
     9.4735   9.4735  10.4847  10.4847  10.7642  10.7642  11.4263  11.4263
    11.8025  11.8025  13.2342  13.2342  13.8670  13.8670  14.8532  14.8532
    14.9305  14.9305  15.5200  15.5200  15.8760  15.8760  16.1348  16.1348
    16.1663  16.1663  16.7457  16.7457  16.8444  16.8444  17.2669  17.2669
    17.4561  17.4561  18.2451  18.2451  18.6619  18.6619  18.7628  18.7628
    19.3871  19.3871  19.7215  19.7216

     occupation numbers 
     1.0000   1.0000   1.0000   1.0000   1.0000   1.0000   1.0000   1.0000
     1.0000   1.0000   1.0000   1.0000   1.0000   1.0000   1.0000   1.0000
     1.0000   1.0000   1.0000   1.0000   1.0000   1.0000   1.0000   1.0000
     1.0000   1.0000   1.0000   1.0000   1.0000   1.0000   1.0000   1.0000
     1.0000   1.0000   1.0000   1.0000   1.0000   1.0000   1.0000   1.0000
     1.0000   1.0000   1.0000   1.0000   1.0000   1.0000   1.0000   1.0000
     1.0000   1.0000   1.0000   1.0000   1.0000   1.0000   1.0000   1.0000
     1.0000   1.0000   1.0000   1.0000   1.0000   1.0000   1.0000   1.0000
     1.0000   1.0000   1.0000   1.0000   1.0000   1.0000   1.0000   1.0000
     1.0000   1.0000   1.0000   1.0000   1.0001   1.0001  -0.0000  -0.0000
    -0.0000  -0.0000  -0.0000  -0.0000  -0.0000  -0.0000  -0.0000  -0.0000
    -0.0000  -0.0000  -0.0000  -0.0000  -0.0000  -0.0000  -0.0000  -0.0000
    -0.0000  -0.0000  -0.0000  -0.0000  -0.0000  -0.0000  -0.0000  -0.0000
    -0.0000  -0.0000  -0.0000  -0.0000  -0.0000  -0.0000  -0.0000  -0.0000
    -0.0000  -0.0000  -0.0000  -0.0000  -0.0000  -0.0000  -0.0000  -0.0000
    -0.0000  -0.0000  -0.0000  -0.0000

          k =-0.0014 0.4100 0.7108 ( 11897 PWs)   bands (ev):

   -28.7944 -28.7944 -28.7934 -28.7934 -28.7905 -28.7905 -28.7901 -28.7901
   -28.5549 -28.5549 -28.5258 -28.5258 -27.3295 -27.3295 -27.3290 -27.3290
   -27.3277 -27.3277 -27.3264 -27.3264 -27.3241 -27.3241 -27.3238 -27.3238
   -27.0916 -27.0916 -27.0799 -27.0799 -27.0538 -27.0538 -15.8355 -15.8355
   -15.8349 -15.8349 -15.8277 -15.8277 -15.8271 -15.8271 -12.8555 -12.8555
   -12.8538 -12.8538 -12.8467 -12.8467 -12.8463 -12.8462 -12.8393 -12.8393
   -12.8383 -12.8383  -3.5405  -3.5405  -3.0707  -3.0707  -1.9774  -1.9774
    -0.7274  -0.7274  -0.3040  -0.3040   4.6983   4.6983   5.0674   5.0674
     5.3065   5.3065   5.7882   5.7882   6.4361   6.4361   6.6351   6.6351
     7.4676   7.4676   8.0769   8.0769   8.1836   8.1836   9.4658   9.4658
     9.7496   9.7497  10.5984  10.5984  11.4781  11.4781  12.0616  12.0616
    12.4593  12.4593  13.2274  13.2274  13.3250  13.3250  14.7813  14.7813
    15.3005  15.3005  16.2031  16.2031  16.3479  16.3479  16.4807  16.4807
    16.9649  16.9649  17.2266  17.2266  17.4272  17.4272  18.1219  18.1219
    18.7522  18.7522  19.1214  19.1214  19.5838  19.5838  20.1692  20.1692
    20.4436  20.4436  20.8013  20.8014

     occupation numbers 
     1.0000   1.0000   1.0000   1.0000   1.0000   1.0000   1.0000   1.0000
     1.0000   1.0000   1.0000   1.0000   1.0000   1.0000   1.0000   1.0000
     1.0000   1.0000   1.0000   1.0000   1.0000   1.0000   1.0000   1.0000
     1.0000   1.0000   1.0000   1.0000   1.0000   1.0000   1.0000   1.0000
     1.0000   1.0000   1.0000   1.0000   1.0000   1.0000   1.0000   1.0000
     1.0000   1.0000   1.0000   1.0000   1.0000   1.0000   1.0000   1.0000
     1.0000   1.0000   1.0000   1.0000   1.0000   1.0000   1.0000   1.0000
     1.0000   1.0000   1.0000   1.0000   1.0000   1.0000   1.0000   1.0000
     1.0000   1.0000   1.0000   1.0000   1.0000   1.0000   1.0000   1.0000
     1.0000   1.0000   1.0000   1.0000   1.0000   1.0000  -0.0000  -0.0000
    -0.0000  -0.0000  -0.0000  -0.0000  -0.0000  -0.0000  -0.0000  -0.0000
    -0.0000  -0.0000  -0.0000  -0.0000  -0.0000  -0.0000  -0.0000  -0.0000
    -0.0000  -0.0000  -0.0000  -0.0000  -0.0000  -0.0000  -0.0000  -0.0000
    -0.0000  -0.0000  -0.0000  -0.0000  -0.0000  -0.0000  -0.0000  -0.0000
    -0.0000  -0.0000  -0.0000  -0.0000  -0.0000  -0.0000  -0.0000  -0.0000
    -0.0000  -0.0000  -0.0000  -0.0000

          k = 0.0009 0.4105-1.6231 ( 11914 PWs)   bands (ev):

   -28.7941 -28.7941 -28.7936 -28.7936 -28.7903 -28.7903 -28.7901 -28.7901
   -28.5548 -28.5548 -28.5257 -28.5257 -27.3295 -27.3295 -27.3288 -27.3288
   -27.3275 -27.3275 -27.3266 -27.3266 -27.3238 -27.3238 -27.3237 -27.3237
   -27.0915 -27.0915 -27.0799 -27.0799 -27.0536 -27.0536 -15.8350 -15.8350
   -15.8339 -15.8339 -15.8278 -15.8278 -15.8273 -15.8273 -12.8553 -12.8553
   -12.8536 -12.8535 -12.8474 -12.8474 -12.8466 -12.8466 -12.8379 -12.8379
   -12.8370 -12.8370  -2.7220  -2.7220  -2.5211  -2.5211  -1.8036  -1.8036
    -1.4228  -1.4228  -1.0421  -1.0421   4.0308   4.0308   4.6405   4.6405
     4.9697   4.9697   5.2635   5.2635   6.2409   6.2409   6.6707   6.6707
     6.9977   6.9977   7.2552   7.2552   7.5478   7.5478  10.1563  10.1563
    10.4322  10.4322  10.9914  10.9914  11.4532  11.4532  12.0863  12.0863
    12.7548  12.7548  13.0942  13.0942  13.6315  13.6315  14.7597  14.7597
    16.6704  16.6704  16.7222  16.7222  17.1314  17.1314  17.7739  17.7739
    17.9589  17.9589  18.1976  18.1976  18.3619  18.3619  18.9656  18.9656
    19.3167  19.3167  19.3960  19.3960  19.6953  19.6953  19.9037  19.9037
    20.5195  20.5195  21.1759  21.1759

     occupation numbers 
     1.0000   1.0000   1.0000   1.0000   1.0000   1.0000   1.0000   1.0000
     1.0000   1.0000   1.0000   1.0000   1.0000   1.0000   1.0000   1.0000
     1.0000   1.0000   1.0000   1.0000   1.0000   1.0000   1.0000   1.0000
     1.0000   1.0000   1.0000   1.0000   1.0000   1.0000   1.0000   1.0000
     1.0000   1.0000   1.0000   1.0000   1.0000   1.0000   1.0000   1.0000
     1.0000   1.0000   1.0000   1.0000   1.0000   1.0000   1.0000   1.0000
     1.0000   1.0000   1.0000   1.0000   1.0000   1.0000   1.0000   1.0000
     1.0000   1.0000   1.0000   1.0000   1.0000   1.0000   1.0000   1.0000
     1.0000   1.0000   1.0000   1.0000   1.0000   1.0000   1.0000   1.0000
     1.0000   1.0000   1.0000   1.0000   1.0000   1.0000  -0.0000  -0.0000
    -0.0000  -0.0000  -0.0000  -0.0000  -0.0000  -0.0000  -0.0000  -0.0000
    -0.0000  -0.0000  -0.0000  -0.0000  -0.0000  -0.0000  -0.0000  -0.0000
    -0.0000  -0.0000  -0.0000  -0.0000  -0.0000  -0.0000  -0.0000  -0.0000
    -0.0000  -0.0000  -0.0000  -0.0000  -0.0000  -0.0000  -0.0000  -0.0000
    -0.0000  -0.0000  -0.0000  -0.0000  -0.0000  -0.0000  -0.0000  -0.0000
    -0.0000  -0.0000  -0.0000  -0.0000

          k = 0.0005 0.4104-1.1563 ( 11920 PWs)   bands (ev):

   -28.7941 -28.7941 -28.7936 -28.7936 -28.7903 -28.7903 -28.7901 -28.7901
   -28.5548 -28.5548 -28.5257 -28.5257 -27.3295 -27.3295 -27.3288 -27.3288
   -27.3275 -27.3275 -27.3266 -27.3266 -27.3238 -27.3238 -27.3237 -27.3237
   -27.0915 -27.0915 -27.0799 -27.0799 -27.0536 -27.0536 -15.8350 -15.8350
   -15.8339 -15.8339 -15.8278 -15.8278 -15.8273 -15.8273 -12.8553 -12.8553
   -12.8536 -12.8535 -12.8474 -12.8474 -12.8466 -12.8466 -12.8379 -12.8379
   -12.8370 -12.8370  -2.7551  -2.7551  -2.4656  -2.4656  -1.8255  -1.8255
    -1.4435  -1.4435  -1.0218  -1.0218   3.9448   3.9448   4.6863   4.6863
     5.0140   5.0140   5.5492   5.5492   6.1187   6.1187   6.3547   6.3547
     6.7908   6.7908   7.4961   7.4961   7.6660   7.6660  10.0764  10.0764
    10.3126  10.3126  11.2037  11.2037  11.6866  11.6866  12.1322  12.1322
    12.4755  12.4755  12.8839  12.8839  14.0514  14.0514  14.7639  14.7639
    16.1735  16.1735  16.7718  16.7718  17.1330  17.1330  17.3179  17.3179
    17.8477  17.8477  18.1124  18.1124  18.6530  18.6530  19.0934  19.0934
    19.3064  19.3064  19.7276  19.7276  20.0042  20.0042  20.2206  20.2206
    20.6043  20.6043  21.0207  21.0207

     occupation numbers 
     1.0000   1.0000   1.0000   1.0000   1.0000   1.0000   1.0000   1.0000
     1.0000   1.0000   1.0000   1.0000   1.0000   1.0000   1.0000   1.0000
     1.0000   1.0000   1.0000   1.0000   1.0000   1.0000   1.0000   1.0000
     1.0000   1.0000   1.0000   1.0000   1.0000   1.0000   1.0000   1.0000
     1.0000   1.0000   1.0000   1.0000   1.0000   1.0000   1.0000   1.0000
     1.0000   1.0000   1.0000   1.0000   1.0000   1.0000   1.0000   1.0000
     1.0000   1.0000   1.0000   1.0000   1.0000   1.0000   1.0000   1.0000
     1.0000   1.0000   1.0000   1.0000   1.0000   1.0000   1.0000   1.0000
     1.0000   1.0000   1.0000   1.0000   1.0000   1.0000   1.0000   1.0000
     1.0000   1.0000   1.0000   1.0000   1.0000   1.0000  -0.0000  -0.0000
    -0.0000  -0.0000  -0.0000  -0.0000  -0.0000  -0.0000  -0.0000  -0.0000
    -0.0000  -0.0000  -0.0000  -0.0000  -0.0000  -0.0000  -0.0000  -0.0000
    -0.0000  -0.0000  -0.0000  -0.0000  -0.0000  -0.0000  -0.0000  -0.0000
    -0.0000  -0.0000  -0.0000  -0.0000  -0.0000  -0.0000  -0.0000  -0.0000
    -0.0000  -0.0000  -0.0000  -0.0000  -0.0000  -0.0000  -0.0000  -0.0000
    -0.0000  -0.0000  -0.0000  -0.0000

          k =-0.0000 0.4103-0.6896 ( 11899 PWs)   bands (ev):

   -28.7944 -28.7944 -28.7934 -28.7934 -28.7905 -28.7905 -28.7901 -28.7901
   -28.5549 -28.5549 -28.5258 -28.5258 -27.3295 -27.3294 -27.3290 -27.3290
   -27.3277 -27.3277 -27.3265 -27.3265 -27.3241 -27.3241 -27.3238 -27.3238
   -27.0916 -27.0916 -27.0799 -27.0799 -27.0538 -27.0538 -15.8355 -15.8355
   -15.8349 -15.8349 -15.8277 -15.8277 -15.8271 -15.8271 -12.8555 -12.8555
   -12.8538 -12.8538 -12.8467 -12.8467 -12.8463 -12.8462 -12.8393 -12.8393
   -12.8383 -12.8383  -3.5594  -3.5594  -3.0235  -3.0235  -2.0365  -2.0365
    -0.6413  -0.6413  -0.3591  -0.3591   4.7694   4.7694   5.0392   5.0392
     5.3449   5.3449   5.6756   5.6756   6.4353   6.4353   6.5089   6.5089
     7.6420   7.6420   8.1375   8.1375   8.2652   8.2652   9.3453   9.3453
     9.7224   9.7224  10.4126  10.4126  11.5262  11.5262  12.1754  12.1754
    12.5398  12.5398  13.1657  13.1657  13.2935  13.2935  15.3236  15.3236
    15.6279  15.6279  15.9351  15.9351  15.9980  15.9980  16.2106  16.2106
    16.8101  16.8101  17.0045  17.0045  17.4036  17.4036  17.8390  17.8390
    19.0239  19.0239  19.5518  19.5518  19.7564  19.7564  20.2034  20.2034
    20.4638  20.4638  20.6486  20.6487

     occupation numbers 
     1.0000   1.0000   1.0000   1.0000   1.0000   1.0000   1.0000   1.0000
     1.0000   1.0000   1.0000   1.0000   1.0000   1.0000   1.0000   1.0000
     1.0000   1.0000   1.0000   1.0000   1.0000   1.0000   1.0000   1.0000
     1.0000   1.0000   1.0000   1.0000   1.0000   1.0000   1.0000   1.0000
     1.0000   1.0000   1.0000   1.0000   1.0000   1.0000   1.0000   1.0000
     1.0000   1.0000   1.0000   1.0000   1.0000   1.0000   1.0000   1.0000
     1.0000   1.0000   1.0000   1.0000   1.0000   1.0000   1.0000   1.0000
     1.0000   1.0000   1.0000   1.0000   1.0000   1.0000   1.0000   1.0000
     1.0000   1.0000   1.0000   1.0000   1.0000   1.0000   1.0000   1.0000
     1.0000   1.0000   1.0000   1.0000   1.0010   1.0010  -0.0000  -0.0000
    -0.0000  -0.0000  -0.0000  -0.0000  -0.0000  -0.0000  -0.0000  -0.0000
    -0.0000  -0.0000  -0.0000  -0.0000  -0.0000  -0.0000  -0.0000  -0.0000
    -0.0000  -0.0000  -0.0000  -0.0000  -0.0000  -0.0000  -0.0000  -0.0000
    -0.0000  -0.0000  -0.0000  -0.0000  -0.0000  -0.0000  -0.0000  -0.0000
    -0.0000  -0.0000  -0.0000  -0.0000  -0.0000  -0.0000  -0.0000  -0.0000
    -0.0000  -0.0000  -0.0000  -0.0000

          k =-0.0009 0.8204-0.4456 ( 11906 PWs)   bands (ev):

   -28.7943 -28.7943 -28.7935 -28.7935 -28.7904 -28.7904 -28.7901 -28.7901
   -28.5549 -28.5549 -28.5258 -28.5258 -27.3294 -27.3294 -27.3290 -27.3290
   -27.3276 -27.3276 -27.3266 -27.3266 -27.3240 -27.3240 -27.3238 -27.3238
   -27.0915 -27.0915 -27.0799 -27.0799 -27.0537 -27.0537 -15.8351 -15.8351
   -15.8349 -15.8349 -15.8276 -15.8276 -15.8272 -15.8272 -12.8558 -12.8557
   -12.8546 -12.8546 -12.8465 -12.8465 -12.8461 -12.8461 -12.8387 -12.8387
   -12.8374 -12.8374  -3.3373  -3.3373  -2.9040  -2.9040  -1.9055  -1.9055
    -1.0269  -1.0269  -0.4138  -0.4138   4.2611   4.2611   5.1097   5.1097
     5.2441   5.2441   5.9040   5.9040   6.1485   6.1485   6.6038   6.6038
     7.2694   7.2694   7.7630   7.7630   8.2416   8.2416   9.2111   9.2112
    10.2995  10.2995  10.5153  10.5153  11.0742  11.0742  12.0310  12.0310
    12.5228  12.5228  12.7850  12.7850  14.1366  14.1366  15.0324  15.0324
    16.2312  16.2312  16.3498  16.3498  16.6893  16.6893  16.9074  16.9074
    17.2889  17.2889  17.8622  17.8622  18.0984  18.0984  18.1644  18.1644
    18.4011  18.4011  18.6066  18.6066  19.3703  19.3703  20.5163  20.5163
    20.7393  20.7393  20.9302  20.9302

     occupation numbers 
     1.0000   1.0000   1.0000   1.0000   1.0000   1.0000   1.0000   1.0000
     1.0000   1.0000   1.0000   1.0000   1.0000   1.0000   1.0000   1.0000
     1.0000   1.0000   1.0000   1.0000   1.0000   1.0000   1.0000   1.0000
     1.0000   1.0000   1.0000   1.0000   1.0000   1.0000   1.0000   1.0000
     1.0000   1.0000   1.0000   1.0000   1.0000   1.0000   1.0000   1.0000
     1.0000   1.0000   1.0000   1.0000   1.0000   1.0000   1.0000   1.0000
     1.0000   1.0000   1.0000   1.0000   1.0000   1.0000   1.0000   1.0000
     1.0000   1.0000   1.0000   1.0000   1.0000   1.0000   1.0000   1.0000
     1.0000   1.0000   1.0000   1.0000   1.0000   1.0000   1.0000   1.0000
     1.0000   1.0000   1.0000   1.0000   1.0004   1.0004  -0.0000  -0.0000
    -0.0000  -0.0000  -0.0000  -0.0000  -0.0000  -0.0000  -0.0000  -0.0000
    -0.0000  -0.0000  -0.0000  -0.0000  -0.0000  -0.0000  -0.0000  -0.0000
    -0.0000  -0.0000  -0.0000  -0.0000  -0.0000  -0.0000  -0.0000  -0.0000
    -0.0000  -0.0000  -0.0000  -0.0000  -0.0000  -0.0000  -0.0000  -0.0000
    -0.0000  -0.0000  -0.0000  -0.0000  -0.0000  -0.0000  -0.0000  -0.0000
    -0.0000  -0.0000  -0.0000  -0.0000

          k =-0.0014 0.8203 0.0212 ( 11897 PWs)   bands (ev):

   -28.7944 -28.7944 -28.7934 -28.7934 -28.7905 -28.7905 -28.7901 -28.7901
   -28.5549 -28.5549 -28.5258 -28.5258 -27.3295 -27.3295 -27.3290 -27.3290
   -27.3277 -27.3277 -27.3264 -27.3264 -27.3241 -27.3241 -27.3238 -27.3238
   -27.0916 -27.0916 -27.0799 -27.0799 -27.0538 -27.0538 -15.8355 -15.8355
   -15.8349 -15.8349 -15.8277 -15.8277 -15.8271 -15.8271 -12.8555 -12.8555
   -12.8538 -12.8538 -12.8467 -12.8467 -12.8463 -12.8462 -12.8393 -12.8393
   -12.8383 -12.8383  -3.5405  -3.5405  -3.0707  -3.0707  -1.9774  -1.9774
    -0.7274  -0.7274  -0.3040  -0.3040   4.6983   4.6983   5.0674   5.0674
     5.3065   5.3065   5.7882   5.7882   6.4361   6.4361   6.6351   6.6351
     7.4676   7.4676   8.0769   8.0769   8.1836   8.1836   9.4658   9.4658
     9.7496   9.7497  10.5984  10.5984  11.4781  11.4781  12.0616  12.0616
    12.4593  12.4593  13.2274  13.2274  13.3250  13.3250  14.7813  14.7813
    15.3005  15.3005  16.2031  16.2031  16.3479  16.3479  16.4807  16.4807
    16.9649  16.9649  17.2266  17.2266  17.4272  17.4272  18.1219  18.1219
    18.7522  18.7522  19.1214  19.1214  19.5838  19.5838  20.1692  20.1692
    20.4436  20.4436  20.8013  20.8013

     occupation numbers 
     1.0000   1.0000   1.0000   1.0000   1.0000   1.0000   1.0000   1.0000
     1.0000   1.0000   1.0000   1.0000   1.0000   1.0000   1.0000   1.0000
     1.0000   1.0000   1.0000   1.0000   1.0000   1.0000   1.0000   1.0000
     1.0000   1.0000   1.0000   1.0000   1.0000   1.0000   1.0000   1.0000
     1.0000   1.0000   1.0000   1.0000   1.0000   1.0000   1.0000   1.0000
     1.0000   1.0000   1.0000   1.0000   1.0000   1.0000   1.0000   1.0000
     1.0000   1.0000   1.0000   1.0000   1.0000   1.0000   1.0000   1.0000
     1.0000   1.0000   1.0000   1.0000   1.0000   1.0000   1.0000   1.0000
     1.0000   1.0000   1.0000   1.0000   1.0000   1.0000   1.0000   1.0000
     1.0000   1.0000   1.0000   1.0000   1.0000   1.0000  -0.0000  -0.0000
    -0.0000  -0.0000  -0.0000  -0.0000  -0.0000  -0.0000  -0.0000  -0.0000
    -0.0000  -0.0000  -0.0000  -0.0000  -0.0000  -0.0000  -0.0000  -0.0000
    -0.0000  -0.0000  -0.0000  -0.0000  -0.0000  -0.0000  -0.0000  -0.0000
    -0.0000  -0.0000  -0.0000  -0.0000  -0.0000  -0.0000  -0.0000  -0.0000
    -0.0000  -0.0000  -0.0000  -0.0000  -0.0000  -0.0000  -0.0000  -0.0000
    -0.0000  -0.0000  -0.0000  -0.0000

          k =-0.0018 0.8202 0.4880 ( 11884 PWs)   bands (ev):

   -28.7943 -28.7943 -28.7935 -28.7935 -28.7904 -28.7904 -28.7901 -28.7901
   -28.5548 -28.5548 -28.5258 -28.5258 -27.3294 -27.3294 -27.3290 -27.3290
   -27.3276 -27.3276 -27.3265 -27.3265 -27.3240 -27.3240 -27.3238 -27.3238
   -27.0915 -27.0915 -27.0799 -27.0799 -27.0537 -27.0537 -15.8351 -15.8351
   -15.8349 -15.8349 -15.8276 -15.8276 -15.8272 -15.8272 -12.8558 -12.8557
   -12.8546 -12.8546 -12.8465 -12.8465 -12.8461 -12.8461 -12.8387 -12.8386
   -12.8374 -12.8374  -3.3312  -3.3312  -2.9049  -2.9049  -1.9626  -1.9626
    -0.8401  -0.8401  -0.5507  -0.5507   4.1016   4.1016   5.0398   5.0398
     5.6559   5.6559   5.9863   5.9863   6.2657   6.2657   6.6341   6.6341
     7.2269   7.2269   7.3956   7.3956   7.6350   7.6350   9.7567   9.7567
    10.4638  10.4638  10.8540  10.8540  11.2887  11.2887  11.8346  11.8346
    12.3035  12.3035  12.3978  12.3978  14.4034  14.4034  15.3303  15.3303
    15.4567  15.4567  16.1569  16.1569  16.2834  16.2834  16.9955  16.9955
    17.1944  17.1944  17.6858  17.6858  17.8887  17.8887  18.6867  18.6867
    18.9986  18.9986  19.2961  19.2961  19.7606  19.7606  20.8616  20.8616
    21.0250  21.0250  21.5449  21.5449

     occupation numbers 
     1.0000   1.0000   1.0000   1.0000   1.0000   1.0000   1.0000   1.0000
     1.0000   1.0000   1.0000   1.0000   1.0000   1.0000   1.0000   1.0000
     1.0000   1.0000   1.0000   1.0000   1.0000   1.0000   1.0000   1.0000
     1.0000   1.0000   1.0000   1.0000   1.0000   1.0000   1.0000   1.0000
     1.0000   1.0000   1.0000   1.0000   1.0000   1.0000   1.0000   1.0000
     1.0000   1.0000   1.0000   1.0000   1.0000   1.0000   1.0000   1.0000
     1.0000   1.0000   1.0000   1.0000   1.0000   1.0000   1.0000   1.0000
     1.0000   1.0000   1.0000   1.0000   1.0000   1.0000   1.0000   1.0000
     1.0000   1.0000   1.0000   1.0000   1.0000   1.0000   1.0000   1.0000
     1.0000   1.0000   1.0000   1.0000   1.0000   1.0000  -0.0000  -0.0000
    -0.0000  -0.0000  -0.0000  -0.0000  -0.0000  -0.0000  -0.0000  -0.0000
    -0.0000  -0.0000  -0.0000  -0.0000  -0.0000  -0.0000  -0.0000  -0.0000
    -0.0000  -0.0000  -0.0000  -0.0000  -0.0000  -0.0000  -0.0000  -0.0000
    -0.0000  -0.0000  -0.0000  -0.0000  -0.0000  -0.0000  -0.0000  -0.0000
    -0.0000  -0.0000  -0.0000  -0.0000  -0.0000  -0.0000  -0.0000  -0.0000
    -0.0000  -0.0000  -0.0000  -0.0000

          k = 0.0005 0.8207-1.8459 ( 11912 PWs)   bands (ev):

   -28.7941 -28.7941 -28.7936 -28.7936 -28.7903 -28.7903 -28.7901 -28.7901
   -28.5548 -28.5548 -28.5257 -28.5257 -27.3295 -27.3295 -27.3288 -27.3288
   -27.3275 -27.3275 -27.3266 -27.3266 -27.3238 -27.3238 -27.3237 -27.3237
   -27.0915 -27.0915 -27.0799 -27.0799 -27.0536 -27.0536 -15.8350 -15.8350
   -15.8339 -15.8339 -15.8278 -15.8278 -15.8273 -15.8273 -12.8553 -12.8553
   -12.8536 -12.8535 -12.8474 -12.8474 -12.8466 -12.8466 -12.8378 -12.8378
   -12.8370 -12.8370  -2.7472  -2.7472  -2.4602  -2.4602  -1.9000  -1.9000
    -1.3341  -1.3341  -1.0700  -1.0700   4.0687   4.0687   4.8250   4.8250
     4.9753   4.9753   5.2862   5.2862   5.6896   5.6897   6.0365   6.0365
     7.3851   7.3851   8.0374   8.0374   8.1984   8.1984   9.3408   9.3408
     9.8541   9.8541  10.6260  10.6260  11.7991  11.7991  12.4753  12.4753
    12.8251  12.8251  13.0277  13.0277  14.6071  14.6071  15.1859  15.1859
    15.4426  15.4426  15.8227  15.8227  16.8108  16.8108  17.8186  17.8186
    17.9188  17.9188  18.1994  18.1994  18.8971  18.8971  19.3413  19.3413
    19.3879  19.3879  19.8042  19.8042  20.1510  20.1510  20.6683  20.6683
    20.7744  20.7744  21.1398  21.1401

     occupation numbers 
     1.0000   1.0000   1.0000   1.0000   1.0000   1.0000   1.0000   1.0000
     1.0000   1.0000   1.0000   1.0000   1.0000   1.0000   1.0000   1.0000
     1.0000   1.0000   1.0000   1.0000   1.0000   1.0000   1.0000   1.0000
     1.0000   1.0000   1.0000   1.0000   1.0000   1.0000   1.0000   1.0000
     1.0000   1.0000   1.0000   1.0000   1.0000   1.0000   1.0000   1.0000
     1.0000   1.0000   1.0000   1.0000   1.0000   1.0000   1.0000   1.0000
     1.0000   1.0000   1.0000   1.0000   1.0000   1.0000   1.0000   1.0000
     1.0000   1.0000   1.0000   1.0000   1.0000   1.0000   1.0000   1.0000
     1.0000   1.0000   1.0000   1.0000   1.0000   1.0000   1.0000   1.0000
     1.0000   1.0000   1.0000   1.0000   1.0001   1.0001  -0.0000  -0.0000
    -0.0000  -0.0000  -0.0000  -0.0000  -0.0000  -0.0000  -0.0000  -0.0000
    -0.0000  -0.0000  -0.0000  -0.0000  -0.0000  -0.0000  -0.0000  -0.0000
    -0.0000  -0.0000  -0.0000  -0.0000  -0.0000  -0.0000  -0.0000  -0.0000
    -0.0000  -0.0000  -0.0000  -0.0000  -0.0000  -0.0000  -0.0000  -0.0000
    -0.0000  -0.0000  -0.0000  -0.0000  -0.0000  -0.0000  -0.0000  -0.0000
    -0.0000  -0.0000  -0.0000  -0.0000

          k =-0.0000 0.8206-1.3791 ( 11913 PWs)   bands (ev):

   -28.7939 -28.7939 -28.7938 -28.7938 -28.7901 -28.7901 -28.7901 -28.7901
   -28.5548 -28.5548 -28.5257 -28.5257 -27.3296 -27.3296 -27.3286 -27.3286
   -27.3275 -27.3275 -27.3266 -27.3266 -27.3238 -27.3238 -27.3236 -27.3236
   -27.0915 -27.0915 -27.0799 -27.0799 -27.0535 -27.0535 -15.8349 -15.8349
   -15.8332 -15.8332 -15.8281 -15.8281 -15.8273 -15.8273 -12.8534 -12.8534
   -12.8515 -12.8515 -12.8495 -12.8495 -12.8477 -12.8477 -12.8375 -12.8374
   -12.8374 -12.8374  -1.9560  -1.9560  -1.9407  -1.9407  -1.9110  -1.9110
    -1.8819  -1.8819  -1.7752  -1.7752   4.0996   4.0996   4.5031   4.5031
     4.7183   4.7183   5.0173   5.0173   5.6106   5.6106   6.1857   6.1857
     7.1265   7.1265   7.4481   7.4481   8.0443   8.0443   9.5607   9.5607
    10.6107  10.6107  11.0135  11.0135  12.1466  12.1466  12.4156  12.4156
    12.9254  12.9254  14.2693  14.2693  14.7646  14.7646  14.7997  14.7997
    15.1534  15.1534  15.3545  15.3545  16.6408  16.6408  16.9233  16.9233
    18.1155  18.1155  18.1750  18.1750  18.5330  18.5330  18.8437  18.8437
    19.2122  19.2122  19.9904  19.9904  20.5056  20.5056  20.8597  20.8597
    20.9054  20.9054  22.0802  22.0803

     occupation numbers 
     1.0000   1.0000   1.0000   1.0000   1.0000   1.0000   1.0000   1.0000
     1.0000   1.0000   1.0000   1.0000   1.0000   1.0000   1.0000   1.0000
     1.0000   1.0000   1.0000   1.0000   1.0000   1.0000   1.0000   1.0000
     1.0000   1.0000   1.0000   1.0000   1.0000   1.0000   1.0000   1.0000
     1.0000   1.0000   1.0000   1.0000   1.0000   1.0000   1.0000   1.0000
     1.0000   1.0000   1.0000   1.0000   1.0000   1.0000   1.0000   1.0000
     1.0000   1.0000   1.0000   1.0000   1.0000   1.0000   1.0000   1.0000
     1.0000   1.0000   1.0000   1.0000   1.0000   1.0000   1.0000   1.0000
     1.0000   1.0000   1.0000   1.0000   1.0000   1.0000   1.0000   1.0000
     1.0000   1.0000   1.0000   1.0000   1.0000   1.0000  -0.0000  -0.0000
    -0.0000  -0.0000  -0.0000  -0.0000  -0.0000  -0.0000  -0.0000  -0.0000
    -0.0000  -0.0000  -0.0000  -0.0000  -0.0000  -0.0000  -0.0000  -0.0000
    -0.0000  -0.0000  -0.0000  -0.0000  -0.0000  -0.0000  -0.0000  -0.0000
    -0.0000  -0.0000  -0.0000  -0.0000  -0.0000  -0.0000  -0.0000  -0.0000
    -0.0000  -0.0000  -0.0000  -0.0000  -0.0000  -0.0000  -0.0000  -0.0000
    -0.0000  -0.0000  -0.0000  -0.0000

          k =-0.0005 0.8205-0.9123 ( 11920 PWs)   bands (ev):

   -28.7941 -28.7941 -28.7936 -28.7936 -28.7903 -28.7903 -28.7901 -28.7901
   -28.5548 -28.5548 -28.5257 -28.5257 -27.3295 -27.3295 -27.3288 -27.3288
   -27.3275 -27.3275 -27.3266 -27.3266 -27.3238 -27.3238 -27.3237 -27.3237
   -27.0915 -27.0915 -27.0799 -27.0799 -27.0536 -27.0536 -15.8350 -15.8350
   -15.8339 -15.8339 -15.8278 -15.8278 -15.8273 -15.8273 -12.8553 -12.8553
   -12.8536 -12.8535 -12.8474 -12.8474 -12.8466 -12.8466 -12.8379 -12.8379
   -12.8370 -12.8370  -2.7551  -2.7551  -2.4656  -2.4656  -1.8255  -1.8255
    -1.4435  -1.4435  -1.0218  -1.0218   3.9448   3.9448   4.6863   4.6863
     5.0140   5.0140   5.5492   5.5492   6.1187   6.1187   6.3547   6.3547
     6.7908   6.7908   7.4961   7.4961   7.6660   7.6660  10.0764  10.0764
    10.3126  10.3126  11.2037  11.2037  11.6866  11.6866  12.1322  12.1322
    12.4755  12.4755  12.8839  12.8839  14.0514  14.0514  14.7639  14.7639
    16.1735  16.1735  16.7718  16.7718  17.1330  17.1330  17.3179  17.3179
    17.8477  17.8477  18.1124  18.1124  18.6530  18.6530  19.0934  19.0934
    19.3064  19.3064  19.7276  19.7276  20.0042  20.0042  20.2206  20.2206
    20.6043  20.6043  21.0207  21.0207

     occupation numbers 
     1.0000   1.0000   1.0000   1.0000   1.0000   1.0000   1.0000   1.0000
     1.0000   1.0000   1.0000   1.0000   1.0000   1.0000   1.0000   1.0000
     1.0000   1.0000   1.0000   1.0000   1.0000   1.0000   1.0000   1.0000
     1.0000   1.0000   1.0000   1.0000   1.0000   1.0000   1.0000   1.0000
     1.0000   1.0000   1.0000   1.0000   1.0000   1.0000   1.0000   1.0000
     1.0000   1.0000   1.0000   1.0000   1.0000   1.0000   1.0000   1.0000
     1.0000   1.0000   1.0000   1.0000   1.0000   1.0000   1.0000   1.0000
     1.0000   1.0000   1.0000   1.0000   1.0000   1.0000   1.0000   1.0000
     1.0000   1.0000   1.0000   1.0000   1.0000   1.0000   1.0000   1.0000
     1.0000   1.0000   1.0000   1.0000   1.0000   1.0000  -0.0000  -0.0000
    -0.0000  -0.0000  -0.0000  -0.0000  -0.0000  -0.0000  -0.0000  -0.0000
    -0.0000  -0.0000  -0.0000  -0.0000  -0.0000  -0.0000  -0.0000  -0.0000
    -0.0000  -0.0000  -0.0000  -0.0000  -0.0000  -0.0000  -0.0000  -0.0000
    -0.0000  -0.0000  -0.0000  -0.0000  -0.0000  -0.0000  -0.0000  -0.0000
    -0.0000  -0.0000  -0.0000  -0.0000  -0.0000  -0.0000  -0.0000  -0.0000
    -0.0000  -0.0000  -0.0000  -0.0000

          k = 0.0014-1.2306 0.6683 ( 11896 PWs)   bands (ev):

   -28.7941 -28.7941 -28.7936 -28.7936 -28.7902 -28.7902 -28.7901 -28.7901
   -28.5548 -28.5548 -28.5257 -28.5257 -27.3294 -27.3294 -27.3289 -27.3289
   -27.3274 -27.3274 -27.3267 -27.3267 -27.3237 -27.3237 -27.3237 -27.3237
   -27.0915 -27.0915 -27.0799 -27.0799 -27.0536 -27.0536 -15.8346 -15.8346
   -15.8345 -15.8345 -15.8276 -15.8276 -15.8274 -15.8274 -12.8563 -12.8563
   -12.8556 -12.8556 -12.8464 -12.8464 -12.8458 -12.8458 -12.8375 -12.8375
   -12.8361 -12.8361  -2.5503  -2.5503  -2.5177  -2.5177  -2.1388  -2.1388
    -1.3303  -1.3303  -0.9997  -0.9997   3.7079   3.7079   5.1359   5.1359
     5.2729   5.2729   5.5811   5.5811   6.0005   6.0005   6.2211   6.2211
     6.5166   6.5166   7.7496   7.7496   8.2887   8.2887   9.0137   9.0137
    10.2134  10.2134  11.0202  11.0202  11.4082  11.4082  12.0546  12.0546
    12.2637  12.2637  12.5919  12.5919  13.8401  13.8401  16.8572  16.8572
    17.0096  17.0096  17.3534  17.3534  17.4830  17.4830  17.7416  17.7416
    18.0393  18.0393  18.2822  18.2822  18.6766  18.6766  19.0427  19.0427
    19.0674  19.0674  19.1778  19.1778  19.7586  19.7586  20.2236  20.2236
    20.3286  20.3286  20.6784  20.6785

     occupation numbers 
     1.0000   1.0000   1.0000   1.0000   1.0000   1.0000   1.0000   1.0000
     1.0000   1.0000   1.0000   1.0000   1.0000   1.0000   1.0000   1.0000
     1.0000   1.0000   1.0000   1.0000   1.0000   1.0000   1.0000   1.0000
     1.0000   1.0000   1.0000   1.0000   1.0000   1.0000   1.0000   1.0000
     1.0000   1.0000   1.0000   1.0000   1.0000   1.0000   1.0000   1.0000
     1.0000   1.0000   1.0000   1.0000   1.0000   1.0000   1.0000   1.0000
     1.0000   1.0000   1.0000   1.0000   1.0000   1.0000   1.0000   1.0000
     1.0000   1.0000   1.0000   1.0000   1.0000   1.0000   1.0000   1.0000
     1.0000   1.0000   1.0000   1.0000   1.0000   1.0000   1.0000   1.0000
     1.0000   1.0000   1.0000   1.0000   1.0022   1.0022  -0.0001  -0.0001
    -0.0000  -0.0000  -0.0000  -0.0000  -0.0000  -0.0000  -0.0000  -0.0000
    -0.0000  -0.0000  -0.0000  -0.0000  -0.0000  -0.0000  -0.0000  -0.0000
    -0.0000  -0.0000  -0.0000  -0.0000  -0.0000  -0.0000  -0.0000  -0.0000
    -0.0000  -0.0000  -0.0000  -0.0000  -0.0000  -0.0000  -0.0000  -0.0000
    -0.0000  -0.0000  -0.0000  -0.0000  -0.0000  -0.0000  -0.0000  -0.0000
    -0.0000  -0.0000  -0.0000  -0.0000

          k = 0.0009-1.2307 1.1351 ( 11914 PWs)   bands (ev):

   -28.7941 -28.7941 -28.7936 -28.7936 -28.7903 -28.7903 -28.7901 -28.7901
   -28.5548 -28.5548 -28.5257 -28.5257 -27.3295 -27.3295 -27.3288 -27.3288
   -27.3275 -27.3275 -27.3266 -27.3266 -27.3238 -27.3238 -27.3237 -27.3237
   -27.0915 -27.0915 -27.0799 -27.0799 -27.0536 -27.0536 -15.8350 -15.8350
   -15.8339 -15.8339 -15.8278 -15.8278 -15.8273 -15.8273 -12.8553 -12.8553
   -12.8536 -12.8535 -12.8474 -12.8474 -12.8466 -12.8466 -12.8379 -12.8379
   -12.8370 -12.8370  -2.7220  -2.7220  -2.5211  -2.5211  -1.8036  -1.8036
    -1.4228  -1.4228  -1.0421  -1.0421   4.0308   4.0308   4.6405   4.6405
     4.9697   4.9697   5.2635   5.2635   6.2409   6.2409   6.6707   6.6707
     6.9977   6.9977   7.2552   7.2552   7.5478   7.5478  10.1563  10.1563
    10.4322  10.4322  10.9914  10.9914  11.4532  11.4532  12.0863  12.0863
    12.7548  12.7548  13.0942  13.0942  13.6315  13.6315  14.7597  14.7597
    16.6704  16.6704  16.7222  16.7222  17.1314  17.1314  17.7739  17.7739
    17.9589  17.9589  18.1976  18.1976  18.3619  18.3619  18.9656  18.9656
    19.3167  19.3167  19.3960  19.3960  19.6953  19.6953  19.9037  19.9037
    20.5195  20.5195  21.1759  21.1759

     occupation numbers 
     1.0000   1.0000   1.0000   1.0000   1.0000   1.0000   1.0000   1.0000
     1.0000   1.0000   1.0000   1.0000   1.0000   1.0000   1.0000   1.0000
     1.0000   1.0000   1.0000   1.0000   1.0000   1.0000   1.0000   1.0000
     1.0000   1.0000   1.0000   1.0000   1.0000   1.0000   1.0000   1.0000
     1.0000   1.0000   1.0000   1.0000   1.0000   1.0000   1.0000   1.0000
     1.0000   1.0000   1.0000   1.0000   1.0000   1.0000   1.0000   1.0000
     1.0000   1.0000   1.0000   1.0000   1.0000   1.0000   1.0000   1.0000
     1.0000   1.0000   1.0000   1.0000   1.0000   1.0000   1.0000   1.0000
     1.0000   1.0000   1.0000   1.0000   1.0000   1.0000   1.0000   1.0000
     1.0000   1.0000   1.0000   1.0000   1.0000   1.0000  -0.0000  -0.0000
    -0.0000  -0.0000  -0.0000  -0.0000  -0.0000  -0.0000  -0.0000  -0.0000
    -0.0000  -0.0000  -0.0000  -0.0000  -0.0000  -0.0000  -0.0000  -0.0000
    -0.0000  -0.0000  -0.0000  -0.0000  -0.0000  -0.0000  -0.0000  -0.0000
    -0.0000  -0.0000  -0.0000  -0.0000  -0.0000  -0.0000  -0.0000  -0.0000
    -0.0000  -0.0000  -0.0000  -0.0000  -0.0000  -0.0000  -0.0000  -0.0000
    -0.0000  -0.0000  -0.0000  -0.0000

          k = 0.0005-1.2308 1.6019 ( 11912 PWs)   bands (ev):

   -28.7941 -28.7941 -28.7936 -28.7936 -28.7903 -28.7903 -28.7901 -28.7901
   -28.5548 -28.5548 -28.5257 -28.5257 -27.3295 -27.3295 -27.3288 -27.3288
   -27.3275 -27.3275 -27.3266 -27.3266 -27.3238 -27.3238 -27.3237 -27.3237
   -27.0915 -27.0915 -27.0799 -27.0799 -27.0536 -27.0536 -15.8350 -15.8350
   -15.8339 -15.8339 -15.8278 -15.8278 -15.8273 -15.8273 -12.8553 -12.8553
   -12.8536 -12.8535 -12.8474 -12.8474 -12.8466 -12.8466 -12.8378 -12.8378
   -12.8370 -12.8370  -2.7472  -2.7472  -2.4602  -2.4602  -1.9000  -1.9000
    -1.3341  -1.3341  -1.0700  -1.0700   4.0687   4.0687   4.8250   4.8250
     4.9753   4.9753   5.2862   5.2862   5.6896   5.6897   6.0365   6.0365
     7.3851   7.3851   8.0374   8.0374   8.1984   8.1984   9.3408   9.3408
     9.8541   9.8541  10.6260  10.6260  11.7991  11.7991  12.4753  12.4753
    12.8251  12.8251  13.0277  13.0277  14.6071  14.6071  15.1859  15.1859
    15.4426  15.4426  15.8227  15.8227  16.8108  16.8108  17.8186  17.8186
    17.9188  17.9188  18.1994  18.1994  18.8971  18.8971  19.3413  19.3413
    19.3879  19.3879  19.8042  19.8042  20.1510  20.1510  20.6683  20.6683
    20.7744  20.7745  21.1398  21.1402

     occupation numbers 
     1.0000   1.0000   1.0000   1.0000   1.0000   1.0000   1.0000   1.0000
     1.0000   1.0000   1.0000   1.0000   1.0000   1.0000   1.0000   1.0000
     1.0000   1.0000   1.0000   1.0000   1.0000   1.0000   1.0000   1.0000
     1.0000   1.0000   1.0000   1.0000   1.0000   1.0000   1.0000   1.0000
     1.0000   1.0000   1.0000   1.0000   1.0000   1.0000   1.0000   1.0000
     1.0000   1.0000   1.0000   1.0000   1.0000   1.0000   1.0000   1.0000
     1.0000   1.0000   1.0000   1.0000   1.0000   1.0000   1.0000   1.0000
     1.0000   1.0000   1.0000   1.0000   1.0000   1.0000   1.0000   1.0000
     1.0000   1.0000   1.0000   1.0000   1.0000   1.0000   1.0000   1.0000
     1.0000   1.0000   1.0000   1.0000   1.0001   1.0001  -0.0000  -0.0000
    -0.0000  -0.0000  -0.0000  -0.0000  -0.0000  -0.0000  -0.0000  -0.0000
    -0.0000  -0.0000  -0.0000  -0.0000  -0.0000  -0.0000  -0.0000  -0.0000
    -0.0000  -0.0000  -0.0000  -0.0000  -0.0000  -0.0000  -0.0000  -0.0000
    -0.0000  -0.0000  -0.0000  -0.0000  -0.0000  -0.0000  -0.0000  -0.0000
    -0.0000  -0.0000  -0.0000  -0.0000  -0.0000  -0.0000  -0.0000  -0.0000
    -0.0000  -0.0000  -0.0000  -0.0000

          k = 0.0027-1.2303-0.7320 ( 11906 PWs)   bands (ev):

   -28.7941 -28.7941 -28.7936 -28.7936 -28.7903 -28.7903 -28.7901 -28.7901
   -28.5548 -28.5548 -28.5257 -28.5257 -27.3294 -27.3294 -27.3289 -27.3289
   -27.3274 -27.3274 -27.3267 -27.3267 -27.3237 -27.3237 -27.3237 -27.3237
   -27.0915 -27.0915 -27.0799 -27.0799 -27.0536 -27.0536 -15.8346 -15.8346
   -15.8345 -15.8345 -15.8276 -15.8276 -15.8274 -15.8274 -12.8563 -12.8563
   -12.8556 -12.8556 -12.8463 -12.8463 -12.8458 -12.8458 -12.8375 -12.8375
   -12.8361 -12.8361  -2.5515  -2.5515  -2.5408  -2.5408  -2.0293  -2.0293
    -1.5507  -1.5507  -0.8555  -0.8555   4.0104   4.0104   4.5876   4.5876
     4.8504   4.8504   5.7396   5.7396   6.0196   6.0196   6.6999   6.6999
     7.1448   7.1448   7.4154   7.4154   7.8887   7.8887   9.4793   9.4793
    10.1743  10.1743  10.6676  10.6676  10.9456  10.9456  11.9873  11.9873
    12.1220  12.1220  13.5381  13.5381  14.5159  14.5159  14.8225  14.8225
    17.1401  17.1401  17.1651  17.1651  17.8150  17.8150  17.9006  17.9006
    18.2357  18.2357  18.4248  18.4248  19.1974  19.1974  19.3304  19.3304
    19.3843  19.3843  19.5205  19.5205  19.7156  19.7156  19.8106  19.8106
    20.3788  20.3788  20.8263  20.8263

     occupation numbers 
     1.0000   1.0000   1.0000   1.0000   1.0000   1.0000   1.0000   1.0000
     1.0000   1.0000   1.0000   1.0000   1.0000   1.0000   1.0000   1.0000
     1.0000   1.0000   1.0000   1.0000   1.0000   1.0000   1.0000   1.0000
     1.0000   1.0000   1.0000   1.0000   1.0000   1.0000   1.0000   1.0000
     1.0000   1.0000   1.0000   1.0000   1.0000   1.0000   1.0000   1.0000
     1.0000   1.0000   1.0000   1.0000   1.0000   1.0000   1.0000   1.0000
     1.0000   1.0000   1.0000   1.0000   1.0000   1.0000   1.0000   1.0000
     1.0000   1.0000   1.0000   1.0000   1.0000   1.0000   1.0000   1.0000
     1.0000   1.0000   1.0000   1.0000   1.0000   1.0000   1.0000   1.0000
     1.0000   1.0000   1.0000   1.0000   1.0000   1.0000  -0.0000  -0.0000
    -0.0000  -0.0000  -0.0000  -0.0000  -0.0000  -0.0000  -0.0000  -0.0000
    -0.0000  -0.0000  -0.0000  -0.0000  -0.0000  -0.0000  -0.0000  -0.0000
    -0.0000  -0.0000  -0.0000  -0.0000  -0.0000  -0.0000  -0.0000  -0.0000
    -0.0000  -0.0000  -0.0000  -0.0000  -0.0000  -0.0000  -0.0000  -0.0000
    -0.0000  -0.0000  -0.0000  -0.0000  -0.0000  -0.0000  -0.0000  -0.0000
    -0.0000  -0.0000  -0.0000  -0.0000

          k = 0.0023-1.2304-0.2652 ( 11912 PWs)   bands (ev):

   -28.7941 -28.7941 -28.7936 -28.7936 -28.7903 -28.7903 -28.7901 -28.7901
   -28.5548 -28.5548 -28.5257 -28.5257 -27.3295 -27.3295 -27.3288 -27.3288
   -27.3275 -27.3275 -27.3266 -27.3266 -27.3238 -27.3238 -27.3237 -27.3237
   -27.0915 -27.0915 -27.0799 -27.0799 -27.0536 -27.0536 -15.8350 -15.8350
   -15.8339 -15.8339 -15.8278 -15.8278 -15.8273 -15.8273 -12.8553 -12.8553
   -12.8536 -12.8535 -12.8474 -12.8474 -12.8466 -12.8466 -12.8378 -12.8378
   -12.8370 -12.8370  -2.7472  -2.7472  -2.4602  -2.4602  -1.9000  -1.9000
    -1.3341  -1.3341  -1.0700  -1.0700   4.0687   4.0687   4.8250   4.8250
     4.9753   4.9753   5.2862   5.2862   5.6896   5.6897   6.0365   6.0365
     7.3851   7.3851   8.0374   8.0374   8.1984   8.1984   9.3408   9.3408
     9.8541   9.8541  10.6260  10.6260  11.7991  11.7991  12.4753  12.4753
    12.8251  12.8251  13.0277  13.0277  14.6071  14.6071  15.1859  15.1859
    15.4426  15.4426  15.8227  15.8227  16.8108  16.8108  17.8186  17.8186
    17.9188  17.9188  18.1994  18.1994  18.8971  18.8971  19.3413  19.3413
    19.3879  19.3879  19.8042  19.8042  20.1510  20.1510  20.6683  20.6683
    20.7744  20.7744  21.1399  21.1400

     occupation numbers 
     1.0000   1.0000   1.0000   1.0000   1.0000   1.0000   1.0000   1.0000
     1.0000   1.0000   1.0000   1.0000   1.0000   1.0000   1.0000   1.0000
     1.0000   1.0000   1.0000   1.0000   1.0000   1.0000   1.0000   1.0000
     1.0000   1.0000   1.0000   1.0000   1.0000   1.0000   1.0000   1.0000
     1.0000   1.0000   1.0000   1.0000   1.0000   1.0000   1.0000   1.0000
     1.0000   1.0000   1.0000   1.0000   1.0000   1.0000   1.0000   1.0000
     1.0000   1.0000   1.0000   1.0000   1.0000   1.0000   1.0000   1.0000
     1.0000   1.0000   1.0000   1.0000   1.0000   1.0000   1.0000   1.0000
     1.0000   1.0000   1.0000   1.0000   1.0000   1.0000   1.0000   1.0000
     1.0000   1.0000   1.0000   1.0000   1.0001   1.0001  -0.0000  -0.0000
    -0.0000  -0.0000  -0.0000  -0.0000  -0.0000  -0.0000  -0.0000  -0.0000
    -0.0000  -0.0000  -0.0000  -0.0000  -0.0000  -0.0000  -0.0000  -0.0000
    -0.0000  -0.0000  -0.0000  -0.0000  -0.0000  -0.0000  -0.0000  -0.0000
    -0.0000  -0.0000  -0.0000  -0.0000  -0.0000  -0.0000  -0.0000  -0.0000
    -0.0000  -0.0000  -0.0000  -0.0000  -0.0000  -0.0000  -0.0000  -0.0000
    -0.0000  -0.0000  -0.0000  -0.0000

          k = 0.0018-1.2305 0.2016 ( 11914 PWs)   bands (ev):

   -28.7941 -28.7941 -28.7936 -28.7936 -28.7903 -28.7903 -28.7901 -28.7901
   -28.5548 -28.5548 -28.5257 -28.5257 -27.3295 -27.3295 -27.3288 -27.3288
   -27.3275 -27.3275 -27.3266 -27.3266 -27.3238 -27.3238 -27.3237 -27.3237
   -27.0915 -27.0915 -27.0799 -27.0799 -27.0536 -27.0536 -15.8350 -15.8350
   -15.8339 -15.8339 -15.8278 -15.8278 -15.8273 -15.8273 -12.8553 -12.8553
   -12.8536 -12.8535 -12.8474 -12.8474 -12.8466 -12.8466 -12.8379 -12.8379
   -12.8370 -12.8370  -2.7220  -2.7220  -2.5211  -2.5211  -1.8036  -1.8036
    -1.4228  -1.4228  -1.0421  -1.0421   4.0308   4.0308   4.6405   4.6405
     4.9697   4.9697   5.2635   5.2635   6.2409   6.2409   6.6707   6.6707
     6.9977   6.9977   7.2552   7.2552   7.5478   7.5478  10.1563  10.1563
    10.4322  10.4322  10.9914  10.9914  11.4532  11.4532  12.0863  12.0863
    12.7548  12.7548  13.0942  13.0942  13.6315  13.6315  14.7597  14.7597
    16.6704  16.6704  16.7222  16.7222  17.1314  17.1314  17.7739  17.7739
    17.9589  17.9589  18.1976  18.1976  18.3619  18.3619  18.9656  18.9656
    19.3167  19.3167  19.3960  19.3960  19.6953  19.6953  19.9037  19.9037
    20.5195  20.5195  21.1759  21.1760

     occupation numbers 
     1.0000   1.0000   1.0000   1.0000   1.0000   1.0000   1.0000   1.0000
     1.0000   1.0000   1.0000   1.0000   1.0000   1.0000   1.0000   1.0000
     1.0000   1.0000   1.0000   1.0000   1.0000   1.0000   1.0000   1.0000
     1.0000   1.0000   1.0000   1.0000   1.0000   1.0000   1.0000   1.0000
     1.0000   1.0000   1.0000   1.0000   1.0000   1.0000   1.0000   1.0000
     1.0000   1.0000   1.0000   1.0000   1.0000   1.0000   1.0000   1.0000
     1.0000   1.0000   1.0000   1.0000   1.0000   1.0000   1.0000   1.0000
     1.0000   1.0000   1.0000   1.0000   1.0000   1.0000   1.0000   1.0000
     1.0000   1.0000   1.0000   1.0000   1.0000   1.0000   1.0000   1.0000
     1.0000   1.0000   1.0000   1.0000   1.0000   1.0000  -0.0000  -0.0000
    -0.0000  -0.0000  -0.0000  -0.0000  -0.0000  -0.0000  -0.0000  -0.0000
    -0.0000  -0.0000  -0.0000  -0.0000  -0.0000  -0.0000  -0.0000  -0.0000
    -0.0000  -0.0000  -0.0000  -0.0000  -0.0000  -0.0000  -0.0000  -0.0000
    -0.0000  -0.0000  -0.0000  -0.0000  -0.0000  -0.0000  -0.0000  -0.0000
    -0.0000  -0.0000  -0.0000  -0.0000  -0.0000  -0.0000  -0.0000  -0.0000
    -0.0000  -0.0000  -0.0000  -0.0000

          k = 0.0009-0.8204 0.4456 ( 11906 PWs)   bands (ev):

   -28.7943 -28.7943 -28.7935 -28.7935 -28.7904 -28.7904 -28.7901 -28.7901
   -28.5549 -28.5549 -28.5258 -28.5258 -27.3294 -27.3294 -27.3290 -27.3290
   -27.3276 -27.3276 -27.3266 -27.3266 -27.3240 -27.3240 -27.3238 -27.3238
   -27.0915 -27.0915 -27.0799 -27.0799 -27.0537 -27.0537 -15.8351 -15.8351
   -15.8349 -15.8349 -15.8276 -15.8276 -15.8272 -15.8272 -12.8558 -12.8557
   -12.8546 -12.8546 -12.8465 -12.8465 -12.8461 -12.8461 -12.8387 -12.8387
   -12.8374 -12.8374  -3.3373  -3.3373  -2.9040  -2.9040  -1.9055  -1.9055
    -1.0269  -1.0269  -0.4138  -0.4138   4.2611   4.2611   5.1097   5.1097
     5.2441   5.2441   5.9040   5.9040   6.1485   6.1485   6.6038   6.6038
     7.2694   7.2694   7.7630   7.7630   8.2416   8.2416   9.2111   9.2112
    10.2995  10.2995  10.5153  10.5153  11.0742  11.0742  12.0310  12.0310
    12.5228  12.5228  12.7850  12.7850  14.1366  14.1366  15.0324  15.0324
    16.2312  16.2312  16.3498  16.3498  16.6893  16.6893  16.9074  16.9074
    17.2889  17.2889  17.8622  17.8622  18.0984  18.0984  18.1644  18.1644
    18.4011  18.4011  18.6066  18.6066  19.3703  19.3703  20.5163  20.5163
    20.7393  20.7393  20.9302  20.9302

     occupation numbers 
     1.0000   1.0000   1.0000   1.0000   1.0000   1.0000   1.0000   1.0000
     1.0000   1.0000   1.0000   1.0000   1.0000   1.0000   1.0000   1.0000
     1.0000   1.0000   1.0000   1.0000   1.0000   1.0000   1.0000   1.0000
     1.0000   1.0000   1.0000   1.0000   1.0000   1.0000   1.0000   1.0000
     1.0000   1.0000   1.0000   1.0000   1.0000   1.0000   1.0000   1.0000
     1.0000   1.0000   1.0000   1.0000   1.0000   1.0000   1.0000   1.0000
     1.0000   1.0000   1.0000   1.0000   1.0000   1.0000   1.0000   1.0000
     1.0000   1.0000   1.0000   1.0000   1.0000   1.0000   1.0000   1.0000
     1.0000   1.0000   1.0000   1.0000   1.0000   1.0000   1.0000   1.0000
     1.0000   1.0000   1.0000   1.0000   1.0004   1.0004  -0.0000  -0.0000
    -0.0000  -0.0000  -0.0000  -0.0000  -0.0000  -0.0000  -0.0000  -0.0000
    -0.0000  -0.0000  -0.0000  -0.0000  -0.0000  -0.0000  -0.0000  -0.0000
    -0.0000  -0.0000  -0.0000  -0.0000  -0.0000  -0.0000  -0.0000  -0.0000
    -0.0000  -0.0000  -0.0000  -0.0000  -0.0000  -0.0000  -0.0000  -0.0000
    -0.0000  -0.0000  -0.0000  -0.0000  -0.0000  -0.0000  -0.0000  -0.0000
    -0.0000  -0.0000  -0.0000  -0.0000

          k = 0.0005-0.8205 0.9123 ( 11920 PWs)   bands (ev):

   -28.7941 -28.7941 -28.7936 -28.7936 -28.7903 -28.7903 -28.7901 -28.7901
   -28.5548 -28.5548 -28.5257 -28.5257 -27.3295 -27.3295 -27.3288 -27.3288
   -27.3275 -27.3275 -27.3266 -27.3266 -27.3238 -27.3238 -27.3237 -27.3237
   -27.0915 -27.0915 -27.0799 -27.0799 -27.0536 -27.0536 -15.8350 -15.8350
   -15.8339 -15.8339 -15.8278 -15.8278 -15.8273 -15.8273 -12.8553 -12.8553
   -12.8536 -12.8535 -12.8474 -12.8474 -12.8466 -12.8466 -12.8379 -12.8379
   -12.8370 -12.8370  -2.7551  -2.7551  -2.4656  -2.4656  -1.8255  -1.8255
    -1.4435  -1.4435  -1.0218  -1.0218   3.9448   3.9448   4.6863   4.6863
     5.0140   5.0140   5.5492   5.5492   6.1187   6.1187   6.3547   6.3547
     6.7908   6.7908   7.4961   7.4961   7.6660   7.6660  10.0764  10.0764
    10.3126  10.3126  11.2037  11.2037  11.6866  11.6866  12.1322  12.1322
    12.4755  12.4755  12.8839  12.8839  14.0514  14.0514  14.7639  14.7639
    16.1735  16.1735  16.7718  16.7718  17.1330  17.1330  17.3179  17.3179
    17.8477  17.8477  18.1124  18.1124  18.6530  18.6530  19.0934  19.0934
    19.3064  19.3064  19.7276  19.7276  20.0042  20.0042  20.2206  20.2206
    20.6043  20.6043  21.0207  21.0207

     occupation numbers 
     1.0000   1.0000   1.0000   1.0000   1.0000   1.0000   1.0000   1.0000
     1.0000   1.0000   1.0000   1.0000   1.0000   1.0000   1.0000   1.0000
     1.0000   1.0000   1.0000   1.0000   1.0000   1.0000   1.0000   1.0000
     1.0000   1.0000   1.0000   1.0000   1.0000   1.0000   1.0000   1.0000
     1.0000   1.0000   1.0000   1.0000   1.0000   1.0000   1.0000   1.0000
     1.0000   1.0000   1.0000   1.0000   1.0000   1.0000   1.0000   1.0000
     1.0000   1.0000   1.0000   1.0000   1.0000   1.0000   1.0000   1.0000
     1.0000   1.0000   1.0000   1.0000   1.0000   1.0000   1.0000   1.0000
     1.0000   1.0000   1.0000   1.0000   1.0000   1.0000   1.0000   1.0000
     1.0000   1.0000   1.0000   1.0000   1.0000   1.0000  -0.0000  -0.0000
    -0.0000  -0.0000  -0.0000  -0.0000  -0.0000  -0.0000  -0.0000  -0.0000
    -0.0000  -0.0000  -0.0000  -0.0000  -0.0000  -0.0000  -0.0000  -0.0000
    -0.0000  -0.0000  -0.0000  -0.0000  -0.0000  -0.0000  -0.0000  -0.0000
    -0.0000  -0.0000  -0.0000  -0.0000  -0.0000  -0.0000  -0.0000  -0.0000
    -0.0000  -0.0000  -0.0000  -0.0000  -0.0000  -0.0000  -0.0000  -0.0000
    -0.0000  -0.0000  -0.0000  -0.0000

          k = 0.0000-0.8206 1.3791 ( 11913 PWs)   bands (ev):

   -28.7939 -28.7939 -28.7938 -28.7938 -28.7901 -28.7901 -28.7901 -28.7901
   -28.5548 -28.5548 -28.5257 -28.5257 -27.3296 -27.3296 -27.3286 -27.3286
   -27.3275 -27.3275 -27.3266 -27.3266 -27.3238 -27.3238 -27.3236 -27.3236
   -27.0915 -27.0915 -27.0799 -27.0799 -27.0535 -27.0535 -15.8349 -15.8349
   -15.8332 -15.8332 -15.8281 -15.8281 -15.8273 -15.8273 -12.8534 -12.8534
   -12.8515 -12.8515 -12.8495 -12.8495 -12.8477 -12.8477 -12.8375 -12.8374
   -12.8374 -12.8374  -1.9560  -1.9560  -1.9407  -1.9407  -1.9110  -1.9110
    -1.8819  -1.8819  -1.7752  -1.7752   4.0996   4.0996   4.5031   4.5031
     4.7183   4.7183   5.0173   5.0173   5.6106   5.6106   6.1857   6.1857
     7.1265   7.1265   7.4481   7.4481   8.0443   8.0443   9.5607   9.5607
    10.6107  10.6107  11.0135  11.0135  12.1466  12.1466  12.4156  12.4156
    12.9254  12.9254  14.2693  14.2693  14.7646  14.7646  14.7997  14.7997
    15.1534  15.1534  15.3545  15.3545  16.6408  16.6408  16.9233  16.9233
    18.1155  18.1155  18.1750  18.1750  18.5330  18.5330  18.8437  18.8437
    19.2122  19.2122  19.9904  19.9904  20.5056  20.5056  20.8597  20.8597
    20.9054  20.9054  22.0802  22.0802

     occupation numbers 
     1.0000   1.0000   1.0000   1.0000   1.0000   1.0000   1.0000   1.0000
     1.0000   1.0000   1.0000   1.0000   1.0000   1.0000   1.0000   1.0000
     1.0000   1.0000   1.0000   1.0000   1.0000   1.0000   1.0000   1.0000
     1.0000   1.0000   1.0000   1.0000   1.0000   1.0000   1.0000   1.0000
     1.0000   1.0000   1.0000   1.0000   1.0000   1.0000   1.0000   1.0000
     1.0000   1.0000   1.0000   1.0000   1.0000   1.0000   1.0000   1.0000
     1.0000   1.0000   1.0000   1.0000   1.0000   1.0000   1.0000   1.0000
     1.0000   1.0000   1.0000   1.0000   1.0000   1.0000   1.0000   1.0000
     1.0000   1.0000   1.0000   1.0000   1.0000   1.0000   1.0000   1.0000
     1.0000   1.0000   1.0000   1.0000   1.0000   1.0000  -0.0000  -0.0000
    -0.0000  -0.0000  -0.0000  -0.0000  -0.0000  -0.0000  -0.0000  -0.0000
    -0.0000  -0.0000  -0.0000  -0.0000  -0.0000  -0.0000  -0.0000  -0.0000
    -0.0000  -0.0000  -0.0000  -0.0000  -0.0000  -0.0000  -0.0000  -0.0000
    -0.0000  -0.0000  -0.0000  -0.0000  -0.0000  -0.0000  -0.0000  -0.0000
    -0.0000  -0.0000  -0.0000  -0.0000  -0.0000  -0.0000  -0.0000  -0.0000
    -0.0000  -0.0000  -0.0000  -0.0000

          k = 0.0023-0.8201-0.9548 ( 11912 PWs)   bands (ev):

   -28.7941 -28.7941 -28.7936 -28.7936 -28.7903 -28.7903 -28.7901 -28.7901
   -28.5548 -28.5548 -28.5257 -28.5257 -27.3295 -27.3295 -27.3288 -27.3288
   -27.3275 -27.3275 -27.3266 -27.3266 -27.3238 -27.3238 -27.3237 -27.3237
   -27.0915 -27.0915 -27.0799 -27.0799 -27.0536 -27.0536 -15.8350 -15.8350
   -15.8339 -15.8339 -15.8278 -15.8278 -15.8273 -15.8273 -12.8553 -12.8553
   -12.8536 -12.8535 -12.8474 -12.8474 -12.8466 -12.8466 -12.8378 -12.8378
   -12.8370 -12.8370  -2.7472  -2.7472  -2.4602  -2.4602  -1.9000  -1.9000
    -1.3341  -1.3341  -1.0700  -1.0700   4.0687   4.0687   4.8250   4.8250
     4.9753   4.9753   5.2862   5.2862   5.6896   5.6897   6.0365   6.0365
     7.3851   7.3851   8.0374   8.0374   8.1984   8.1984   9.3408   9.3408
     9.8541   9.8541  10.6260  10.6260  11.7991  11.7991  12.4753  12.4753
    12.8251  12.8251  13.0277  13.0277  14.6071  14.6071  15.1859  15.1859
    15.4426  15.4426  15.8227  15.8227  16.8108  16.8108  17.8186  17.8186
    17.9188  17.9188  18.1994  18.1994  18.8971  18.8971  19.3413  19.3413
    19.3879  19.3879  19.8042  19.8042  20.1510  20.1510  20.6683  20.6683
    20.7744  20.7744  21.1398  21.1399

     occupation numbers 
     1.0000   1.0000   1.0000   1.0000   1.0000   1.0000   1.0000   1.0000
     1.0000   1.0000   1.0000   1.0000   1.0000   1.0000   1.0000   1.0000
     1.0000   1.0000   1.0000   1.0000   1.0000   1.0000   1.0000   1.0000
     1.0000   1.0000   1.0000   1.0000   1.0000   1.0000   1.0000   1.0000
     1.0000   1.0000   1.0000   1.0000   1.0000   1.0000   1.0000   1.0000
     1.0000   1.0000   1.0000   1.0000   1.0000   1.0000   1.0000   1.0000
     1.0000   1.0000   1.0000   1.0000   1.0000   1.0000   1.0000   1.0000
     1.0000   1.0000   1.0000   1.0000   1.0000   1.0000   1.0000   1.0000
     1.0000   1.0000   1.0000   1.0000   1.0000   1.0000   1.0000   1.0000
     1.0000   1.0000   1.0000   1.0000   1.0001   1.0001  -0.0000  -0.0000
    -0.0000  -0.0000  -0.0000  -0.0000  -0.0000  -0.0000  -0.0000  -0.0000
    -0.0000  -0.0000  -0.0000  -0.0000  -0.0000  -0.0000  -0.0000  -0.0000
    -0.0000  -0.0000  -0.0000  -0.0000  -0.0000  -0.0000  -0.0000  -0.0000
    -0.0000  -0.0000  -0.0000  -0.0000  -0.0000  -0.0000  -0.0000  -0.0000
    -0.0000  -0.0000  -0.0000  -0.0000  -0.0000  -0.0000  -0.0000  -0.0000
    -0.0000  -0.0000  -0.0000  -0.0000

          k = 0.0018-0.8202-0.4880 ( 11884 PWs)   bands (ev):

   -28.7943 -28.7943 -28.7935 -28.7935 -28.7904 -28.7904 -28.7901 -28.7901
   -28.5548 -28.5548 -28.5258 -28.5258 -27.3294 -27.3294 -27.3290 -27.3290
   -27.3276 -27.3276 -27.3265 -27.3265 -27.3240 -27.3240 -27.3238 -27.3238
   -27.0915 -27.0915 -27.0799 -27.0799 -27.0537 -27.0537 -15.8351 -15.8351
   -15.8349 -15.8349 -15.8276 -15.8276 -15.8272 -15.8272 -12.8558 -12.8557
   -12.8546 -12.8546 -12.8465 -12.8465 -12.8461 -12.8461 -12.8387 -12.8386
   -12.8374 -12.8374  -3.3312  -3.3312  -2.9049  -2.9049  -1.9626  -1.9626
    -0.8401  -0.8401  -0.5507  -0.5507   4.1016   4.1016   5.0398   5.0398
     5.6559   5.6559   5.9863   5.9863   6.2657   6.2657   6.6341   6.6341
     7.2269   7.2269   7.3956   7.3956   7.6350   7.6350   9.7567   9.7567
    10.4638  10.4638  10.8540  10.8540  11.2887  11.2887  11.8346  11.8346
    12.3035  12.3035  12.3978  12.3978  14.4034  14.4034  15.3303  15.3303
    15.4567  15.4567  16.1569  16.1569  16.2834  16.2834  16.9955  16.9955
    17.1944  17.1944  17.6858  17.6858  17.8887  17.8887  18.6867  18.6867
    18.9986  18.9986  19.2961  19.2961  19.7606  19.7606  20.8616  20.8616
    21.0250  21.0250  21.5449  21.5451

     occupation numbers 
     1.0000   1.0000   1.0000   1.0000   1.0000   1.0000   1.0000   1.0000
     1.0000   1.0000   1.0000   1.0000   1.0000   1.0000   1.0000   1.0000
     1.0000   1.0000   1.0000   1.0000   1.0000   1.0000   1.0000   1.0000
     1.0000   1.0000   1.0000   1.0000   1.0000   1.0000   1.0000   1.0000
     1.0000   1.0000   1.0000   1.0000   1.0000   1.0000   1.0000   1.0000
     1.0000   1.0000   1.0000   1.0000   1.0000   1.0000   1.0000   1.0000
     1.0000   1.0000   1.0000   1.0000   1.0000   1.0000   1.0000   1.0000
     1.0000   1.0000   1.0000   1.0000   1.0000   1.0000   1.0000   1.0000
     1.0000   1.0000   1.0000   1.0000   1.0000   1.0000   1.0000   1.0000
     1.0000   1.0000   1.0000   1.0000   1.0000   1.0000  -0.0000  -0.0000
    -0.0000  -0.0000  -0.0000  -0.0000  -0.0000  -0.0000  -0.0000  -0.0000
    -0.0000  -0.0000  -0.0000  -0.0000  -0.0000  -0.0000  -0.0000  -0.0000
    -0.0000  -0.0000  -0.0000  -0.0000  -0.0000  -0.0000  -0.0000  -0.0000
    -0.0000  -0.0000  -0.0000  -0.0000  -0.0000  -0.0000  -0.0000  -0.0000
    -0.0000  -0.0000  -0.0000  -0.0000  -0.0000  -0.0000  -0.0000  -0.0000
    -0.0000  -0.0000  -0.0000  -0.0000

          k = 0.0014-0.8203-0.0212 ( 11897 PWs)   bands (ev):

   -28.7944 -28.7944 -28.7934 -28.7934 -28.7905 -28.7905 -28.7901 -28.7901
   -28.5549 -28.5549 -28.5258 -28.5258 -27.3295 -27.3295 -27.3290 -27.3290
   -27.3277 -27.3277 -27.3264 -27.3264 -27.3241 -27.3241 -27.3238 -27.3238
   -27.0916 -27.0916 -27.0799 -27.0799 -27.0538 -27.0538 -15.8355 -15.8355
   -15.8349 -15.8349 -15.8277 -15.8277 -15.8271 -15.8271 -12.8555 -12.8555
   -12.8538 -12.8538 -12.8467 -12.8467 -12.8463 -12.8462 -12.8393 -12.8393
   -12.8383 -12.8383  -3.5405  -3.5405  -3.0707  -3.0707  -1.9774  -1.9774
    -0.7274  -0.7274  -0.3040  -0.3040   4.6983   4.6983   5.0674   5.0674
     5.3065   5.3065   5.7882   5.7882   6.4361   6.4361   6.6351   6.6351
     7.4676   7.4676   8.0769   8.0769   8.1836   8.1836   9.4658   9.4658
     9.7496   9.7497  10.5984  10.5984  11.4781  11.4781  12.0616  12.0616
    12.4593  12.4593  13.2274  13.2274  13.3250  13.3250  14.7813  14.7813
    15.3005  15.3005  16.2031  16.2031  16.3479  16.3479  16.4807  16.4807
    16.9649  16.9649  17.2266  17.2266  17.4272  17.4272  18.1219  18.1219
    18.7522  18.7522  19.1214  19.1214  19.5838  19.5838  20.1692  20.1692
    20.4436  20.4436  20.8013  20.8014

     occupation numbers 
     1.0000   1.0000   1.0000   1.0000   1.0000   1.0000   1.0000   1.0000
     1.0000   1.0000   1.0000   1.0000   1.0000   1.0000   1.0000   1.0000
     1.0000   1.0000   1.0000   1.0000   1.0000   1.0000   1.0000   1.0000
     1.0000   1.0000   1.0000   1.0000   1.0000   1.0000   1.0000   1.0000
     1.0000   1.0000   1.0000   1.0000   1.0000   1.0000   1.0000   1.0000
     1.0000   1.0000   1.0000   1.0000   1.0000   1.0000   1.0000   1.0000
     1.0000   1.0000   1.0000   1.0000   1.0000   1.0000   1.0000   1.0000
     1.0000   1.0000   1.0000   1.0000   1.0000   1.0000   1.0000   1.0000
     1.0000   1.0000   1.0000   1.0000   1.0000   1.0000   1.0000   1.0000
     1.0000   1.0000   1.0000   1.0000   1.0000   1.0000  -0.0000  -0.0000
    -0.0000  -0.0000  -0.0000  -0.0000  -0.0000  -0.0000  -0.0000  -0.0000
    -0.0000  -0.0000  -0.0000  -0.0000  -0.0000  -0.0000  -0.0000  -0.0000
    -0.0000  -0.0000  -0.0000  -0.0000  -0.0000  -0.0000  -0.0000  -0.0000
    -0.0000  -0.0000  -0.0000  -0.0000  -0.0000  -0.0000  -0.0000  -0.0000
    -0.0000  -0.0000  -0.0000  -0.0000  -0.0000  -0.0000  -0.0000  -0.0000
    -0.0000  -0.0000  -0.0000  -0.0000

          k = 0.0005-0.4102 0.2228 ( 11897 PWs)   bands (ev):

   -28.7945 -28.7945 -28.7933 -28.7933 -28.7907 -28.7907 -28.7901 -28.7901
   -28.5549 -28.5549 -28.5259 -28.5259 -27.3295 -27.3295 -27.3290 -27.3290
   -27.3280 -27.3280 -27.3263 -27.3263 -27.3243 -27.3243 -27.3240 -27.3240
   -27.0916 -27.0916 -27.0798 -27.0798 -27.0540 -27.0540 -15.8361 -15.8361
   -15.8359 -15.8359 -15.8275 -15.8275 -15.8269 -15.8269 -12.8561 -12.8561
   -12.8549 -12.8549 -12.8455 -12.8455 -12.8454 -12.8453 -12.8406 -12.8406
   -12.8394 -12.8394  -3.9958  -3.9958  -3.4100  -3.4100  -2.2382  -2.2382
    -0.3222  -0.3222   0.2045   0.2045   5.3765   5.3765   5.4700   5.4700
     6.0625   6.0625   6.6613   6.6613   6.7609   6.7610   7.3505   7.3505
     7.7322   7.7322   8.0005   8.0005   8.2070   8.2070   9.1954   9.1954
     9.6226   9.6226  10.5580  10.5580  10.7661  10.7661  11.2746  11.2746
    11.7028  11.7028  13.1276  13.1276  13.9290  13.9290  14.9830  14.9830
    15.0790  15.0790  15.5270  15.5270  15.6446  15.6446  15.8586  15.8586
    16.2942  16.2942  17.0596  17.0596  17.1659  17.1659  17.6795  17.6795
    17.8972  17.8972  18.0848  18.0848  18.1386  18.1386  18.7463  18.7463
    18.8497  18.8497  19.2513  19.2513

     occupation numbers 
     1.0000   1.0000   1.0000   1.0000   1.0000   1.0000   1.0000   1.0000
     1.0000   1.0000   1.0000   1.0000   1.0000   1.0000   1.0000   1.0000
     1.0000   1.0000   1.0000   1.0000   1.0000   1.0000   1.0000   1.0000
     1.0000   1.0000   1.0000   1.0000   1.0000   1.0000   1.0000   1.0000
     1.0000   1.0000   1.0000   1.0000   1.0000   1.0000   1.0000   1.0000
     1.0000   1.0000   1.0000   1.0000   1.0000   1.0000   1.0000   1.0000
     1.0000   1.0000   1.0000   1.0000   1.0000   1.0000   1.0000   1.0000
     1.0000   1.0000   1.0000   1.0000   1.0000   1.0000   1.0000   1.0000
     1.0000   1.0000   1.0000   1.0000   1.0000   1.0000   1.0000   1.0000
     1.0000   1.0000   1.0000   1.0000   1.0001   1.0001  -0.0000  -0.0000
    -0.0000  -0.0000  -0.0000  -0.0000  -0.0000  -0.0000  -0.0000  -0.0000
    -0.0000  -0.0000  -0.0000  -0.0000  -0.0000  -0.0000  -0.0000  -0.0000
    -0.0000  -0.0000  -0.0000  -0.0000  -0.0000  -0.0000  -0.0000  -0.0000
    -0.0000  -0.0000  -0.0000  -0.0000  -0.0000  -0.0000  -0.0000  -0.0000
    -0.0000  -0.0000  -0.0000  -0.0000  -0.0000  -0.0000  -0.0000  -0.0000
    -0.0000  -0.0000  -0.0000  -0.0000

          k = 0.0000-0.4103 0.6896 ( 11899 PWs)   bands (ev):

   -28.7944 -28.7944 -28.7934 -28.7934 -28.7905 -28.7905 -28.7901 -28.7901
   -28.5549 -28.5549 -28.5258 -28.5258 -27.3295 -27.3294 -27.3290 -27.3290
   -27.3277 -27.3277 -27.3265 -27.3265 -27.3241 -27.3241 -27.3238 -27.3238
   -27.0916 -27.0916 -27.0799 -27.0799 -27.0538 -27.0538 -15.8355 -15.8355
   -15.8349 -15.8349 -15.8277 -15.8277 -15.8271 -15.8271 -12.8555 -12.8555
   -12.8538 -12.8538 -12.8467 -12.8467 -12.8463 -12.8462 -12.8393 -12.8393
   -12.8383 -12.8383  -3.5594  -3.5594  -3.0235  -3.0235  -2.0365  -2.0365
    -0.6413  -0.6413  -0.3591  -0.3591   4.7694   4.7694   5.0392   5.0392
     5.3449   5.3449   5.6756   5.6756   6.4353   6.4353   6.5089   6.5089
     7.6420   7.6420   8.1375   8.1375   8.2652   8.2652   9.3453   9.3453
     9.7224   9.7224  10.4126  10.4126  11.5262  11.5262  12.1754  12.1754
    12.5398  12.5398  13.1657  13.1657  13.2935  13.2935  15.3236  15.3236
    15.6279  15.6279  15.9351  15.9351  15.9980  15.9980  16.2106  16.2106
    16.8101  16.8101  17.0045  17.0045  17.4036  17.4036  17.8390  17.8390
    19.0239  19.0239  19.5518  19.5518  19.7564  19.7564  20.2034  20.2034
    20.4638  20.4638  20.6486  20.6486

     occupation numbers 
     1.0000   1.0000   1.0000   1.0000   1.0000   1.0000   1.0000   1.0000
     1.0000   1.0000   1.0000   1.0000   1.0000   1.0000   1.0000   1.0000
     1.0000   1.0000   1.0000   1.0000   1.0000   1.0000   1.0000   1.0000
     1.0000   1.0000   1.0000   1.0000   1.0000   1.0000   1.0000   1.0000
     1.0000   1.0000   1.0000   1.0000   1.0000   1.0000   1.0000   1.0000
     1.0000   1.0000   1.0000   1.0000   1.0000   1.0000   1.0000   1.0000
     1.0000   1.0000   1.0000   1.0000   1.0000   1.0000   1.0000   1.0000
     1.0000   1.0000   1.0000   1.0000   1.0000   1.0000   1.0000   1.0000
     1.0000   1.0000   1.0000   1.0000   1.0000   1.0000   1.0000   1.0000
     1.0000   1.0000   1.0000   1.0000   1.0010   1.0010  -0.0000  -0.0000
    -0.0000  -0.0000  -0.0000  -0.0000  -0.0000  -0.0000  -0.0000  -0.0000
    -0.0000  -0.0000  -0.0000  -0.0000  -0.0000  -0.0000  -0.0000  -0.0000
    -0.0000  -0.0000  -0.0000  -0.0000  -0.0000  -0.0000  -0.0000  -0.0000
    -0.0000  -0.0000  -0.0000  -0.0000  -0.0000  -0.0000  -0.0000  -0.0000
    -0.0000  -0.0000  -0.0000  -0.0000  -0.0000  -0.0000  -0.0000  -0.0000
    -0.0000  -0.0000  -0.0000  -0.0000

          k =-0.0005-0.4104 1.1563 ( 11920 PWs)   bands (ev):

   -28.7941 -28.7941 -28.7936 -28.7936 -28.7903 -28.7903 -28.7901 -28.7901
   -28.5548 -28.5548 -28.5257 -28.5257 -27.3295 -27.3295 -27.3288 -27.3288
   -27.3275 -27.3275 -27.3266 -27.3266 -27.3238 -27.3238 -27.3237 -27.3237
   -27.0915 -27.0915 -27.0799 -27.0799 -27.0536 -27.0536 -15.8350 -15.8350
   -15.8339 -15.8339 -15.8278 -15.8278 -15.8273 -15.8273 -12.8553 -12.8553
   -12.8536 -12.8535 -12.8474 -12.8474 -12.8466 -12.8466 -12.8379 -12.8379
   -12.8370 -12.8370  -2.7551  -2.7551  -2.4656  -2.4656  -1.8255  -1.8255
    -1.4435  -1.4435  -1.0218  -1.0218   3.9448   3.9448   4.6863   4.6863
     5.0140   5.0140   5.5492   5.5492   6.1187   6.1187   6.3547   6.3547
     6.7908   6.7908   7.4961   7.4961   7.6660   7.6660  10.0764  10.0764
    10.3126  10.3126  11.2037  11.2037  11.6866  11.6866  12.1322  12.1322
    12.4755  12.4755  12.8839  12.8839  14.0514  14.0514  14.7639  14.7639
    16.1735  16.1735  16.7718  16.7718  17.1330  17.1330  17.3179  17.3179
    17.8477  17.8477  18.1124  18.1124  18.6530  18.6530  19.0934  19.0934
    19.3064  19.3064  19.7276  19.7276  20.0042  20.0042  20.2206  20.2206
    20.6043  20.6043  21.0207  21.0207

     occupation numbers 
     1.0000   1.0000   1.0000   1.0000   1.0000   1.0000   1.0000   1.0000
     1.0000   1.0000   1.0000   1.0000   1.0000   1.0000   1.0000   1.0000
     1.0000   1.0000   1.0000   1.0000   1.0000   1.0000   1.0000   1.0000
     1.0000   1.0000   1.0000   1.0000   1.0000   1.0000   1.0000   1.0000
     1.0000   1.0000   1.0000   1.0000   1.0000   1.0000   1.0000   1.0000
     1.0000   1.0000   1.0000   1.0000   1.0000   1.0000   1.0000   1.0000
     1.0000   1.0000   1.0000   1.0000   1.0000   1.0000   1.0000   1.0000
     1.0000   1.0000   1.0000   1.0000   1.0000   1.0000   1.0000   1.0000
     1.0000   1.0000   1.0000   1.0000   1.0000   1.0000   1.0000   1.0000
     1.0000   1.0000   1.0000   1.0000   1.0000   1.0000  -0.0000  -0.0000
    -0.0000  -0.0000  -0.0000  -0.0000  -0.0000  -0.0000  -0.0000  -0.0000
    -0.0000  -0.0000  -0.0000  -0.0000  -0.0000  -0.0000  -0.0000  -0.0000
    -0.0000  -0.0000  -0.0000  -0.0000  -0.0000  -0.0000  -0.0000  -0.0000
    -0.0000  -0.0000  -0.0000  -0.0000  -0.0000  -0.0000  -0.0000  -0.0000
    -0.0000  -0.0000  -0.0000  -0.0000  -0.0000  -0.0000  -0.0000  -0.0000
    -0.0000  -0.0000  -0.0000  -0.0000

          k = 0.0018-0.4099-1.1776 ( 11914 PWs)   bands (ev):

   -28.7941 -28.7941 -28.7936 -28.7936 -28.7903 -28.7903 -28.7901 -28.7901
   -28.5548 -28.5548 -28.5257 -28.5257 -27.3295 -27.3295 -27.3288 -27.3288
   -27.3275 -27.3275 -27.3266 -27.3266 -27.3238 -27.3238 -27.3237 -27.3237
   -27.0915 -27.0915 -27.0799 -27.0799 -27.0536 -27.0536 -15.8350 -15.8350
   -15.8339 -15.8339 -15.8278 -15.8278 -15.8273 -15.8273 -12.8553 -12.8553
   -12.8536 -12.8535 -12.8474 -12.8474 -12.8466 -12.8466 -12.8379 -12.8379
   -12.8370 -12.8370  -2.7220  -2.7220  -2.5211  -2.5211  -1.8036  -1.8036
    -1.4228  -1.4228  -1.0421  -1.0421   4.0308   4.0308   4.6405   4.6405
     4.9697   4.9697   5.2635   5.2635   6.2409   6.2409   6.6707   6.6707
     6.9977   6.9977   7.2552   7.2552   7.5478   7.5478  10.1563  10.1563
    10.4322  10.4322  10.9914  10.9914  11.4532  11.4532  12.0863  12.0863
    12.7548  12.7548  13.0942  13.0942  13.6315  13.6315  14.7597  14.7597
    16.6704  16.6704  16.7222  16.7222  17.1314  17.1314  17.7739  17.7739
    17.9589  17.9589  18.1976  18.1976  18.3619  18.3619  18.9656  18.9656
    19.3167  19.3167  19.3960  19.3960  19.6953  19.6953  19.9037  19.9037
    20.5195  20.5195  21.1759  21.1760

     occupation numbers 
     1.0000   1.0000   1.0000   1.0000   1.0000   1.0000   1.0000   1.0000
     1.0000   1.0000   1.0000   1.0000   1.0000   1.0000   1.0000   1.0000
     1.0000   1.0000   1.0000   1.0000   1.0000   1.0000   1.0000   1.0000
     1.0000   1.0000   1.0000   1.0000   1.0000   1.0000   1.0000   1.0000
     1.0000   1.0000   1.0000   1.0000   1.0000   1.0000   1.0000   1.0000
     1.0000   1.0000   1.0000   1.0000   1.0000   1.0000   1.0000   1.0000
     1.0000   1.0000   1.0000   1.0000   1.0000   1.0000   1.0000   1.0000
     1.0000   1.0000   1.0000   1.0000   1.0000   1.0000   1.0000   1.0000
     1.0000   1.0000   1.0000   1.0000   1.0000   1.0000   1.0000   1.0000
     1.0000   1.0000   1.0000   1.0000   1.0000   1.0000  -0.0000  -0.0000
    -0.0000  -0.0000  -0.0000  -0.0000  -0.0000  -0.0000  -0.0000  -0.0000
    -0.0000  -0.0000  -0.0000  -0.0000  -0.0000  -0.0000  -0.0000  -0.0000
    -0.0000  -0.0000  -0.0000  -0.0000  -0.0000  -0.0000  -0.0000  -0.0000
    -0.0000  -0.0000  -0.0000  -0.0000  -0.0000  -0.0000  -0.0000  -0.0000
    -0.0000  -0.0000  -0.0000  -0.0000  -0.0000  -0.0000  -0.0000  -0.0000
    -0.0000  -0.0000  -0.0000  -0.0000

          k = 0.0014-0.4100-0.7108 ( 11897 PWs)   bands (ev):

   -28.7944 -28.7944 -28.7934 -28.7934 -28.7905 -28.7905 -28.7901 -28.7901
   -28.5549 -28.5549 -28.5258 -28.5258 -27.3295 -27.3295 -27.3290 -27.3290
   -27.3277 -27.3277 -27.3264 -27.3264 -27.3241 -27.3241 -27.3238 -27.3238
   -27.0916 -27.0916 -27.0799 -27.0799 -27.0538 -27.0538 -15.8355 -15.8355
   -15.8349 -15.8349 -15.8277 -15.8277 -15.8271 -15.8271 -12.8555 -12.8555
   -12.8538 -12.8538 -12.8467 -12.8467 -12.8463 -12.8462 -12.8393 -12.8393
   -12.8383 -12.8383  -3.5405  -3.5405  -3.0707  -3.0707  -1.9774  -1.9774
    -0.7274  -0.7274  -0.3040  -0.3040   4.6983   4.6983   5.0674   5.0674
     5.3065   5.3065   5.7882   5.7882   6.4361   6.4361   6.6351   6.6351
     7.4676   7.4676   8.0769   8.0769   8.1836   8.1836   9.4658   9.4658
     9.7496   9.7497  10.5984  10.5984  11.4781  11.4781  12.0616  12.0616
    12.4593  12.4593  13.2274  13.2274  13.3250  13.3250  14.7813  14.7813
    15.3005  15.3005  16.2031  16.2031  16.3479  16.3479  16.4807  16.4807
    16.9649  16.9649  17.2266  17.2266  17.4272  17.4272  18.1219  18.1219
    18.7522  18.7522  19.1214  19.1214  19.5838  19.5838  20.1692  20.1692
    20.4436  20.4436  20.8013  20.8014

     occupation numbers 
     1.0000   1.0000   1.0000   1.0000   1.0000   1.0000   1.0000   1.0000
     1.0000   1.0000   1.0000   1.0000   1.0000   1.0000   1.0000   1.0000
     1.0000   1.0000   1.0000   1.0000   1.0000   1.0000   1.0000   1.0000
     1.0000   1.0000   1.0000   1.0000   1.0000   1.0000   1.0000   1.0000
     1.0000   1.0000   1.0000   1.0000   1.0000   1.0000   1.0000   1.0000
     1.0000   1.0000   1.0000   1.0000   1.0000   1.0000   1.0000   1.0000
     1.0000   1.0000   1.0000   1.0000   1.0000   1.0000   1.0000   1.0000
     1.0000   1.0000   1.0000   1.0000   1.0000   1.0000   1.0000   1.0000
     1.0000   1.0000   1.0000   1.0000   1.0000   1.0000   1.0000   1.0000
     1.0000   1.0000   1.0000   1.0000   1.0000   1.0000  -0.0000  -0.0000
    -0.0000  -0.0000  -0.0000  -0.0000  -0.0000  -0.0000  -0.0000  -0.0000
    -0.0000  -0.0000  -0.0000  -0.0000  -0.0000  -0.0000  -0.0000  -0.0000
    -0.0000  -0.0000  -0.0000  -0.0000  -0.0000  -0.0000  -0.0000  -0.0000
    -0.0000  -0.0000  -0.0000  -0.0000  -0.0000  -0.0000  -0.0000  -0.0000
    -0.0000  -0.0000  -0.0000  -0.0000  -0.0000  -0.0000  -0.0000  -0.0000
    -0.0000  -0.0000  -0.0000  -0.0000

          k = 0.0009-0.4101-0.2440 ( 11889 PWs)   bands (ev):

   -28.7945 -28.7945 -28.7932 -28.7932 -28.7907 -28.7907 -28.7901 -28.7901
   -28.5549 -28.5549 -28.5259 -28.5259 -27.3295 -27.3295 -27.3290 -27.3290
   -27.3280 -27.3280 -27.3263 -27.3263 -27.3243 -27.3243 -27.3240 -27.3240
   -27.0916 -27.0916 -27.0798 -27.0798 -27.0540 -27.0540 -15.8361 -15.8361
   -15.8359 -15.8359 -15.8275 -15.8275 -15.8269 -15.8269 -12.8561 -12.8561
   -12.8549 -12.8549 -12.8455 -12.8455 -12.8454 -12.8453 -12.8406 -12.8406
   -12.8394 -12.8394  -3.9897  -3.9897  -3.4254  -3.4254  -2.2199  -2.2199
    -0.3377  -0.3377   0.2066   0.2066   5.3351   5.3351   5.6046   5.6046
     5.9751   5.9751   6.6487   6.6487   6.8496   6.8496   7.2791   7.2791
     7.7540   7.7540   7.9345   7.9345   8.1877   8.1877   9.3304   9.3304
     9.4735   9.4735  10.4847  10.4847  10.7642  10.7642  11.4263  11.4263
    11.8025  11.8025  13.2342  13.2342  13.8670  13.8670  14.8532  14.8532
    14.9305  14.9305  15.5200  15.5200  15.8760  15.8760  16.1348  16.1348
    16.1663  16.1663  16.7457  16.7457  16.8444  16.8444  17.2669  17.2669
    17.4561  17.4561  18.2451  18.2451  18.6619  18.6619  18.7628  18.7628
    19.3871  19.3871  19.7215  19.7216

     occupation numbers 
     1.0000   1.0000   1.0000   1.0000   1.0000   1.0000   1.0000   1.0000
     1.0000   1.0000   1.0000   1.0000   1.0000   1.0000   1.0000   1.0000
     1.0000   1.0000   1.0000   1.0000   1.0000   1.0000   1.0000   1.0000
     1.0000   1.0000   1.0000   1.0000   1.0000   1.0000   1.0000   1.0000
     1.0000   1.0000   1.0000   1.0000   1.0000   1.0000   1.0000   1.0000
     1.0000   1.0000   1.0000   1.0000   1.0000   1.0000   1.0000   1.0000
     1.0000   1.0000   1.0000   1.0000   1.0000   1.0000   1.0000   1.0000
     1.0000   1.0000   1.0000   1.0000   1.0000   1.0000   1.0000   1.0000
     1.0000   1.0000   1.0000   1.0000   1.0000   1.0000   1.0000   1.0000
     1.0000   1.0000   1.0000   1.0000   1.0001   1.0001  -0.0000  -0.0000
    -0.0000  -0.0000  -0.0000  -0.0000  -0.0000  -0.0000  -0.0000  -0.0000
    -0.0000  -0.0000  -0.0000  -0.0000  -0.0000  -0.0000  -0.0000  -0.0000
    -0.0000  -0.0000  -0.0000  -0.0000  -0.0000  -0.0000  -0.0000  -0.0000
    -0.0000  -0.0000  -0.0000  -0.0000  -0.0000  -0.0000  -0.0000  -0.0000
    -0.0000  -0.0000  -0.0000  -0.0000  -0.0000  -0.0000  -0.0000  -0.0000
    -0.0000  -0.0000  -0.0000  -0.0000

          k = 0.1675-0.3744-0.2228 ( 11897 PWs)   bands (ev):

   -28.7945 -28.7945 -28.7933 -28.7933 -28.7907 -28.7907 -28.7901 -28.7901
   -28.5549 -28.5549 -28.5259 -28.5259 -27.3295 -27.3295 -27.3290 -27.3290
   -27.3280 -27.3280 -27.3263 -27.3263 -27.3243 -27.3243 -27.3240 -27.3240
   -27.0916 -27.0916 -27.0798 -27.0798 -27.0540 -27.0540 -15.8361 -15.8361
   -15.8359 -15.8359 -15.8275 -15.8275 -15.8269 -15.8269 -12.8561 -12.8561
   -12.8549 -12.8549 -12.8455 -12.8455 -12.8454 -12.8453 -12.8406 -12.8406
   -12.8394 -12.8394  -3.9958  -3.9958  -3.4100  -3.4100  -2.2382  -2.2382
    -0.3222  -0.3222   0.2045   0.2045   5.3765   5.3765   5.4700   5.4700
     6.0625   6.0625   6.6613   6.6613   6.7609   6.7610   7.3505   7.3505
     7.7322   7.7322   8.0005   8.0005   8.2070   8.2070   9.1954   9.1954
     9.6226   9.6226  10.5580  10.5580  10.7661  10.7661  11.2746  11.2746
    11.7028  11.7028  13.1276  13.1276  13.9290  13.9290  14.9830  14.9830
    15.0790  15.0790  15.5270  15.5270  15.6446  15.6446  15.8586  15.8586
    16.2942  16.2942  17.0596  17.0596  17.1659  17.1659  17.6795  17.6795
    17.8972  17.8972  18.0848  18.0848  18.1386  18.1386  18.7463  18.7463
    18.8497  18.8497  19.2513  19.2513

     occupation numbers 
     1.0000   1.0000   1.0000   1.0000   1.0000   1.0000   1.0000   1.0000
     1.0000   1.0000   1.0000   1.0000   1.0000   1.0000   1.0000   1.0000
     1.0000   1.0000   1.0000   1.0000   1.0000   1.0000   1.0000   1.0000
     1.0000   1.0000   1.0000   1.0000   1.0000   1.0000   1.0000   1.0000
     1.0000   1.0000   1.0000   1.0000   1.0000   1.0000   1.0000   1.0000
     1.0000   1.0000   1.0000   1.0000   1.0000   1.0000   1.0000   1.0000
     1.0000   1.0000   1.0000   1.0000   1.0000   1.0000   1.0000   1.0000
     1.0000   1.0000   1.0000   1.0000   1.0000   1.0000   1.0000   1.0000
     1.0000   1.0000   1.0000   1.0000   1.0000   1.0000   1.0000   1.0000
     1.0000   1.0000   1.0000   1.0000   1.0001   1.0001  -0.0000  -0.0000
    -0.0000  -0.0000  -0.0000  -0.0000  -0.0000  -0.0000  -0.0000  -0.0000
    -0.0000  -0.0000  -0.0000  -0.0000  -0.0000  -0.0000  -0.0000  -0.0000
    -0.0000  -0.0000  -0.0000  -0.0000  -0.0000  -0.0000  -0.0000  -0.0000
    -0.0000  -0.0000  -0.0000  -0.0000  -0.0000  -0.0000  -0.0000  -0.0000
    -0.0000  -0.0000  -0.0000  -0.0000  -0.0000  -0.0000  -0.0000  -0.0000
    -0.0000  -0.0000  -0.0000  -0.0000

          k = 0.1670-0.3745 0.2440 ( 11889 PWs)   bands (ev):

   -28.7945 -28.7945 -28.7932 -28.7932 -28.7907 -28.7907 -28.7901 -28.7901
   -28.5549 -28.5549 -28.5259 -28.5259 -27.3295 -27.3295 -27.3290 -27.3290
   -27.3280 -27.3280 -27.3263 -27.3263 -27.3243 -27.3243 -27.3240 -27.3240
   -27.0916 -27.0916 -27.0798 -27.0798 -27.0540 -27.0540 -15.8361 -15.8361
   -15.8359 -15.8359 -15.8275 -15.8275 -15.8269 -15.8269 -12.8561 -12.8561
   -12.8549 -12.8549 -12.8455 -12.8455 -12.8454 -12.8453 -12.8406 -12.8406
   -12.8394 -12.8394  -3.9897  -3.9897  -3.4254  -3.4254  -2.2199  -2.2199
    -0.3377  -0.3377   0.2066   0.2066   5.3351   5.3351   5.6046   5.6046
     5.9751   5.9751   6.6487   6.6487   6.8496   6.8496   7.2791   7.2791
     7.7540   7.7540   7.9345   7.9345   8.1877   8.1877   9.3304   9.3304
     9.4735   9.4735  10.4847  10.4847  10.7642  10.7642  11.4263  11.4263
    11.8025  11.8025  13.2342  13.2342  13.8670  13.8670  14.8532  14.8532
    14.9305  14.9305  15.5200  15.5200  15.8760  15.8760  16.1348  16.1348
    16.1663  16.1663  16.7457  16.7457  16.8444  16.8444  17.2669  17.2669
    17.4561  17.4561  18.2451  18.2451  18.6619  18.6619  18.7628  18.7628
    19.3871  19.3871  19.7215  19.7216

     occupation numbers 
     1.0000   1.0000   1.0000   1.0000   1.0000   1.0000   1.0000   1.0000
     1.0000   1.0000   1.0000   1.0000   1.0000   1.0000   1.0000   1.0000
     1.0000   1.0000   1.0000   1.0000   1.0000   1.0000   1.0000   1.0000
     1.0000   1.0000   1.0000   1.0000   1.0000   1.0000   1.0000   1.0000
     1.0000   1.0000   1.0000   1.0000   1.0000   1.0000   1.0000   1.0000
     1.0000   1.0000   1.0000   1.0000   1.0000   1.0000   1.0000   1.0000
     1.0000   1.0000   1.0000   1.0000   1.0000   1.0000   1.0000   1.0000
     1.0000   1.0000   1.0000   1.0000   1.0000   1.0000   1.0000   1.0000
     1.0000   1.0000   1.0000   1.0000   1.0000   1.0000   1.0000   1.0000
     1.0000   1.0000   1.0000   1.0000   1.0001   1.0001  -0.0000  -0.0000
    -0.0000  -0.0000  -0.0000  -0.0000  -0.0000  -0.0000  -0.0000  -0.0000
    -0.0000  -0.0000  -0.0000  -0.0000  -0.0000  -0.0000  -0.0000  -0.0000
    -0.0000  -0.0000  -0.0000  -0.0000  -0.0000  -0.0000  -0.0000  -0.0000
    -0.0000  -0.0000  -0.0000  -0.0000  -0.0000  -0.0000  -0.0000  -0.0000
    -0.0000  -0.0000  -0.0000  -0.0000  -0.0000  -0.0000  -0.0000  -0.0000
    -0.0000  -0.0000  -0.0000  -0.0000

          k = 0.1666-0.3746 0.7108 ( 11897 PWs)   bands (ev):

   -28.7944 -28.7944 -28.7934 -28.7934 -28.7905 -28.7905 -28.7901 -28.7901
   -28.5549 -28.5549 -28.5258 -28.5258 -27.3295 -27.3295 -27.3290 -27.3290
   -27.3277 -27.3277 -27.3264 -27.3264 -27.3241 -27.3241 -27.3238 -27.3238
   -27.0916 -27.0916 -27.0799 -27.0799 -27.0538 -27.0538 -15.8355 -15.8355
   -15.8349 -15.8349 -15.8277 -15.8277 -15.8271 -15.8271 -12.8555 -12.8555
   -12.8538 -12.8538 -12.8467 -12.8467 -12.8463 -12.8462 -12.8393 -12.8393
   -12.8383 -12.8383  -3.5405  -3.5405  -3.0707  -3.0707  -1.9774  -1.9774
    -0.7274  -0.7274  -0.3040  -0.3040   4.6983   4.6983   5.0674   5.0674
     5.3065   5.3065   5.7882   5.7882   6.4361   6.4361   6.6351   6.6351
     7.4676   7.4676   8.0769   8.0769   8.1836   8.1836   9.4658   9.4658
     9.7496   9.7497  10.5984  10.5984  11.4781  11.4781  12.0616  12.0616
    12.4593  12.4593  13.2274  13.2274  13.3250  13.3250  14.7813  14.7813
    15.3005  15.3005  16.2031  16.2031  16.3479  16.3479  16.4807  16.4807
    16.9649  16.9649  17.2266  17.2266  17.4272  17.4272  18.1219  18.1219
    18.7522  18.7522  19.1214  19.1214  19.5838  19.5838  20.1692  20.1692
    20.4436  20.4436  20.8013  20.8014

     occupation numbers 
     1.0000   1.0000   1.0000   1.0000   1.0000   1.0000   1.0000   1.0000
     1.0000   1.0000   1.0000   1.0000   1.0000   1.0000   1.0000   1.0000
     1.0000   1.0000   1.0000   1.0000   1.0000   1.0000   1.0000   1.0000
     1.0000   1.0000   1.0000   1.0000   1.0000   1.0000   1.0000   1.0000
     1.0000   1.0000   1.0000   1.0000   1.0000   1.0000   1.0000   1.0000
     1.0000   1.0000   1.0000   1.0000   1.0000   1.0000   1.0000   1.0000
     1.0000   1.0000   1.0000   1.0000   1.0000   1.0000   1.0000   1.0000
     1.0000   1.0000   1.0000   1.0000   1.0000   1.0000   1.0000   1.0000
     1.0000   1.0000   1.0000   1.0000   1.0000   1.0000   1.0000   1.0000
     1.0000   1.0000   1.0000   1.0000   1.0000   1.0000  -0.0000  -0.0000
    -0.0000  -0.0000  -0.0000  -0.0000  -0.0000  -0.0000  -0.0000  -0.0000
    -0.0000  -0.0000  -0.0000  -0.0000  -0.0000  -0.0000  -0.0000  -0.0000
    -0.0000  -0.0000  -0.0000  -0.0000  -0.0000  -0.0000  -0.0000  -0.0000
    -0.0000  -0.0000  -0.0000  -0.0000  -0.0000  -0.0000  -0.0000  -0.0000
    -0.0000  -0.0000  -0.0000  -0.0000  -0.0000  -0.0000  -0.0000  -0.0000
    -0.0000  -0.0000  -0.0000  -0.0000

          k = 0.1689-0.3741-1.6231 ( 11914 PWs)   bands (ev):

   -28.7941 -28.7941 -28.7936 -28.7936 -28.7903 -28.7903 -28.7901 -28.7901
   -28.5548 -28.5548 -28.5257 -28.5257 -27.3295 -27.3295 -27.3288 -27.3288
   -27.3275 -27.3275 -27.3266 -27.3266 -27.3238 -27.3238 -27.3237 -27.3237
   -27.0915 -27.0915 -27.0799 -27.0799 -27.0536 -27.0536 -15.8350 -15.8350
   -15.8339 -15.8339 -15.8278 -15.8278 -15.8273 -15.8273 -12.8553 -12.8553
   -12.8536 -12.8535 -12.8474 -12.8474 -12.8466 -12.8466 -12.8379 -12.8379
   -12.8370 -12.8370  -2.7220  -2.7220  -2.5211  -2.5211  -1.8036  -1.8036
    -1.4228  -1.4228  -1.0421  -1.0421   4.0308   4.0308   4.6405   4.6405
     4.9697   4.9697   5.2635   5.2635   6.2409   6.2409   6.6707   6.6707
     6.9977   6.9977   7.2552   7.2552   7.5478   7.5478  10.1563  10.1563
    10.4322  10.4322  10.9914  10.9914  11.4532  11.4532  12.0863  12.0863
    12.7548  12.7548  13.0942  13.0942  13.6315  13.6315  14.7597  14.7597
    16.6704  16.6705  16.7222  16.7222  17.1314  17.1314  17.7739  17.7739
    17.9589  17.9589  18.1976  18.1976  18.3619  18.3619  18.9656  18.9656
    19.3167  19.3167  19.3960  19.3960  19.6953  19.6953  19.9037  19.9037
    20.5195  20.5195  21.1759  21.1760

     occupation numbers 
     1.0000   1.0000   1.0000   1.0000   1.0000   1.0000   1.0000   1.0000
     1.0000   1.0000   1.0000   1.0000   1.0000   1.0000   1.0000   1.0000
     1.0000   1.0000   1.0000   1.0000   1.0000   1.0000   1.0000   1.0000
     1.0000   1.0000   1.0000   1.0000   1.0000   1.0000   1.0000   1.0000
     1.0000   1.0000   1.0000   1.0000   1.0000   1.0000   1.0000   1.0000
     1.0000   1.0000   1.0000   1.0000   1.0000   1.0000   1.0000   1.0000
     1.0000   1.0000   1.0000   1.0000   1.0000   1.0000   1.0000   1.0000
     1.0000   1.0000   1.0000   1.0000   1.0000   1.0000   1.0000   1.0000
     1.0000   1.0000   1.0000   1.0000   1.0000   1.0000   1.0000   1.0000
     1.0000   1.0000   1.0000   1.0000   1.0000   1.0000  -0.0000  -0.0000
    -0.0000  -0.0000  -0.0000  -0.0000  -0.0000  -0.0000  -0.0000  -0.0000
    -0.0000  -0.0000  -0.0000  -0.0000  -0.0000  -0.0000  -0.0000  -0.0000
    -0.0000  -0.0000  -0.0000  -0.0000  -0.0000  -0.0000  -0.0000  -0.0000
    -0.0000  -0.0000  -0.0000  -0.0000  -0.0000  -0.0000  -0.0000  -0.0000
    -0.0000  -0.0000  -0.0000  -0.0000  -0.0000  -0.0000  -0.0000  -0.0000
    -0.0000  -0.0000  -0.0000  -0.0000

          k = 0.1684-0.3742-1.1563 ( 11920 PWs)   bands (ev):

   -28.7941 -28.7941 -28.7936 -28.7936 -28.7903 -28.7903 -28.7901 -28.7901
   -28.5548 -28.5548 -28.5257 -28.5257 -27.3295 -27.3295 -27.3288 -27.3288
   -27.3275 -27.3275 -27.3266 -27.3266 -27.3238 -27.3238 -27.3237 -27.3237
   -27.0915 -27.0915 -27.0799 -27.0799 -27.0536 -27.0536 -15.8350 -15.8350
   -15.8339 -15.8339 -15.8278 -15.8278 -15.8273 -15.8273 -12.8553 -12.8553
   -12.8536 -12.8535 -12.8474 -12.8474 -12.8466 -12.8466 -12.8379 -12.8379
   -12.8370 -12.8370  -2.7551  -2.7551  -2.4656  -2.4656  -1.8255  -1.8255
    -1.4435  -1.4435  -1.0218  -1.0218   3.9448   3.9448   4.6863   4.6863
     5.0140   5.0140   5.5492   5.5492   6.1187   6.1187   6.3547   6.3547
     6.7908   6.7908   7.4961   7.4961   7.6660   7.6660  10.0764  10.0764
    10.3126  10.3126  11.2037  11.2037  11.6866  11.6866  12.1322  12.1322
    12.4755  12.4755  12.8839  12.8839  14.0514  14.0514  14.7639  14.7639
    16.1735  16.1735  16.7718  16.7718  17.1330  17.1330  17.3179  17.3179
    17.8477  17.8477  18.1124  18.1124  18.6530  18.6530  19.0934  19.0934
    19.3064  19.3064  19.7276  19.7276  20.0042  20.0042  20.2206  20.2206
    20.6043  20.6043  21.0207  21.0207

     occupation numbers 
     1.0000   1.0000   1.0000   1.0000   1.0000   1.0000   1.0000   1.0000
     1.0000   1.0000   1.0000   1.0000   1.0000   1.0000   1.0000   1.0000
     1.0000   1.0000   1.0000   1.0000   1.0000   1.0000   1.0000   1.0000
     1.0000   1.0000   1.0000   1.0000   1.0000   1.0000   1.0000   1.0000
     1.0000   1.0000   1.0000   1.0000   1.0000   1.0000   1.0000   1.0000
     1.0000   1.0000   1.0000   1.0000   1.0000   1.0000   1.0000   1.0000
     1.0000   1.0000   1.0000   1.0000   1.0000   1.0000   1.0000   1.0000
     1.0000   1.0000   1.0000   1.0000   1.0000   1.0000   1.0000   1.0000
     1.0000   1.0000   1.0000   1.0000   1.0000   1.0000   1.0000   1.0000
     1.0000   1.0000   1.0000   1.0000   1.0000   1.0000  -0.0000  -0.0000
    -0.0000  -0.0000  -0.0000  -0.0000  -0.0000  -0.0000  -0.0000  -0.0000
    -0.0000  -0.0000  -0.0000  -0.0000  -0.0000  -0.0000  -0.0000  -0.0000
    -0.0000  -0.0000  -0.0000  -0.0000  -0.0000  -0.0000  -0.0000  -0.0000
    -0.0000  -0.0000  -0.0000  -0.0000  -0.0000  -0.0000  -0.0000  -0.0000
    -0.0000  -0.0000  -0.0000  -0.0000  -0.0000  -0.0000  -0.0000  -0.0000
    -0.0000  -0.0000  -0.0000  -0.0000

          k = 0.1679-0.3743-0.6896 ( 11899 PWs)   bands (ev):

   -28.7944 -28.7944 -28.7934 -28.7934 -28.7905 -28.7905 -28.7901 -28.7901
   -28.5549 -28.5549 -28.5258 -28.5258 -27.3295 -27.3294 -27.3290 -27.3290
   -27.3277 -27.3277 -27.3265 -27.3265 -27.3241 -27.3241 -27.3238 -27.3238
   -27.0916 -27.0916 -27.0799 -27.0799 -27.0538 -27.0538 -15.8355 -15.8355
   -15.8349 -15.8349 -15.8277 -15.8277 -15.8271 -15.8271 -12.8555 -12.8555
   -12.8538 -12.8538 -12.8467 -12.8467 -12.8463 -12.8462 -12.8393 -12.8393
   -12.8383 -12.8383  -3.5594  -3.5594  -3.0235  -3.0235  -2.0365  -2.0365
    -0.6413  -0.6413  -0.3591  -0.3591   4.7694   4.7694   5.0392   5.0392
     5.3449   5.3449   5.6756   5.6756   6.4353   6.4353   6.5089   6.5089
     7.6420   7.6420   8.1375   8.1375   8.2652   8.2652   9.3453   9.3453
     9.7224   9.7224  10.4126  10.4126  11.5262  11.5262  12.1754  12.1754
    12.5398  12.5398  13.1657  13.1657  13.2935  13.2935  15.3236  15.3236
    15.6279  15.6279  15.9351  15.9351  15.9980  15.9980  16.2106  16.2106
    16.8101  16.8101  17.0045  17.0045  17.4036  17.4036  17.8390  17.8390
    19.0239  19.0239  19.5518  19.5518  19.7564  19.7564  20.2034  20.2034
    20.4638  20.4638  20.6486  20.6486

     occupation numbers 
     1.0000   1.0000   1.0000   1.0000   1.0000   1.0000   1.0000   1.0000
     1.0000   1.0000   1.0000   1.0000   1.0000   1.0000   1.0000   1.0000
     1.0000   1.0000   1.0000   1.0000   1.0000   1.0000   1.0000   1.0000
     1.0000   1.0000   1.0000   1.0000   1.0000   1.0000   1.0000   1.0000
     1.0000   1.0000   1.0000   1.0000   1.0000   1.0000   1.0000   1.0000
     1.0000   1.0000   1.0000   1.0000   1.0000   1.0000   1.0000   1.0000
     1.0000   1.0000   1.0000   1.0000   1.0000   1.0000   1.0000   1.0000
     1.0000   1.0000   1.0000   1.0000   1.0000   1.0000   1.0000   1.0000
     1.0000   1.0000   1.0000   1.0000   1.0000   1.0000   1.0000   1.0000
     1.0000   1.0000   1.0000   1.0000   1.0010   1.0010  -0.0000  -0.0000
    -0.0000  -0.0000  -0.0000  -0.0000  -0.0000  -0.0000  -0.0000  -0.0000
    -0.0000  -0.0000  -0.0000  -0.0000  -0.0000  -0.0000  -0.0000  -0.0000
    -0.0000  -0.0000  -0.0000  -0.0000  -0.0000  -0.0000  -0.0000  -0.0000
    -0.0000  -0.0000  -0.0000  -0.0000  -0.0000  -0.0000  -0.0000  -0.0000
    -0.0000  -0.0000  -0.0000  -0.0000  -0.0000  -0.0000  -0.0000  -0.0000
    -0.0000  -0.0000  -0.0000  -0.0000

          k = 0.1670 0.0358-0.4456 ( 11889 PWs)   bands (ev):

   -28.7945 -28.7945 -28.7932 -28.7932 -28.7907 -28.7907 -28.7901 -28.7901
   -28.5549 -28.5549 -28.5259 -28.5259 -27.3295 -27.3295 -27.3290 -27.3290
   -27.3280 -27.3280 -27.3263 -27.3263 -27.3243 -27.3243 -27.3240 -27.3240
   -27.0916 -27.0916 -27.0798 -27.0798 -27.0540 -27.0540 -15.8361 -15.8361
   -15.8359 -15.8359 -15.8275 -15.8275 -15.8269 -15.8269 -12.8561 -12.8561
   -12.8549 -12.8549 -12.8455 -12.8455 -12.8454 -12.8453 -12.8406 -12.8406
   -12.8394 -12.8394  -3.9897  -3.9897  -3.4254  -3.4254  -2.2199  -2.2199
    -0.3377  -0.3377   0.2066   0.2066   5.3351   5.3351   5.6046   5.6046
     5.9751   5.9751   6.6487   6.6487   6.8496   6.8496   7.2791   7.2791
     7.7540   7.7540   7.9345   7.9345   8.1877   8.1877   9.3304   9.3304
     9.4735   9.4735  10.4847  10.4847  10.7642  10.7642  11.4263  11.4263
    11.8025  11.8025  13.2342  13.2342  13.8670  13.8670  14.8532  14.8532
    14.9305  14.9305  15.5200  15.5200  15.8760  15.8760  16.1348  16.1348
    16.1663  16.1663  16.7457  16.7457  16.8444  16.8444  17.2669  17.2669
    17.4561  17.4561  18.2451  18.2451  18.6619  18.6619  18.7628  18.7628
    19.3871  19.3871  19.7215  19.7215

     occupation numbers 
     1.0000   1.0000   1.0000   1.0000   1.0000   1.0000   1.0000   1.0000
     1.0000   1.0000   1.0000   1.0000   1.0000   1.0000   1.0000   1.0000
     1.0000   1.0000   1.0000   1.0000   1.0000   1.0000   1.0000   1.0000
     1.0000   1.0000   1.0000   1.0000   1.0000   1.0000   1.0000   1.0000
     1.0000   1.0000   1.0000   1.0000   1.0000   1.0000   1.0000   1.0000
     1.0000   1.0000   1.0000   1.0000   1.0000   1.0000   1.0000   1.0000
     1.0000   1.0000   1.0000   1.0000   1.0000   1.0000   1.0000   1.0000
     1.0000   1.0000   1.0000   1.0000   1.0000   1.0000   1.0000   1.0000
     1.0000   1.0000   1.0000   1.0000   1.0000   1.0000   1.0000   1.0000
     1.0000   1.0000   1.0000   1.0000   1.0001   1.0001  -0.0000  -0.0000
    -0.0000  -0.0000  -0.0000  -0.0000  -0.0000  -0.0000  -0.0000  -0.0000
    -0.0000  -0.0000  -0.0000  -0.0000  -0.0000  -0.0000  -0.0000  -0.0000
    -0.0000  -0.0000  -0.0000  -0.0000  -0.0000  -0.0000  -0.0000  -0.0000
    -0.0000  -0.0000  -0.0000  -0.0000  -0.0000  -0.0000  -0.0000  -0.0000
    -0.0000  -0.0000  -0.0000  -0.0000  -0.0000  -0.0000  -0.0000  -0.0000
    -0.0000  -0.0000  -0.0000  -0.0000

          k = 0.1666 0.0357 0.0212 ( 11900 PWs)   bands (ev):

   -28.7946 -28.7946 -28.7932 -28.7932 -28.7908 -28.7908 -28.7902 -28.7902
   -28.5549 -28.5549 -28.5260 -28.5260 -27.3295 -27.3295 -27.3289 -27.3289
   -27.3283 -27.3283 -27.3262 -27.3262 -27.3244 -27.3244 -27.3241 -27.3241
   -27.0917 -27.0917 -27.0798 -27.0798 -27.0541 -27.0541 -15.8367 -15.8367
   -15.8364 -15.8364 -15.8273 -15.8273 -15.8269 -15.8269 -12.8571 -12.8571
   -12.8560 -12.8560 -12.8445 -12.8445 -12.8442 -12.8442 -12.8415 -12.8415
   -12.8401 -12.8401  -4.2041  -4.2041  -3.6613  -3.6613  -2.3037  -2.3037
    -0.3172  -0.3172   0.6014   0.6014   5.8529   5.8529   6.2406   6.2406
     6.9073   6.9073   7.1419   7.1419   7.4479   7.4479   7.5643   7.5643
     7.5917   7.5917   8.1170   8.1170   8.2736   8.2736   8.7043   8.7043
     9.4159   9.4159   9.7512   9.7512  10.1316  10.1316  11.1261  11.1261
    11.3418  11.3418  13.7602  13.7602  14.3097  14.3097  14.6319  14.6319
    14.6927  14.6927  15.2479  15.2479  15.4911  15.4911  15.5194  15.5194
    16.1945  16.1945  16.2094  16.2094  16.2169  16.2169  16.7365  16.7365
    17.6142  17.6142  17.9058  17.9058  17.9669  17.9669  18.2842  18.2842
    18.9384  18.9384  19.0420  19.0420

     occupation numbers 
     1.0000   1.0000   1.0000   1.0000   1.0000   1.0000   1.0000   1.0000
     1.0000   1.0000   1.0000   1.0000   1.0000   1.0000   1.0000   1.0000
     1.0000   1.0000   1.0000   1.0000   1.0000   1.0000   1.0000   1.0000
     1.0000   1.0000   1.0000   1.0000   1.0000   1.0000   1.0000   1.0000
     1.0000   1.0000   1.0000   1.0000   1.0000   1.0000   1.0000   1.0000
     1.0000   1.0000   1.0000   1.0000   1.0000   1.0000   1.0000   1.0000
     1.0000   1.0000   1.0000   1.0000   1.0000   1.0000   1.0000   1.0000
     1.0000   1.0000   1.0000   1.0000   1.0000   1.0000   1.0000   1.0000
     1.0000   1.0000   1.0000   1.0000   1.0000   1.0000   1.0000   1.0000
     1.0000   1.0000   1.0000   1.0000   1.0013   1.0013   0.0404   0.0404
    -0.0000  -0.0000  -0.0000  -0.0000  -0.0000  -0.0000  -0.0000  -0.0000
    -0.0000  -0.0000  -0.0000  -0.0000  -0.0000  -0.0000  -0.0000  -0.0000
    -0.0000  -0.0000  -0.0000  -0.0000  -0.0000  -0.0000  -0.0000  -0.0000
    -0.0000  -0.0000  -0.0000  -0.0000  -0.0000  -0.0000  -0.0000  -0.0000
    -0.0000  -0.0000  -0.0000  -0.0000  -0.0000  -0.0000  -0.0000  -0.0000
    -0.0000  -0.0000  -0.0000  -0.0000

          k = 0.1661 0.0356 0.4880 ( 11906 PWs)   bands (ev):

   -28.7946 -28.7946 -28.7933 -28.7933 -28.7907 -28.7907 -28.7901 -28.7901
   -28.5549 -28.5549 -28.5259 -28.5259 -27.3295 -27.3295 -27.3290 -27.3290
   -27.3280 -27.3280 -27.3263 -27.3263 -27.3243 -27.3243 -27.3240 -27.3240
   -27.0916 -27.0916 -27.0798 -27.0798 -27.0540 -27.0540 -15.8361 -15.8361
   -15.8359 -15.8359 -15.8275 -15.8275 -15.8269 -15.8269 -12.8561 -12.8561
   -12.8549 -12.8549 -12.8455 -12.8455 -12.8453 -12.8453 -12.8406 -12.8406
   -12.8394 -12.8394  -3.9617  -3.9617  -3.4930  -3.4930  -2.1195  -2.1195
    -0.5389  -0.5389   0.3583   0.3583   5.3018   5.3018   5.5067   5.5067
     6.1681   6.1681   6.6048   6.6048   6.7748   6.7748   7.3011   7.3011
     7.7174   7.7174   7.9546   7.9546   8.3292   8.3292   8.9968   8.9968
     9.8698   9.8698  10.4049  10.4049  10.8911  10.8911  11.2706  11.2706
    11.6222  11.6222  13.1629  13.1629  14.1091  14.1091  14.6622  14.6622
    15.0537  15.0537  15.1993  15.1993  15.5457  15.5457  16.1658  16.1658
    16.5364  16.5364  17.1591  17.1591  17.5007  17.5007  17.6130  17.6130
    17.7540  17.7540  17.8598  17.8598  18.1629  18.1629  18.8660  18.8660
    19.0371  19.0372  19.5793  19.5796

     occupation numbers 
     1.0000   1.0000   1.0000   1.0000   1.0000   1.0000   1.0000   1.0000
     1.0000   1.0000   1.0000   1.0000   1.0000   1.0000   1.0000   1.0000
     1.0000   1.0000   1.0000   1.0000   1.0000   1.0000   1.0000   1.0000
     1.0000   1.0000   1.0000   1.0000   1.0000   1.0000   1.0000   1.0000
     1.0000   1.0000   1.0000   1.0000   1.0000   1.0000   1.0000   1.0000
     1.0000   1.0000   1.0000   1.0000   1.0000   1.0000   1.0000   1.0000
     1.0000   1.0000   1.0000   1.0000   1.0000   1.0000   1.0000   1.0000
     1.0000   1.0000   1.0000   1.0000   1.0000   1.0000   1.0000   1.0000
     1.0000   1.0000   1.0000   1.0000   1.0000   1.0000   1.0000   1.0000
     1.0000   1.0000   1.0000   1.0000   1.0066   1.0066  -0.0002  -0.0002
    -0.0000  -0.0000  -0.0000  -0.0000  -0.0000  -0.0000  -0.0000  -0.0000
    -0.0000  -0.0000  -0.0000  -0.0000  -0.0000  -0.0000  -0.0000  -0.0000
    -0.0000  -0.0000  -0.0000  -0.0000  -0.0000  -0.0000  -0.0000  -0.0000
    -0.0000  -0.0000  -0.0000  -0.0000  -0.0000  -0.0000  -0.0000  -0.0000
    -0.0000  -0.0000  -0.0000  -0.0000  -0.0000  -0.0000  -0.0000  -0.0000
    -0.0000  -0.0000  -0.0000  -0.0000

          k = 0.1684 0.0360-1.8459 ( 11904 PWs)   bands (ev):

   -28.7943 -28.7943 -28.7935 -28.7935 -28.7904 -28.7904 -28.7901 -28.7901
   -28.5549 -28.5549 -28.5258 -28.5258 -27.3294 -27.3294 -27.3290 -27.3290
   -27.3276 -27.3276 -27.3265 -27.3265 -27.3240 -27.3240 -27.3238 -27.3238
   -27.0915 -27.0915 -27.0799 -27.0799 -27.0537 -27.0537 -15.8351 -15.8351
   -15.8349 -15.8349 -15.8276 -15.8276 -15.8272 -15.8272 -12.8557 -12.8557
   -12.8546 -12.8546 -12.8465 -12.8465 -12.8461 -12.8461 -12.8387 -12.8387
   -12.8374 -12.8374  -3.2924  -3.2924  -2.9918  -2.9918  -1.8071  -1.8071
    -1.0884  -1.0884  -0.4123  -0.4123   4.4195   4.4195   4.8318   4.8318
     5.3598   5.3598   5.7349   5.7349   6.2632   6.2632   6.4459   6.4459
     7.5047   7.5047   8.0204   8.0204   8.3676   8.3676   8.9728   8.9728
    10.0405  10.0405  10.3627  10.3627  11.0458  11.0458  12.1696  12.1696
    12.5478  12.5478  13.0457  13.0457  13.8799  13.8799  15.1414  15.1414
    16.1760  16.1760  16.3319  16.3319  16.6975  16.6975  16.8422  16.8422
    17.4408  17.4408  17.7546  17.7546  17.9745  17.9745  18.2801  18.2801
    18.8160  18.8160  19.1540  19.1540  19.6821  19.6821  20.0035  20.0035
    20.3165  20.3165  20.7336  20.7336

     occupation numbers 
     1.0000   1.0000   1.0000   1.0000   1.0000   1.0000   1.0000   1.0000
     1.0000   1.0000   1.0000   1.0000   1.0000   1.0000   1.0000   1.0000
     1.0000   1.0000   1.0000   1.0000   1.0000   1.0000   1.0000   1.0000
     1.0000   1.0000   1.0000   1.0000   1.0000   1.0000   1.0000   1.0000
     1.0000   1.0000   1.0000   1.0000   1.0000   1.0000   1.0000   1.0000
     1.0000   1.0000   1.0000   1.0000   1.0000   1.0000   1.0000   1.0000
     1.0000   1.0000   1.0000   1.0000   1.0000   1.0000   1.0000   1.0000
     1.0000   1.0000   1.0000   1.0000   1.0000   1.0000   1.0000   1.0000
     1.0000   1.0000   1.0000   1.0000   1.0000   1.0000   1.0000   1.0000
     1.0000   1.0000   1.0000   1.0000   1.0154   1.0154  -0.0005  -0.0005
    -0.0000  -0.0000  -0.0000  -0.0000  -0.0000  -0.0000  -0.0000  -0.0000
    -0.0000  -0.0000  -0.0000  -0.0000  -0.0000  -0.0000  -0.0000  -0.0000
    -0.0000  -0.0000  -0.0000  -0.0000  -0.0000  -0.0000  -0.0000  -0.0000
    -0.0000  -0.0000  -0.0000  -0.0000  -0.0000  -0.0000  -0.0000  -0.0000
    -0.0000  -0.0000  -0.0000  -0.0000  -0.0000  -0.0000  -0.0000  -0.0000
    -0.0000  -0.0000  -0.0000  -0.0000

          k = 0.1679 0.0360-1.3791 ( 11935 PWs)   bands (ev):

   -28.7941 -28.7941 -28.7936 -28.7936 -28.7903 -28.7903 -28.7901 -28.7901
   -28.5548 -28.5548 -28.5257 -28.5257 -27.3294 -27.3294 -27.3289 -27.3289
   -27.3274 -27.3274 -27.3267 -27.3267 -27.3238 -27.3238 -27.3237 -27.3237
   -27.0915 -27.0915 -27.0799 -27.0799 -27.0536 -27.0536 -15.8346 -15.8346
   -15.8345 -15.8345 -15.8276 -15.8276 -15.8274 -15.8274 -12.8563 -12.8563
   -12.8556 -12.8556 -12.8464 -12.8464 -12.8458 -12.8458 -12.8375 -12.8375
   -12.8361 -12.8361  -2.5508  -2.5508  -2.5239  -2.5239  -2.1145  -2.1145
    -1.3928  -1.3928  -0.9527  -0.9527   3.7607   3.7607   4.9869   4.9869
     5.1810   5.1810   5.6357   5.6357   5.8995   5.8995   6.3794   6.3794
     6.7623   6.7623   7.6693   7.6693   8.0801   8.0801   9.2184   9.2184
    10.3670  10.3670  10.7731  10.7731  11.1281  11.1281  12.0134  12.0134
    12.4521  12.4521  12.8292  12.8292  13.8356  13.8356  16.3509  16.3509
    17.0614  17.0614  17.2942  17.2942  17.5110  17.5110  17.8302  17.8302
    18.1657  18.1657  18.3053  18.3053  18.9363  18.9363  19.0087  19.0087
    19.0911  19.0911  19.5511  19.5511  19.6696  19.6696  20.1499  20.1499
    20.2597  20.2597  20.7519  20.7521

     occupation numbers 
     1.0000   1.0000   1.0000   1.0000   1.0000   1.0000   1.0000   1.0000
     1.0000   1.0000   1.0000   1.0000   1.0000   1.0000   1.0000   1.0000
     1.0000   1.0000   1.0000   1.0000   1.0000   1.0000   1.0000   1.0000
     1.0000   1.0000   1.0000   1.0000   1.0000   1.0000   1.0000   1.0000
     1.0000   1.0000   1.0000   1.0000   1.0000   1.0000   1.0000   1.0000
     1.0000   1.0000   1.0000   1.0000   1.0000   1.0000   1.0000   1.0000
     1.0000   1.0000   1.0000   1.0000   1.0000   1.0000   1.0000   1.0000
     1.0000   1.0000   1.0000   1.0000   1.0000   1.0000   1.0000   1.0000
     1.0000   1.0000   1.0000   1.0000   1.0000   1.0000   1.0000   1.0000
     1.0000   1.0000   1.0000   1.0000   1.0000   1.0000  -0.0000  -0.0000
    -0.0000  -0.0000  -0.0000  -0.0000  -0.0000  -0.0000  -0.0000  -0.0000
    -0.0000  -0.0000  -0.0000  -0.0000  -0.0000  -0.0000  -0.0000  -0.0000
    -0.0000  -0.0000  -0.0000  -0.0000  -0.0000  -0.0000  -0.0000  -0.0000
    -0.0000  -0.0000  -0.0000  -0.0000  -0.0000  -0.0000  -0.0000  -0.0000
    -0.0000  -0.0000  -0.0000  -0.0000  -0.0000  -0.0000  -0.0000  -0.0000
    -0.0000  -0.0000  -0.0000  -0.0000

          k = 0.1675 0.0359-0.9123 ( 11916 PWs)   bands (ev):

   -28.7943 -28.7943 -28.7935 -28.7935 -28.7904 -28.7904 -28.7901 -28.7901
   -28.5549 -28.5549 -28.5258 -28.5258 -27.3294 -27.3294 -27.3290 -27.3290
   -27.3276 -27.3276 -27.3265 -27.3265 -27.3240 -27.3240 -27.3238 -27.3238
   -27.0915 -27.0915 -27.0799 -27.0799 -27.0537 -27.0537 -15.8351 -15.8351
   -15.8349 -15.8349 -15.8276 -15.8276 -15.8272 -15.8272 -12.8558 -12.8557
   -12.8546 -12.8546 -12.8465 -12.8465 -12.8461 -12.8461 -12.8387 -12.8387
   -12.8374 -12.8374  -3.3520  -3.3520  -2.8620  -2.8620  -1.9817  -1.9817
    -0.9179  -0.9179  -0.4725  -0.4725   4.1336   4.1336   5.0783   5.0783
     5.5317   5.5317   5.9992   5.9992   6.1847   6.1847   6.6928   6.6928
     7.0442   7.0442   7.5152   7.5152   7.8982   7.8982   9.5793   9.5793
    10.4951  10.4951  10.7025  10.7025  11.3223  11.3223  11.8859  11.8859
    12.3530  12.3530  12.4075  12.4075  14.5904  14.5904  14.9603  14.9603
    15.6007  15.6007  16.2302  16.2302  16.6300  16.6300  17.0540  17.0540
    17.5709  17.5709  17.7069  17.7069  17.7653  17.7653  18.4122  18.4122
    18.6273  18.6273  18.6852  18.6852  19.1761  19.1761  21.0759  21.0759
    21.2126  21.2126  21.5354  21.5354

     occupation numbers 
     1.0000   1.0000   1.0000   1.0000   1.0000   1.0000   1.0000   1.0000
     1.0000   1.0000   1.0000   1.0000   1.0000   1.0000   1.0000   1.0000
     1.0000   1.0000   1.0000   1.0000   1.0000   1.0000   1.0000   1.0000
     1.0000   1.0000   1.0000   1.0000   1.0000   1.0000   1.0000   1.0000
     1.0000   1.0000   1.0000   1.0000   1.0000   1.0000   1.0000   1.0000
     1.0000   1.0000   1.0000   1.0000   1.0000   1.0000   1.0000   1.0000
     1.0000   1.0000   1.0000   1.0000   1.0000   1.0000   1.0000   1.0000
     1.0000   1.0000   1.0000   1.0000   1.0000   1.0000   1.0000   1.0000
     1.0000   1.0000   1.0000   1.0000   1.0000   1.0000   1.0000   1.0000
     1.0000   1.0000   1.0000   1.0000   1.0000   1.0000  -0.0000  -0.0000
    -0.0000  -0.0000  -0.0000  -0.0000  -0.0000  -0.0000  -0.0000  -0.0000
    -0.0000  -0.0000  -0.0000  -0.0000  -0.0000  -0.0000  -0.0000  -0.0000
    -0.0000  -0.0000  -0.0000  -0.0000  -0.0000  -0.0000  -0.0000  -0.0000
    -0.0000  -0.0000  -0.0000  -0.0000  -0.0000  -0.0000  -0.0000  -0.0000
    -0.0000  -0.0000  -0.0000  -0.0000  -0.0000  -0.0000  -0.0000  -0.0000
    -0.0000  -0.0000  -0.0000  -0.0000

          k = 0.1666 0.4459-0.6683 ( 11897 PWs)   bands (ev):

   -28.7944 -28.7944 -28.7934 -28.7934 -28.7905 -28.7905 -28.7901 -28.7901
   -28.5549 -28.5549 -28.5258 -28.5258 -27.3295 -27.3295 -27.3290 -27.3290
   -27.3277 -27.3277 -27.3264 -27.3264 -27.3241 -27.3241 -27.3238 -27.3238
   -27.0916 -27.0916 -27.0799 -27.0799 -27.0538 -27.0538 -15.8355 -15.8355
   -15.8349 -15.8349 -15.8277 -15.8277 -15.8271 -15.8271 -12.8555 -12.8555
   -12.8538 -12.8538 -12.8467 -12.8467 -12.8463 -12.8462 -12.8393 -12.8393
   -12.8383 -12.8383  -3.5405  -3.5405  -3.0707  -3.0707  -1.9774  -1.9774
    -0.7274  -0.7274  -0.3040  -0.3040   4.6983   4.6983   5.0674   5.0674
     5.3065   5.3065   5.7882   5.7882   6.4361   6.4361   6.6351   6.6351
     7.4676   7.4676   8.0769   8.0769   8.1836   8.1836   9.4658   9.4658
     9.7496   9.7497  10.5984  10.5984  11.4781  11.4781  12.0616  12.0616
    12.4593  12.4593  13.2274  13.2274  13.3250  13.3250  14.7813  14.7813
    15.3005  15.3005  16.2031  16.2031  16.3479  16.3479  16.4807  16.4807
    16.9649  16.9649  17.2266  17.2266  17.4272  17.4272  18.1219  18.1219
    18.7522  18.7522  19.1214  19.1214  19.5838  19.5838  20.1692  20.1692
    20.4436  20.4436  20.8013  20.8014

     occupation numbers 
     1.0000   1.0000   1.0000   1.0000   1.0000   1.0000   1.0000   1.0000
     1.0000   1.0000   1.0000   1.0000   1.0000   1.0000   1.0000   1.0000
     1.0000   1.0000   1.0000   1.0000   1.0000   1.0000   1.0000   1.0000
     1.0000   1.0000   1.0000   1.0000   1.0000   1.0000   1.0000   1.0000
     1.0000   1.0000   1.0000   1.0000   1.0000   1.0000   1.0000   1.0000
     1.0000   1.0000   1.0000   1.0000   1.0000   1.0000   1.0000   1.0000
     1.0000   1.0000   1.0000   1.0000   1.0000   1.0000   1.0000   1.0000
     1.0000   1.0000   1.0000   1.0000   1.0000   1.0000   1.0000   1.0000
     1.0000   1.0000   1.0000   1.0000   1.0000   1.0000   1.0000   1.0000
     1.0000   1.0000   1.0000   1.0000   1.0000   1.0000  -0.0000  -0.0000
    -0.0000  -0.0000  -0.0000  -0.0000  -0.0000  -0.0000  -0.0000  -0.0000
    -0.0000  -0.0000  -0.0000  -0.0000  -0.0000  -0.0000  -0.0000  -0.0000
    -0.0000  -0.0000  -0.0000  -0.0000  -0.0000  -0.0000  -0.0000  -0.0000
    -0.0000  -0.0000  -0.0000  -0.0000  -0.0000  -0.0000  -0.0000  -0.0000
    -0.0000  -0.0000  -0.0000  -0.0000  -0.0000  -0.0000  -0.0000  -0.0000
    -0.0000  -0.0000  -0.0000  -0.0000

          k = 0.1661 0.4458-0.2016 ( 11906 PWs)   bands (ev):

   -28.7946 -28.7946 -28.7933 -28.7933 -28.7907 -28.7907 -28.7901 -28.7901
   -28.5549 -28.5549 -28.5259 -28.5259 -27.3295 -27.3295 -27.3290 -27.3290
   -27.3280 -27.3280 -27.3263 -27.3263 -27.3243 -27.3243 -27.3240 -27.3240
   -27.0916 -27.0916 -27.0798 -27.0798 -27.0540 -27.0540 -15.8361 -15.8361
   -15.8359 -15.8359 -15.8275 -15.8275 -15.8269 -15.8269 -12.8561 -12.8561
   -12.8549 -12.8549 -12.8455 -12.8455 -12.8453 -12.8453 -12.8406 -12.8406
   -12.8394 -12.8394  -3.9617  -3.9617  -3.4930  -3.4930  -2.1195  -2.1195
    -0.5389  -0.5389   0.3583   0.3583   5.3018   5.3018   5.5067   5.5067
     6.1681   6.1681   6.6048   6.6048   6.7748   6.7748   7.3011   7.3011
     7.7174   7.7174   7.9546   7.9546   8.3292   8.3292   8.9968   8.9968
     9.8698   9.8698  10.4049  10.4049  10.8911  10.8911  11.2706  11.2706
    11.6222  11.6222  13.1629  13.1629  14.1091  14.1091  14.6622  14.6622
    15.0537  15.0537  15.1993  15.1993  15.5457  15.5457  16.1658  16.1658
    16.5364  16.5364  17.1591  17.1591  17.5007  17.5007  17.6130  17.6130
    17.7540  17.7540  17.8598  17.8598  18.1629  18.1629  18.8660  18.8660
    19.0371  19.0372  19.5792  19.5795

     occupation numbers 
     1.0000   1.0000   1.0000   1.0000   1.0000   1.0000   1.0000   1.0000
     1.0000   1.0000   1.0000   1.0000   1.0000   1.0000   1.0000   1.0000
     1.0000   1.0000   1.0000   1.0000   1.0000   1.0000   1.0000   1.0000
     1.0000   1.0000   1.0000   1.0000   1.0000   1.0000   1.0000   1.0000
     1.0000   1.0000   1.0000   1.0000   1.0000   1.0000   1.0000   1.0000
     1.0000   1.0000   1.0000   1.0000   1.0000   1.0000   1.0000   1.0000
     1.0000   1.0000   1.0000   1.0000   1.0000   1.0000   1.0000   1.0000
     1.0000   1.0000   1.0000   1.0000   1.0000   1.0000   1.0000   1.0000
     1.0000   1.0000   1.0000   1.0000   1.0000   1.0000   1.0000   1.0000
     1.0000   1.0000   1.0000   1.0000   1.0066   1.0066  -0.0002  -0.0002
    -0.0000  -0.0000  -0.0000  -0.0000  -0.0000  -0.0000  -0.0000  -0.0000
    -0.0000  -0.0000  -0.0000  -0.0000  -0.0000  -0.0000  -0.0000  -0.0000
    -0.0000  -0.0000  -0.0000  -0.0000  -0.0000  -0.0000  -0.0000  -0.0000
    -0.0000  -0.0000  -0.0000  -0.0000  -0.0000  -0.0000  -0.0000  -0.0000
    -0.0000  -0.0000  -0.0000  -0.0000  -0.0000  -0.0000  -0.0000  -0.0000
    -0.0000  -0.0000  -0.0000  -0.0000

          k = 0.1657 0.4457 0.2652 ( 11898 PWs)   bands (ev):

   -28.7946 -28.7946 -28.7932 -28.7932 -28.7907 -28.7907 -28.7901 -28.7901
   -28.5549 -28.5549 -28.5259 -28.5259 -27.3295 -27.3295 -27.3290 -27.3290
   -27.3280 -27.3280 -27.3263 -27.3263 -27.3243 -27.3243 -27.3240 -27.3240
   -27.0916 -27.0916 -27.0798 -27.0798 -27.0540 -27.0540 -15.8361 -15.8361
   -15.8359 -15.8359 -15.8275 -15.8275 -15.8269 -15.8269 -12.8561 -12.8561
   -12.8549 -12.8549 -12.8455 -12.8455 -12.8453 -12.8453 -12.8406 -12.8406
   -12.8394 -12.8394  -3.9457  -3.9457  -3.5251  -3.5251  -2.0824  -2.0824
    -0.5674  -0.5674   0.3567   0.3567   5.2778   5.2778   5.7236   5.7236
     5.9775   5.9775   6.6650   6.6650   6.8496   6.8496   7.2053   7.2053
     7.6876   7.6876   7.9188   7.9188   8.2421   8.2421   9.1032   9.1032
     9.7390   9.7390  10.3114  10.3114  10.8404  10.8404  11.5754  11.5754
    11.8205  11.8205  13.4132  13.4132  13.9007  13.9007  14.4671  14.4671
    14.8723  14.8723  15.5321  15.5321  15.6839  15.6839  16.2565  16.2565
    16.2983  16.2983  16.4815  16.4815  16.6303  16.6303  17.2876  17.2876
    17.6542  17.6542  18.0715  18.0715  19.0559  19.0559  19.2520  19.2520
    19.5254  19.5254  19.8631  19.8632

     occupation numbers 
     1.0000   1.0000   1.0000   1.0000   1.0000   1.0000   1.0000   1.0000
     1.0000   1.0000   1.0000   1.0000   1.0000   1.0000   1.0000   1.0000
     1.0000   1.0000   1.0000   1.0000   1.0000   1.0000   1.0000   1.0000
     1.0000   1.0000   1.0000   1.0000   1.0000   1.0000   1.0000   1.0000
     1.0000   1.0000   1.0000   1.0000   1.0000   1.0000   1.0000   1.0000
     1.0000   1.0000   1.0000   1.0000   1.0000   1.0000   1.0000   1.0000
     1.0000   1.0000   1.0000   1.0000   1.0000   1.0000   1.0000   1.0000
     1.0000   1.0000   1.0000   1.0000   1.0000   1.0000   1.0000   1.0000
     1.0000   1.0000   1.0000   1.0000   1.0000   1.0000   1.0000   1.0000
     1.0000   1.0000   1.0000   1.0000   1.0005   1.0005  -0.0000  -0.0000
    -0.0000  -0.0000  -0.0000  -0.0000  -0.0000  -0.0000  -0.0000  -0.0000
    -0.0000  -0.0000  -0.0000  -0.0000  -0.0000  -0.0000  -0.0000  -0.0000
    -0.0000  -0.0000  -0.0000  -0.0000  -0.0000  -0.0000  -0.0000  -0.0000
    -0.0000  -0.0000  -0.0000  -0.0000  -0.0000  -0.0000  -0.0000  -0.0000
    -0.0000  -0.0000  -0.0000  -0.0000  -0.0000  -0.0000  -0.0000  -0.0000
    -0.0000  -0.0000  -0.0000  -0.0000

          k = 0.1679 0.4462-2.0687 ( 11894 PWs)   bands (ev):

   -28.7944 -28.7944 -28.7934 -28.7934 -28.7905 -28.7905 -28.7901 -28.7901
   -28.5549 -28.5549 -28.5258 -28.5258 -27.3295 -27.3295 -27.3290 -27.3290
   -27.3277 -27.3277 -27.3264 -27.3264 -27.3241 -27.3241 -27.3238 -27.3238
   -27.0916 -27.0916 -27.0798 -27.0798 -27.0538 -27.0538 -15.8355 -15.8355
   -15.8349 -15.8349 -15.8277 -15.8277 -15.8271 -15.8271 -12.8555 -12.8554
   -12.8538 -12.8538 -12.8467 -12.8467 -12.8463 -12.8462 -12.8393 -12.8393
   -12.8383 -12.8383  -3.4912  -3.4912  -3.1692  -3.1692  -1.8558  -1.8558
    -0.8709  -0.8709  -0.2330  -0.2330   4.6095   4.6095   4.9951   4.9951
     5.3815   5.3815   5.9595   5.9595   6.4569   6.4569   6.8668   6.8668
     7.3114   7.3114   7.8102   7.8102   7.9431   7.9431   9.7519   9.7519
     9.8968   9.8968  10.8878  10.8878  11.3867  11.3867  11.8147  11.8147
    12.2711  12.2711  13.4014  13.4014  13.4267  13.4267  14.2107  14.2107
    14.7799  14.7799  16.4915  16.4915  16.7050  16.7050  16.8840  16.8840
    17.2695  17.2695  17.6380  17.6380  17.9519  17.9519  18.2796  18.2796
    18.6123  18.6123  18.7090  18.7090  18.9940  18.9940  19.7864  19.7864
    20.2255  20.2255  20.4687  20.4687

     occupation numbers 
     1.0000   1.0000   1.0000   1.0000   1.0000   1.0000   1.0000   1.0000
     1.0000   1.0000   1.0000   1.0000   1.0000   1.0000   1.0000   1.0000
     1.0000   1.0000   1.0000   1.0000   1.0000   1.0000   1.0000   1.0000
     1.0000   1.0000   1.0000   1.0000   1.0000   1.0000   1.0000   1.0000
     1.0000   1.0000   1.0000   1.0000   1.0000   1.0000   1.0000   1.0000
     1.0000   1.0000   1.0000   1.0000   1.0000   1.0000   1.0000   1.0000
     1.0000   1.0000   1.0000   1.0000   1.0000   1.0000   1.0000   1.0000
     1.0000   1.0000   1.0000   1.0000   1.0000   1.0000   1.0000   1.0000
     1.0000   1.0000   1.0000   1.0000   1.0000   1.0000   1.0000   1.0000
     1.0000   1.0000   1.0000   1.0000   1.0000   1.0000  -0.0000  -0.0000
    -0.0000  -0.0000  -0.0000  -0.0000  -0.0000  -0.0000  -0.0000  -0.0000
    -0.0000  -0.0000  -0.0000  -0.0000  -0.0000  -0.0000  -0.0000  -0.0000
    -0.0000  -0.0000  -0.0000  -0.0000  -0.0000  -0.0000  -0.0000  -0.0000
    -0.0000  -0.0000  -0.0000  -0.0000  -0.0000  -0.0000  -0.0000  -0.0000
    -0.0000  -0.0000  -0.0000  -0.0000  -0.0000  -0.0000  -0.0000  -0.0000
    -0.0000  -0.0000  -0.0000  -0.0000

          k = 0.1675 0.4461-1.6019 ( 11918 PWs)   bands (ev):

   -28.7941 -28.7941 -28.7936 -28.7936 -28.7903 -28.7903 -28.7901 -28.7901
   -28.5548 -28.5548 -28.5257 -28.5257 -27.3295 -27.3295 -27.3288 -27.3288
   -27.3275 -27.3275 -27.3266 -27.3266 -27.3238 -27.3238 -27.3237 -27.3237
   -27.0915 -27.0915 -27.0799 -27.0799 -27.0536 -27.0536 -15.8350 -15.8350
   -15.8339 -15.8339 -15.8278 -15.8278 -15.8273 -15.8273 -12.8553 -12.8553
   -12.8536 -12.8535 -12.8474 -12.8474 -12.8466 -12.8466 -12.8379 -12.8379
   -12.8370 -12.8370  -2.6908  -2.6908  -2.5576  -2.5576  -1.8328  -1.8328
    -1.3486  -1.3486  -1.0818  -1.0818   4.1779   4.1779   4.6719   4.6719
     4.8396   4.8396   5.0870   5.0870   6.0372   6.0372   6.5574   6.5574
     7.2968   7.2968   7.5101   7.5101   7.8450   7.8450   9.6841   9.6841
    10.3260  10.3260  10.6886  10.6886  11.5674  11.5674  12.1590  12.1590
    12.9183  12.9183  13.2538  13.2538  13.7364  13.7364  14.8310  14.8310
    16.2055  16.2055  16.8654  16.8654  17.1129  17.1129  17.7852  17.7852
    17.9819  17.9819  18.2055  18.2055  18.6554  18.6554  18.7993  18.7993
    19.3075  19.3075  19.6576  19.6576  19.8438  19.8438  19.9980  19.9980
    20.3874  20.3874  21.0897  21.0902

     occupation numbers 
     1.0000   1.0000   1.0000   1.0000   1.0000   1.0000   1.0000   1.0000
     1.0000   1.0000   1.0000   1.0000   1.0000   1.0000   1.0000   1.0000
     1.0000   1.0000   1.0000   1.0000   1.0000   1.0000   1.0000   1.0000
     1.0000   1.0000   1.0000   1.0000   1.0000   1.0000   1.0000   1.0000
     1.0000   1.0000   1.0000   1.0000   1.0000   1.0000   1.0000   1.0000
     1.0000   1.0000   1.0000   1.0000   1.0000   1.0000   1.0000   1.0000
     1.0000   1.0000   1.0000   1.0000   1.0000   1.0000   1.0000   1.0000
     1.0000   1.0000   1.0000   1.0000   1.0000   1.0000   1.0000   1.0000
     1.0000   1.0000   1.0000   1.0000   1.0000   1.0000   1.0000   1.0000
     1.0000   1.0000   1.0000   1.0000   1.0000   1.0000  -0.0000  -0.0000
    -0.0000  -0.0000  -0.0000  -0.0000  -0.0000  -0.0000  -0.0000  -0.0000
    -0.0000  -0.0000  -0.0000  -0.0000  -0.0000  -0.0000  -0.0000  -0.0000
    -0.0000  -0.0000  -0.0000  -0.0000  -0.0000  -0.0000  -0.0000  -0.0000
    -0.0000  -0.0000  -0.0000  -0.0000  -0.0000  -0.0000  -0.0000  -0.0000
    -0.0000  -0.0000  -0.0000  -0.0000  -0.0000  -0.0000  -0.0000  -0.0000
    -0.0000  -0.0000  -0.0000  -0.0000

          k = 0.1670 0.4460-1.1351 ( 11915 PWs)   bands (ev):

   -28.7941 -28.7941 -28.7936 -28.7936 -28.7903 -28.7903 -28.7901 -28.7901
   -28.5548 -28.5548 -28.5257 -28.5257 -27.3295 -27.3295 -27.3288 -27.3288
   -27.3275 -27.3275 -27.3266 -27.3266 -27.3238 -27.3238 -27.3237 -27.3237
   -27.0915 -27.0915 -27.0799 -27.0799 -27.0536 -27.0536 -15.8350 -15.8350
   -15.8339 -15.8339 -15.8278 -15.8278 -15.8273 -15.8273 -12.8553 -12.8553
   -12.8536 -12.8535 -12.8474 -12.8474 -12.8466 -12.8466 -12.8379 -12.8379
   -12.8370 -12.8370  -2.7643  -2.7643  -2.4370  -2.4370  -1.8783  -1.8783
    -1.3996  -1.3996  -1.0322  -1.0322   3.9578   3.9578   4.7870   4.7870
     5.0429   5.0429   5.5101   5.5101   5.8489   5.8489   6.0819   6.0819
     6.9446   6.9446   7.8661   7.8661   7.9943   7.9943   9.6500   9.6500
    10.0218  10.0218  11.1305  11.1305  11.6969  11.6969  12.3545  12.3545
    12.6556  12.6556  12.8228  12.8228  14.6435  14.6435  14.7853  14.7853
    15.6865  15.6865  16.1409  16.1409  16.8825  16.8825  17.7748  17.7748
    17.8375  17.8375  18.0599  18.0599  18.5921  18.5921  19.3198  19.3198
    19.3735  19.3735  19.8652  19.8652  20.4272  20.4272  20.6799  20.6799
    20.9284  20.9284  21.1373  21.1373

     occupation numbers 
     1.0000   1.0000   1.0000   1.0000   1.0000   1.0000   1.0000   1.0000
     1.0000   1.0000   1.0000   1.0000   1.0000   1.0000   1.0000   1.0000
     1.0000   1.0000   1.0000   1.0000   1.0000   1.0000   1.0000   1.0000
     1.0000   1.0000   1.0000   1.0000   1.0000   1.0000   1.0000   1.0000
     1.0000   1.0000   1.0000   1.0000   1.0000   1.0000   1.0000   1.0000
     1.0000   1.0000   1.0000   1.0000   1.0000   1.0000   1.0000   1.0000
     1.0000   1.0000   1.0000   1.0000   1.0000   1.0000   1.0000   1.0000
     1.0000   1.0000   1.0000   1.0000   1.0000   1.0000   1.0000   1.0000
     1.0000   1.0000   1.0000   1.0000   1.0000   1.0000   1.0000   1.0000
     1.0000   1.0000   1.0000   1.0000   1.0000   1.0000  -0.0000  -0.0000
    -0.0000  -0.0000  -0.0000  -0.0000  -0.0000  -0.0000  -0.0000  -0.0000
    -0.0000  -0.0000  -0.0000  -0.0000  -0.0000  -0.0000  -0.0000  -0.0000
    -0.0000  -0.0000  -0.0000  -0.0000  -0.0000  -0.0000  -0.0000  -0.0000
    -0.0000  -0.0000  -0.0000  -0.0000  -0.0000  -0.0000  -0.0000  -0.0000
    -0.0000  -0.0000  -0.0000  -0.0000  -0.0000  -0.0000  -0.0000  -0.0000
    -0.0000  -0.0000  -0.0000  -0.0000

          k = 0.1689-1.6050 0.4456 ( 11914 PWs)   bands (ev):

   -28.7941 -28.7941 -28.7936 -28.7936 -28.7903 -28.7903 -28.7901 -28.7901
   -28.5548 -28.5548 -28.5257 -28.5257 -27.3295 -27.3295 -27.3288 -27.3288
   -27.3275 -27.3275 -27.3266 -27.3266 -27.3238 -27.3238 -27.3237 -27.3237
   -27.0915 -27.0915 -27.0799 -27.0799 -27.0536 -27.0536 -15.8350 -15.8350
   -15.8339 -15.8339 -15.8278 -15.8278 -15.8273 -15.8273 -12.8553 -12.8553
   -12.8536 -12.8535 -12.8474 -12.8474 -12.8466 -12.8466 -12.8379 -12.8379
   -12.8370 -12.8370  -2.7220  -2.7220  -2.5211  -2.5211  -1.8036  -1.8036
    -1.4228  -1.4228  -1.0421  -1.0421   4.0308   4.0308   4.6405   4.6405
     4.9697   4.9697   5.2635   5.2635   6.2409   6.2409   6.6707   6.6707
     6.9977   6.9977   7.2552   7.2552   7.5478   7.5478  10.1563  10.1563
    10.4322  10.4322  10.9914  10.9914  11.4532  11.4532  12.0863  12.0863
    12.7548  12.7548  13.0942  13.0942  13.6315  13.6315  14.7597  14.7597
    16.6704  16.6705  16.7222  16.7222  17.1314  17.1314  17.7739  17.7739
    17.9589  17.9589  18.1976  18.1976  18.3619  18.3619  18.9656  18.9656
    19.3167  19.3167  19.3960  19.3960  19.6953  19.6953  19.9037  19.9037
    20.5195  20.5195  21.1759  21.1759

     occupation numbers 
     1.0000   1.0000   1.0000   1.0000   1.0000   1.0000   1.0000   1.0000
     1.0000   1.0000   1.0000   1.0000   1.0000   1.0000   1.0000   1.0000
     1.0000   1.0000   1.0000   1.0000   1.0000   1.0000   1.0000   1.0000
     1.0000   1.0000   1.0000   1.0000   1.0000   1.0000   1.0000   1.0000
     1.0000   1.0000   1.0000   1.0000   1.0000   1.0000   1.0000   1.0000
     1.0000   1.0000   1.0000   1.0000   1.0000   1.0000   1.0000   1.0000
     1.0000   1.0000   1.0000   1.0000   1.0000   1.0000   1.0000   1.0000
     1.0000   1.0000   1.0000   1.0000   1.0000   1.0000   1.0000   1.0000
     1.0000   1.0000   1.0000   1.0000   1.0000   1.0000   1.0000   1.0000
     1.0000   1.0000   1.0000   1.0000   1.0000   1.0000  -0.0000  -0.0000
    -0.0000  -0.0000  -0.0000  -0.0000  -0.0000  -0.0000  -0.0000  -0.0000
    -0.0000  -0.0000  -0.0000  -0.0000  -0.0000  -0.0000  -0.0000  -0.0000
    -0.0000  -0.0000  -0.0000  -0.0000  -0.0000  -0.0000  -0.0000  -0.0000
    -0.0000  -0.0000  -0.0000  -0.0000  -0.0000  -0.0000  -0.0000  -0.0000
    -0.0000  -0.0000  -0.0000  -0.0000  -0.0000  -0.0000  -0.0000  -0.0000
    -0.0000  -0.0000  -0.0000  -0.0000

          k = 0.1684-1.6051 0.9123 ( 11904 PWs)   bands (ev):

   -28.7943 -28.7943 -28.7935 -28.7935 -28.7904 -28.7904 -28.7901 -28.7901
   -28.5549 -28.5549 -28.5258 -28.5258 -27.3294 -27.3294 -27.3290 -27.3290
   -27.3276 -27.3276 -27.3265 -27.3265 -27.3240 -27.3240 -27.3238 -27.3238
   -27.0915 -27.0915 -27.0799 -27.0799 -27.0537 -27.0537 -15.8351 -15.8351
   -15.8349 -15.8349 -15.8276 -15.8276 -15.8272 -15.8272 -12.8557 -12.8557
   -12.8546 -12.8546 -12.8465 -12.8465 -12.8461 -12.8461 -12.8387 -12.8387
   -12.8374 -12.8374  -3.2924  -3.2924  -2.9918  -2.9918  -1.8071  -1.8071
    -1.0884  -1.0884  -0.4123  -0.4123   4.4195   4.4195   4.8318   4.8318
     5.3598   5.3598   5.7349   5.7349   6.2632   6.2632   6.4459   6.4459
     7.5047   7.5047   8.0204   8.0204   8.3676   8.3676   8.9728   8.9728
    10.0405  10.0405  10.3627  10.3627  11.0458  11.0458  12.1696  12.1696
    12.5478  12.5478  13.0457  13.0457  13.8799  13.8799  15.1414  15.1414
    16.1760  16.1760  16.3319  16.3319  16.6975  16.6975  16.8422  16.8422
    17.4408  17.4408  17.7546  17.7546  17.9745  17.9745  18.2801  18.2801
    18.8160  18.8160  19.1540  19.1540  19.6821  19.6821  20.0035  20.0035
    20.3165  20.3165  20.7336  20.7336

     occupation numbers 
     1.0000   1.0000   1.0000   1.0000   1.0000   1.0000   1.0000   1.0000
     1.0000   1.0000   1.0000   1.0000   1.0000   1.0000   1.0000   1.0000
     1.0000   1.0000   1.0000   1.0000   1.0000   1.0000   1.0000   1.0000
     1.0000   1.0000   1.0000   1.0000   1.0000   1.0000   1.0000   1.0000
     1.0000   1.0000   1.0000   1.0000   1.0000   1.0000   1.0000   1.0000
     1.0000   1.0000   1.0000   1.0000   1.0000   1.0000   1.0000   1.0000
     1.0000   1.0000   1.0000   1.0000   1.0000   1.0000   1.0000   1.0000
     1.0000   1.0000   1.0000   1.0000   1.0000   1.0000   1.0000   1.0000
     1.0000   1.0000   1.0000   1.0000   1.0000   1.0000   1.0000   1.0000
     1.0000   1.0000   1.0000   1.0000   1.0154   1.0154  -0.0005  -0.0005
    -0.0000  -0.0000  -0.0000  -0.0000  -0.0000  -0.0000  -0.0000  -0.0000
    -0.0000  -0.0000  -0.0000  -0.0000  -0.0000  -0.0000  -0.0000  -0.0000
    -0.0000  -0.0000  -0.0000  -0.0000  -0.0000  -0.0000  -0.0000  -0.0000
    -0.0000  -0.0000  -0.0000  -0.0000  -0.0000  -0.0000  -0.0000  -0.0000
    -0.0000  -0.0000  -0.0000  -0.0000  -0.0000  -0.0000  -0.0000  -0.0000
    -0.0000  -0.0000  -0.0000  -0.0000

          k = 0.1680-1.6052 1.3791 ( 11894 PWs)   bands (ev):

   -28.7944 -28.7944 -28.7934 -28.7934 -28.7905 -28.7905 -28.7901 -28.7901
   -28.5549 -28.5549 -28.5258 -28.5258 -27.3295 -27.3295 -27.3290 -27.3290
   -27.3277 -27.3277 -27.3264 -27.3264 -27.3241 -27.3241 -27.3238 -27.3238
   -27.0916 -27.0916 -27.0798 -27.0798 -27.0538 -27.0538 -15.8355 -15.8355
   -15.8349 -15.8349 -15.8277 -15.8277 -15.8271 -15.8271 -12.8555 -12.8554
   -12.8538 -12.8538 -12.8467 -12.8467 -12.8463 -12.8462 -12.8393 -12.8393
   -12.8383 -12.8383  -3.4912  -3.4912  -3.1692  -3.1692  -1.8558  -1.8558
    -0.8709  -0.8709  -0.2330  -0.2330   4.6095   4.6095   4.9951   4.9951
     5.3815   5.3815   5.9595   5.9595   6.4569   6.4569   6.8668   6.8668
     7.3114   7.3114   7.8102   7.8102   7.9431   7.9431   9.7519   9.7519
     9.8968   9.8968  10.8878  10.8878  11.3867  11.3867  11.8147  11.8147
    12.2711  12.2711  13.4014  13.4014  13.4267  13.4267  14.2107  14.2107
    14.7799  14.7799  16.4915  16.4915  16.7050  16.7050  16.8840  16.8840
    17.2695  17.2695  17.6380  17.6380  17.9519  17.9519  18.2796  18.2796
    18.6123  18.6123  18.7090  18.7090  18.9940  18.9940  19.7864  19.7864
    20.2255  20.2255  20.4687  20.4687

     occupation numbers 
     1.0000   1.0000   1.0000   1.0000   1.0000   1.0000   1.0000   1.0000
     1.0000   1.0000   1.0000   1.0000   1.0000   1.0000   1.0000   1.0000
     1.0000   1.0000   1.0000   1.0000   1.0000   1.0000   1.0000   1.0000
     1.0000   1.0000   1.0000   1.0000   1.0000   1.0000   1.0000   1.0000
     1.0000   1.0000   1.0000   1.0000   1.0000   1.0000   1.0000   1.0000
     1.0000   1.0000   1.0000   1.0000   1.0000   1.0000   1.0000   1.0000
     1.0000   1.0000   1.0000   1.0000   1.0000   1.0000   1.0000   1.0000
     1.0000   1.0000   1.0000   1.0000   1.0000   1.0000   1.0000   1.0000
     1.0000   1.0000   1.0000   1.0000   1.0000   1.0000   1.0000   1.0000
     1.0000   1.0000   1.0000   1.0000   1.0000   1.0000  -0.0000  -0.0000
    -0.0000  -0.0000  -0.0000  -0.0000  -0.0000  -0.0000  -0.0000  -0.0000
    -0.0000  -0.0000  -0.0000  -0.0000  -0.0000  -0.0000  -0.0000  -0.0000
    -0.0000  -0.0000  -0.0000  -0.0000  -0.0000  -0.0000  -0.0000  -0.0000
    -0.0000  -0.0000  -0.0000  -0.0000  -0.0000  -0.0000  -0.0000  -0.0000
    -0.0000  -0.0000  -0.0000  -0.0000  -0.0000  -0.0000  -0.0000  -0.0000
    -0.0000  -0.0000  -0.0000  -0.0000

          k = 0.1702-1.6047-0.9548 ( 11898 PWs)   bands (ev):

   -28.7943 -28.7943 -28.7935 -28.7935 -28.7904 -28.7904 -28.7901 -28.7901
   -28.5548 -28.5548 -28.5258 -28.5258 -27.3294 -27.3294 -27.3290 -27.3290
   -27.3276 -27.3276 -27.3265 -27.3265 -27.3240 -27.3240 -27.3238 -27.3238
   -27.0915 -27.0915 -27.0799 -27.0799 -27.0537 -27.0537 -15.8351 -15.8351
   -15.8349 -15.8349 -15.8276 -15.8276 -15.8272 -15.8272 -12.8557 -12.8557
   -12.8546 -12.8546 -12.8465 -12.8465 -12.8461 -12.8461 -12.8386 -12.8386
   -12.8374 -12.8374  -3.2839  -3.2839  -2.9962  -2.9962  -1.8747  -1.8747
    -0.9037  -0.9037  -0.5354  -0.5354   4.1769   4.1769   5.0207   5.0207
     5.4723   5.4723   5.9951   5.9951   6.1103   6.1103   6.7977   6.7977
     7.2320   7.2320   7.5594   7.5594   7.8471   7.8471   9.5228   9.5228
    10.4797  10.4797  10.6582  10.6582  10.9762  10.9762  11.9378  11.9378
    12.5224  12.5224  12.7400  12.7400  13.9197  13.9197  15.4471  15.4471
    15.7730  15.7730  16.2625  16.2625  16.3816  16.3816  16.7445  16.7445
    16.8000  16.8000  17.5169  17.5169  18.4751  18.4751  18.9771  18.9771
    19.4892  19.4892  19.5473  19.5473  19.8427  19.8427  20.3118  20.3118
    20.6091  20.6091  21.3311  21.3314

     occupation numbers 
     1.0000   1.0000   1.0000   1.0000   1.0000   1.0000   1.0000   1.0000
     1.0000   1.0000   1.0000   1.0000   1.0000   1.0000   1.0000   1.0000
     1.0000   1.0000   1.0000   1.0000   1.0000   1.0000   1.0000   1.0000
     1.0000   1.0000   1.0000   1.0000   1.0000   1.0000   1.0000   1.0000
     1.0000   1.0000   1.0000   1.0000   1.0000   1.0000   1.0000   1.0000
     1.0000   1.0000   1.0000   1.0000   1.0000   1.0000   1.0000   1.0000
     1.0000   1.0000   1.0000   1.0000   1.0000   1.0000   1.0000   1.0000
     1.0000   1.0000   1.0000   1.0000   1.0000   1.0000   1.0000   1.0000
     1.0000   1.0000   1.0000   1.0000   1.0000   1.0000   1.0000   1.0000
     1.0000   1.0000   1.0000   1.0000   1.0000   1.0000  -0.0000  -0.0000
    -0.0000  -0.0000  -0.0000  -0.0000  -0.0000  -0.0000  -0.0000  -0.0000
    -0.0000  -0.0000  -0.0000  -0.0000  -0.0000  -0.0000  -0.0000  -0.0000
    -0.0000  -0.0000  -0.0000  -0.0000  -0.0000  -0.0000  -0.0000  -0.0000
    -0.0000  -0.0000  -0.0000  -0.0000  -0.0000  -0.0000  -0.0000  -0.0000
    -0.0000  -0.0000  -0.0000  -0.0000  -0.0000  -0.0000  -0.0000  -0.0000
    -0.0000  -0.0000  -0.0000  -0.0000

          k = 0.1698-1.6048-0.4880 ( 11915 PWs)   bands (ev):

   -28.7941 -28.7941 -28.7936 -28.7936 -28.7903 -28.7903 -28.7901 -28.7901
   -28.5548 -28.5548 -28.5257 -28.5257 -27.3295 -27.3295 -27.3288 -27.3288
   -27.3275 -27.3275 -27.3266 -27.3266 -27.3238 -27.3238 -27.3237 -27.3237
   -27.0915 -27.0915 -27.0799 -27.0799 -27.0536 -27.0536 -15.8350 -15.8350
   -15.8339 -15.8339 -15.8278 -15.8278 -15.8273 -15.8273 -12.8553 -12.8553
   -12.8536 -12.8535 -12.8474 -12.8474 -12.8466 -12.8466 -12.8378 -12.8378
   -12.8370 -12.8370  -2.7117  -2.7117  -2.5203  -2.5203  -1.8763  -1.8763
    -1.3000  -1.3000  -1.1032  -1.1032   4.2156   4.2156   4.7078   4.7078
     4.8313   4.8313   5.1531   5.1531   5.7735   5.7735   6.2437   6.2437
     7.6044   7.6044   7.8637   7.8637   8.0938   8.0938   9.3481   9.3481
    10.0177  10.0177  10.4394  10.4394  11.7561  11.7562  12.3719  12.3719
    12.8348  12.8348  13.2832  13.2832  14.1745  14.1745  14.9967  14.9967
    15.8459  15.8459  16.2108  16.2108  16.9283  16.9283  17.8334  17.8334
    17.9915  17.9915  18.2871  18.2871  18.8459  18.8459  19.0331  19.0331
    19.4103  19.4103  19.8501  19.8501  19.9763  19.9763  20.3854  20.3854
    20.6451  20.6451  20.9448  20.9448

     occupation numbers 
     1.0000   1.0000   1.0000   1.0000   1.0000   1.0000   1.0000   1.0000
     1.0000   1.0000   1.0000   1.0000   1.0000   1.0000   1.0000   1.0000
     1.0000   1.0000   1.0000   1.0000   1.0000   1.0000   1.0000   1.0000
     1.0000   1.0000   1.0000   1.0000   1.0000   1.0000   1.0000   1.0000
     1.0000   1.0000   1.0000   1.0000   1.0000   1.0000   1.0000   1.0000
     1.0000   1.0000   1.0000   1.0000   1.0000   1.0000   1.0000   1.0000
     1.0000   1.0000   1.0000   1.0000   1.0000   1.0000   1.0000   1.0000
     1.0000   1.0000   1.0000   1.0000   1.0000   1.0000   1.0000   1.0000
     1.0000   1.0000   1.0000   1.0000   1.0000   1.0000   1.0000   1.0000
     1.0000   1.0000   1.0000   1.0000   1.0000   1.0000  -0.0000  -0.0000
    -0.0000  -0.0000  -0.0000  -0.0000  -0.0000  -0.0000  -0.0000  -0.0000
    -0.0000  -0.0000  -0.0000  -0.0000  -0.0000  -0.0000  -0.0000  -0.0000
    -0.0000  -0.0000  -0.0000  -0.0000  -0.0000  -0.0000  -0.0000  -0.0000
    -0.0000  -0.0000  -0.0000  -0.0000  -0.0000  -0.0000  -0.0000  -0.0000
    -0.0000  -0.0000  -0.0000  -0.0000  -0.0000  -0.0000  -0.0000  -0.0000
    -0.0000  -0.0000  -0.0000  -0.0000

          k = 0.1693-1.6049-0.0212 ( 11936 PWs)   bands (ev):

   -28.7940 -28.7939 -28.7938 -28.7938 -28.7901 -28.7901 -28.7901 -28.7901
   -28.5548 -28.5548 -28.5257 -28.5257 -27.3296 -27.3296 -27.3286 -27.3286
   -27.3276 -27.3275 -27.3266 -27.3266 -27.3238 -27.3238 -27.3237 -27.3236
   -27.0915 -27.0915 -27.0799 -27.0799 -27.0535 -27.0535 -15.8349 -15.8349
   -15.8332 -15.8332 -15.8281 -15.8281 -15.8273 -15.8273 -12.8534 -12.8534
   -12.8515 -12.8515 -12.8495 -12.8495 -12.8477 -12.8477 -12.8375 -12.8374
   -12.8374 -12.8374  -1.9560  -1.9560  -1.9407  -1.9407  -1.9110  -1.9110
    -1.8819  -1.8819  -1.7752  -1.7752   4.0985   4.0985   4.5319   4.5319
     4.6591   4.6591   5.0808   5.0808   5.5424   5.5424   6.2671   6.2671
     6.9657   6.9657   7.7016   7.7016   7.8886   7.8886   9.6145   9.6145
    10.4883  10.4883  11.1435  11.1435  12.0198  12.0198  12.5270  12.5270
    12.8971  12.8971  14.2688  14.2688  14.7129  14.7129  14.9199  14.9199
    15.0287  15.0287  15.4299  15.4299  16.4837  16.4837  17.3302  17.3302
    17.5002  17.5002  18.5056  18.5056  18.6024  18.6024  18.9392  18.9392
    19.1968  19.1968  19.8683  19.8683  20.1003  20.1003  21.0763  21.0763
    21.5588  21.5589  21.8311  21.8317

     occupation numbers 
     1.0000   1.0000   1.0000   1.0000   1.0000   1.0000   1.0000   1.0000
     1.0000   1.0000   1.0000   1.0000   1.0000   1.0000   1.0000   1.0000
     1.0000   1.0000   1.0000   1.0000   1.0000   1.0000   1.0000   1.0000
     1.0000   1.0000   1.0000   1.0000   1.0000   1.0000   1.0000   1.0000
     1.0000   1.0000   1.0000   1.0000   1.0000   1.0000   1.0000   1.0000
     1.0000   1.0000   1.0000   1.0000   1.0000   1.0000   1.0000   1.0000
     1.0000   1.0000   1.0000   1.0000   1.0000   1.0000   1.0000   1.0000
     1.0000   1.0000   1.0000   1.0000   1.0000   1.0000   1.0000   1.0000
     1.0000   1.0000   1.0000   1.0000   1.0000   1.0000   1.0000   1.0000
     1.0000   1.0000   1.0000   1.0000   1.0000   1.0000  -0.0000  -0.0000
    -0.0000  -0.0000  -0.0000  -0.0000  -0.0000  -0.0000  -0.0000  -0.0000
    -0.0000  -0.0000  -0.0000  -0.0000  -0.0000  -0.0000  -0.0000  -0.0000
    -0.0000  -0.0000  -0.0000  -0.0000  -0.0000  -0.0000  -0.0000  -0.0000
    -0.0000  -0.0000  -0.0000  -0.0000  -0.0000  -0.0000  -0.0000  -0.0000
    -0.0000  -0.0000  -0.0000  -0.0000  -0.0000  -0.0000  -0.0000  -0.0000
    -0.0000  -0.0000  -0.0000  -0.0000

          k = 0.1684-1.1948 0.2228 ( 11920 PWs)   bands (ev):

   -28.7941 -28.7941 -28.7936 -28.7936 -28.7903 -28.7903 -28.7901 -28.7901
   -28.5548 -28.5548 -28.5257 -28.5257 -27.3295 -27.3295 -27.3288 -27.3288
   -27.3275 -27.3275 -27.3266 -27.3266 -27.3238 -27.3238 -27.3237 -27.3237
   -27.0915 -27.0915 -27.0799 -27.0799 -27.0536 -27.0536 -15.8350 -15.8350
   -15.8339 -15.8339 -15.8278 -15.8278 -15.8273 -15.8273 -12.8553 -12.8553
   -12.8536 -12.8535 -12.8474 -12.8474 -12.8466 -12.8466 -12.8379 -12.8379
   -12.8370 -12.8370  -2.7551  -2.7551  -2.4656  -2.4656  -1.8255  -1.8255
    -1.4435  -1.4435  -1.0218  -1.0218   3.9448   3.9448   4.6863   4.6863
     5.0140   5.0140   5.5492   5.5492   6.1187   6.1187   6.3547   6.3547
     6.7908   6.7908   7.4961   7.4961   7.6660   7.6660  10.0764  10.0764
    10.3126  10.3126  11.2037  11.2037  11.6866  11.6866  12.1322  12.1322
    12.4755  12.4755  12.8839  12.8839  14.0514  14.0514  14.7639  14.7639
    16.1735  16.1735  16.7718  16.7718  17.1330  17.1330  17.3179  17.3179
    17.8477  17.8477  18.1124  18.1124  18.6530  18.6530  19.0934  19.0934
    19.3064  19.3064  19.7276  19.7276  20.0042  20.0042  20.2206  20.2206
    20.6043  20.6043  21.0207  21.0207

     occupation numbers 
     1.0000   1.0000   1.0000   1.0000   1.0000   1.0000   1.0000   1.0000
     1.0000   1.0000   1.0000   1.0000   1.0000   1.0000   1.0000   1.0000
     1.0000   1.0000   1.0000   1.0000   1.0000   1.0000   1.0000   1.0000
     1.0000   1.0000   1.0000   1.0000   1.0000   1.0000   1.0000   1.0000
     1.0000   1.0000   1.0000   1.0000   1.0000   1.0000   1.0000   1.0000
     1.0000   1.0000   1.0000   1.0000   1.0000   1.0000   1.0000   1.0000
     1.0000   1.0000   1.0000   1.0000   1.0000   1.0000   1.0000   1.0000
     1.0000   1.0000   1.0000   1.0000   1.0000   1.0000   1.0000   1.0000
     1.0000   1.0000   1.0000   1.0000   1.0000   1.0000   1.0000   1.0000
     1.0000   1.0000   1.0000   1.0000   1.0000   1.0000  -0.0000  -0.0000
    -0.0000  -0.0000  -0.0000  -0.0000  -0.0000  -0.0000  -0.0000  -0.0000
    -0.0000  -0.0000  -0.0000  -0.0000  -0.0000  -0.0000  -0.0000  -0.0000
    -0.0000  -0.0000  -0.0000  -0.0000  -0.0000  -0.0000  -0.0000  -0.0000
    -0.0000  -0.0000  -0.0000  -0.0000  -0.0000  -0.0000  -0.0000  -0.0000
    -0.0000  -0.0000  -0.0000  -0.0000  -0.0000  -0.0000  -0.0000  -0.0000
    -0.0000  -0.0000  -0.0000  -0.0000

          k = 0.1680-1.1949 0.6896 ( 11935 PWs)   bands (ev):

   -28.7941 -28.7941 -28.7936 -28.7936 -28.7903 -28.7903 -28.7901 -28.7901
   -28.5548 -28.5548 -28.5257 -28.5257 -27.3294 -27.3294 -27.3289 -27.3289
   -27.3274 -27.3274 -27.3267 -27.3267 -27.3238 -27.3238 -27.3237 -27.3237
   -27.0915 -27.0915 -27.0799 -27.0799 -27.0536 -27.0536 -15.8346 -15.8346
   -15.8345 -15.8345 -15.8276 -15.8276 -15.8274 -15.8274 -12.8563 -12.8563
   -12.8556 -12.8556 -12.8464 -12.8464 -12.8458 -12.8458 -12.8375 -12.8375
   -12.8361 -12.8361  -2.5508  -2.5508  -2.5239  -2.5239  -2.1145  -2.1145
    -1.3928  -1.3928  -0.9527  -0.9527   3.7607   3.7607   4.9869   4.9869
     5.1810   5.1810   5.6357   5.6357   5.8995   5.8995   6.3794   6.3794
     6.7623   6.7623   7.6693   7.6693   8.0801   8.0801   9.2184   9.2184
    10.3670  10.3670  10.7731  10.7731  11.1281  11.1281  12.0134  12.0134
    12.4521  12.4521  12.8292  12.8292  13.8356  13.8356  16.3509  16.3509
    17.0614  17.0614  17.2942  17.2942  17.5110  17.5110  17.8302  17.8302
    18.1657  18.1657  18.3053  18.3053  18.9363  18.9363  19.0087  19.0087
    19.0911  19.0911  19.5511  19.5511  19.6696  19.6696  20.1499  20.1499
    20.2597  20.2597  20.7519  20.7520

     occupation numbers 
     1.0000   1.0000   1.0000   1.0000   1.0000   1.0000   1.0000   1.0000
     1.0000   1.0000   1.0000   1.0000   1.0000   1.0000   1.0000   1.0000
     1.0000   1.0000   1.0000   1.0000   1.0000   1.0000   1.0000   1.0000
     1.0000   1.0000   1.0000   1.0000   1.0000   1.0000   1.0000   1.0000
     1.0000   1.0000   1.0000   1.0000   1.0000   1.0000   1.0000   1.0000
     1.0000   1.0000   1.0000   1.0000   1.0000   1.0000   1.0000   1.0000
     1.0000   1.0000   1.0000   1.0000   1.0000   1.0000   1.0000   1.0000
     1.0000   1.0000   1.0000   1.0000   1.0000   1.0000   1.0000   1.0000
     1.0000   1.0000   1.0000   1.0000   1.0000   1.0000   1.0000   1.0000
     1.0000   1.0000   1.0000   1.0000   1.0000   1.0000  -0.0000  -0.0000
    -0.0000  -0.0000  -0.0000  -0.0000  -0.0000  -0.0000  -0.0000  -0.0000
    -0.0000  -0.0000  -0.0000  -0.0000  -0.0000  -0.0000  -0.0000  -0.0000
    -0.0000  -0.0000  -0.0000  -0.0000  -0.0000  -0.0000  -0.0000  -0.0000
    -0.0000  -0.0000  -0.0000  -0.0000  -0.0000  -0.0000  -0.0000  -0.0000
    -0.0000  -0.0000  -0.0000  -0.0000  -0.0000  -0.0000  -0.0000  -0.0000
    -0.0000  -0.0000  -0.0000  -0.0000

          k = 0.1675-1.1950 1.1563 ( 11918 PWs)   bands (ev):

   -28.7941 -28.7941 -28.7936 -28.7936 -28.7903 -28.7903 -28.7901 -28.7901
   -28.5548 -28.5548 -28.5257 -28.5257 -27.3295 -27.3295 -27.3288 -27.3288
   -27.3275 -27.3275 -27.3266 -27.3266 -27.3238 -27.3238 -27.3237 -27.3237
   -27.0915 -27.0915 -27.0799 -27.0799 -27.0536 -27.0536 -15.8350 -15.8350
   -15.8339 -15.8339 -15.8278 -15.8278 -15.8273 -15.8273 -12.8553 -12.8553
   -12.8536 -12.8535 -12.8474 -12.8474 -12.8466 -12.8466 -12.8379 -12.8379
   -12.8370 -12.8370  -2.6908  -2.6908  -2.5576  -2.5576  -1.8328  -1.8328
    -1.3486  -1.3486  -1.0818  -1.0818   4.1779   4.1779   4.6719   4.6719
     4.8396   4.8396   5.0870   5.0870   6.0372   6.0372   6.5574   6.5574
     7.2968   7.2968   7.5101   7.5101   7.8450   7.8450   9.6841   9.6841
    10.3260  10.3260  10.6886  10.6886  11.5674  11.5674  12.1590  12.1590
    12.9183  12.9183  13.2538  13.2538  13.7364  13.7364  14.8310  14.8310
    16.2055  16.2055  16.8654  16.8654  17.1129  17.1129  17.7852  17.7852
    17.9819  17.9819  18.2055  18.2055  18.6554  18.6554  18.7993  18.7993
    19.3075  19.3075  19.6576  19.6576  19.8438  19.8438  19.9980  19.9980
    20.3874  20.3874  21.0897  21.0904

     occupation numbers 
     1.0000   1.0000   1.0000   1.0000   1.0000   1.0000   1.0000   1.0000
     1.0000   1.0000   1.0000   1.0000   1.0000   1.0000   1.0000   1.0000
     1.0000   1.0000   1.0000   1.0000   1.0000   1.0000   1.0000   1.0000
     1.0000   1.0000   1.0000   1.0000   1.0000   1.0000   1.0000   1.0000
     1.0000   1.0000   1.0000   1.0000   1.0000   1.0000   1.0000   1.0000
     1.0000   1.0000   1.0000   1.0000   1.0000   1.0000   1.0000   1.0000
     1.0000   1.0000   1.0000   1.0000   1.0000   1.0000   1.0000   1.0000
     1.0000   1.0000   1.0000   1.0000   1.0000   1.0000   1.0000   1.0000
     1.0000   1.0000   1.0000   1.0000   1.0000   1.0000   1.0000   1.0000
     1.0000   1.0000   1.0000   1.0000   1.0000   1.0000  -0.0000  -0.0000
    -0.0000  -0.0000  -0.0000  -0.0000  -0.0000  -0.0000  -0.0000  -0.0000
    -0.0000  -0.0000  -0.0000  -0.0000  -0.0000  -0.0000  -0.0000  -0.0000
    -0.0000  -0.0000  -0.0000  -0.0000  -0.0000  -0.0000  -0.0000  -0.0000
    -0.0000  -0.0000  -0.0000  -0.0000  -0.0000  -0.0000  -0.0000  -0.0000
    -0.0000  -0.0000  -0.0000  -0.0000  -0.0000  -0.0000  -0.0000  -0.0000
    -0.0000  -0.0000  -0.0000  -0.0000

          k = 0.1698-1.1945-1.1776 ( 11915 PWs)   bands (ev):

   -28.7941 -28.7941 -28.7936 -28.7936 -28.7903 -28.7903 -28.7901 -28.7901
   -28.5548 -28.5548 -28.5257 -28.5257 -27.3295 -27.3295 -27.3288 -27.3288
   -27.3275 -27.3275 -27.3266 -27.3266 -27.3238 -27.3238 -27.3237 -27.3237
   -27.0915 -27.0915 -27.0799 -27.0799 -27.0536 -27.0536 -15.8350 -15.8350
   -15.8339 -15.8339 -15.8278 -15.8278 -15.8273 -15.8273 -12.8553 -12.8553
   -12.8536 -12.8535 -12.8474 -12.8474 -12.8466 -12.8466 -12.8378 -12.8378
   -12.8370 -12.8370  -2.7117  -2.7117  -2.5203  -2.5203  -1.8763  -1.8763
    -1.3000  -1.3000  -1.1032  -1.1032   4.2156   4.2156   4.7078   4.7078
     4.8313   4.8313   5.1531   5.1531   5.7735   5.7735   6.2437   6.2437
     7.6044   7.6044   7.8637   7.8637   8.0938   8.0938   9.3481   9.3481
    10.0177  10.0177  10.4394  10.4394  11.7561  11.7562  12.3719  12.3719
    12.8348  12.8348  13.2832  13.2832  14.1745  14.1745  14.9967  14.9967
    15.8459  15.8459  16.2108  16.2108  16.9283  16.9283  17.8334  17.8334
    17.9915  17.9915  18.2871  18.2871  18.8459  18.8459  19.0331  19.0331
    19.4103  19.4103  19.8501  19.8501  19.9763  19.9763  20.3854  20.3854
    20.6451  20.6451  20.9447  20.9448

     occupation numbers 
     1.0000   1.0000   1.0000   1.0000   1.0000   1.0000   1.0000   1.0000
     1.0000   1.0000   1.0000   1.0000   1.0000   1.0000   1.0000   1.0000
     1.0000   1.0000   1.0000   1.0000   1.0000   1.0000   1.0000   1.0000
     1.0000   1.0000   1.0000   1.0000   1.0000   1.0000   1.0000   1.0000
     1.0000   1.0000   1.0000   1.0000   1.0000   1.0000   1.0000   1.0000
     1.0000   1.0000   1.0000   1.0000   1.0000   1.0000   1.0000   1.0000
     1.0000   1.0000   1.0000   1.0000   1.0000   1.0000   1.0000   1.0000
     1.0000   1.0000   1.0000   1.0000   1.0000   1.0000   1.0000   1.0000
     1.0000   1.0000   1.0000   1.0000   1.0000   1.0000   1.0000   1.0000
     1.0000   1.0000   1.0000   1.0000   1.0000   1.0000  -0.0000  -0.0000
    -0.0000  -0.0000  -0.0000  -0.0000  -0.0000  -0.0000  -0.0000  -0.0000
    -0.0000  -0.0000  -0.0000  -0.0000  -0.0000  -0.0000  -0.0000  -0.0000
    -0.0000  -0.0000  -0.0000  -0.0000  -0.0000  -0.0000  -0.0000  -0.0000
    -0.0000  -0.0000  -0.0000  -0.0000  -0.0000  -0.0000  -0.0000  -0.0000
    -0.0000  -0.0000  -0.0000  -0.0000  -0.0000  -0.0000  -0.0000  -0.0000
    -0.0000  -0.0000  -0.0000  -0.0000

          k = 0.1693-1.1946-0.7108 ( 11906 PWs)   bands (ev):

   -28.7941 -28.7941 -28.7936 -28.7936 -28.7903 -28.7903 -28.7901 -28.7901
   -28.5548 -28.5548 -28.5257 -28.5257 -27.3294 -27.3294 -27.3289 -27.3289
   -27.3274 -27.3274 -27.3267 -27.3267 -27.3237 -27.3237 -27.3237 -27.3237
   -27.0915 -27.0915 -27.0799 -27.0799 -27.0536 -27.0536 -15.8346 -15.8346
   -15.8345 -15.8345 -15.8276 -15.8276 -15.8274 -15.8274 -12.8563 -12.8563
   -12.8556 -12.8556 -12.8464 -12.8464 -12.8458 -12.8458 -12.8375 -12.8375
   -12.8361 -12.8361  -2.5515  -2.5515  -2.5352  -2.5352  -2.0607  -2.0607
    -1.4991  -1.4991  -0.8836  -0.8836   3.9006   3.9006   4.7604   4.7604
     4.9228   4.9228   5.7696   5.7696   5.8929   5.8929   6.6247   6.6247
     7.0208   7.0208   7.6671   7.6671   7.7413   7.7413   9.4934   9.4934
    10.2533  10.2533  10.6794  10.6794  10.9175  10.9175  11.9158  11.9158
    12.3693  12.3693  13.3168  13.3168  14.0617  14.0617  15.4898  15.4898
    17.1186  17.1186  17.2061  17.2061  17.7718  17.7718  17.8240  17.8240
    18.2283  18.2283  18.3838  18.3838  19.0793  19.0793  19.1324  19.1324
    19.3130  19.3130  19.6213  19.6213  19.8226  19.8226  19.9937  19.9937
    20.3540  20.3540  20.8052  20.8052

     occupation numbers 
     1.0000   1.0000   1.0000   1.0000   1.0000   1.0000   1.0000   1.0000
     1.0000   1.0000   1.0000   1.0000   1.0000   1.0000   1.0000   1.0000
     1.0000   1.0000   1.0000   1.0000   1.0000   1.0000   1.0000   1.0000
     1.0000   1.0000   1.0000   1.0000   1.0000   1.0000   1.0000   1.0000
     1.0000   1.0000   1.0000   1.0000   1.0000   1.0000   1.0000   1.0000
     1.0000   1.0000   1.0000   1.0000   1.0000   1.0000   1.0000   1.0000
     1.0000   1.0000   1.0000   1.0000   1.0000   1.0000   1.0000   1.0000
     1.0000   1.0000   1.0000   1.0000   1.0000   1.0000   1.0000   1.0000
     1.0000   1.0000   1.0000   1.0000   1.0000   1.0000   1.0000   1.0000
     1.0000   1.0000   1.0000   1.0000   1.0000   1.0000  -0.0000  -0.0000
    -0.0000  -0.0000  -0.0000  -0.0000  -0.0000  -0.0000  -0.0000  -0.0000
    -0.0000  -0.0000  -0.0000  -0.0000  -0.0000  -0.0000  -0.0000  -0.0000
    -0.0000  -0.0000  -0.0000  -0.0000  -0.0000  -0.0000  -0.0000  -0.0000
    -0.0000  -0.0000  -0.0000  -0.0000  -0.0000  -0.0000  -0.0000  -0.0000
    -0.0000  -0.0000  -0.0000  -0.0000  -0.0000  -0.0000  -0.0000  -0.0000
    -0.0000  -0.0000  -0.0000  -0.0000

          k = 0.1689-1.1947-0.2440 ( 11915 PWs)   bands (ev):

   -28.7941 -28.7941 -28.7936 -28.7936 -28.7903 -28.7903 -28.7901 -28.7901
   -28.5548 -28.5548 -28.5257 -28.5257 -27.3295 -27.3295 -27.3288 -27.3288
   -27.3275 -27.3275 -27.3266 -27.3266 -27.3238 -27.3238 -27.3237 -27.3237
   -27.0915 -27.0915 -27.0799 -27.0799 -27.0536 -27.0536 -15.8350 -15.8350
   -15.8339 -15.8339 -15.8278 -15.8278 -15.8273 -15.8273 -12.8553 -12.8553
   -12.8536 -12.8535 -12.8474 -12.8474 -12.8466 -12.8466 -12.8379 -12.8379
   -12.8370 -12.8370  -2.7643  -2.7643  -2.4370  -2.4370  -1.8783  -1.8783
    -1.3996  -1.3996  -1.0322  -1.0322   3.9578   3.9578   4.7870   4.7870
     5.0429   5.0429   5.5101   5.5101   5.8489   5.8489   6.0819   6.0819
     6.9446   6.9446   7.8661   7.8661   7.9943   7.9943   9.6500   9.6500
    10.0218  10.0218  11.1304  11.1304  11.6969  11.6969  12.3545  12.3545
    12.6556  12.6556  12.8228  12.8228  14.6435  14.6435  14.7853  14.7853
    15.6865  15.6865  16.1409  16.1409  16.8825  16.8825  17.7748  17.7748
    17.8375  17.8375  18.0599  18.0599  18.5921  18.5921  19.3198  19.3198
    19.3735  19.3735  19.8652  19.8652  20.4272  20.4272  20.6799  20.6799
    20.9284  20.9284  21.1373  21.1373

     occupation numbers 
     1.0000   1.0000   1.0000   1.0000   1.0000   1.0000   1.0000   1.0000
     1.0000   1.0000   1.0000   1.0000   1.0000   1.0000   1.0000   1.0000
     1.0000   1.0000   1.0000   1.0000   1.0000   1.0000   1.0000   1.0000
     1.0000   1.0000   1.0000   1.0000   1.0000   1.0000   1.0000   1.0000
     1.0000   1.0000   1.0000   1.0000   1.0000   1.0000   1.0000   1.0000
     1.0000   1.0000   1.0000   1.0000   1.0000   1.0000   1.0000   1.0000
     1.0000   1.0000   1.0000   1.0000   1.0000   1.0000   1.0000   1.0000
     1.0000   1.0000   1.0000   1.0000   1.0000   1.0000   1.0000   1.0000
     1.0000   1.0000   1.0000   1.0000   1.0000   1.0000   1.0000   1.0000
     1.0000   1.0000   1.0000   1.0000   1.0000   1.0000  -0.0000  -0.0000
    -0.0000  -0.0000  -0.0000  -0.0000  -0.0000  -0.0000  -0.0000  -0.0000
    -0.0000  -0.0000  -0.0000  -0.0000  -0.0000  -0.0000  -0.0000  -0.0000
    -0.0000  -0.0000  -0.0000  -0.0000  -0.0000  -0.0000  -0.0000  -0.0000
    -0.0000  -0.0000  -0.0000  -0.0000  -0.0000  -0.0000  -0.0000  -0.0000
    -0.0000  -0.0000  -0.0000  -0.0000  -0.0000  -0.0000  -0.0000  -0.0000
    -0.0000  -0.0000  -0.0000  -0.0000

          k = 0.1679-0.7846-0.0000 ( 11899 PWs)   bands (ev):

   -28.7944 -28.7944 -28.7934 -28.7934 -28.7905 -28.7905 -28.7901 -28.7901
   -28.5549 -28.5549 -28.5258 -28.5258 -27.3295 -27.3294 -27.3290 -27.3290
   -27.3277 -27.3277 -27.3265 -27.3265 -27.3241 -27.3241 -27.3238 -27.3238
   -27.0916 -27.0916 -27.0799 -27.0799 -27.0538 -27.0538 -15.8355 -15.8355
   -15.8349 -15.8349 -15.8277 -15.8277 -15.8271 -15.8271 -12.8555 -12.8555
   -12.8538 -12.8538 -12.8467 -12.8467 -12.8463 -12.8462 -12.8393 -12.8393
   -12.8383 -12.8383  -3.5594  -3.5594  -3.0235  -3.0235  -2.0365  -2.0365
    -0.6413  -0.6413  -0.3591  -0.3591   4.7694   4.7694   5.0392   5.0392
     5.3449   5.3449   5.6756   5.6756   6.4353   6.4353   6.5089   6.5089
     7.6420   7.6420   8.1375   8.1375   8.2652   8.2652   9.3453   9.3453
     9.7224   9.7224  10.4126  10.4126  11.5262  11.5262  12.1754  12.1754
    12.5398  12.5398  13.1657  13.1657  13.2935  13.2935  15.3236  15.3236
    15.6279  15.6279  15.9351  15.9351  15.9980  15.9980  16.2106  16.2106
    16.8101  16.8101  17.0045  17.0045  17.4036  17.4036  17.8390  17.8390
    19.0239  19.0239  19.5518  19.5518  19.7564  19.7564  20.2034  20.2034
    20.4638  20.4638  20.6486  20.6486

     occupation numbers 
     1.0000   1.0000   1.0000   1.0000   1.0000   1.0000   1.0000   1.0000
     1.0000   1.0000   1.0000   1.0000   1.0000   1.0000   1.0000   1.0000
     1.0000   1.0000   1.0000   1.0000   1.0000   1.0000   1.0000   1.0000
     1.0000   1.0000   1.0000   1.0000   1.0000   1.0000   1.0000   1.0000
     1.0000   1.0000   1.0000   1.0000   1.0000   1.0000   1.0000   1.0000
     1.0000   1.0000   1.0000   1.0000   1.0000   1.0000   1.0000   1.0000
     1.0000   1.0000   1.0000   1.0000   1.0000   1.0000   1.0000   1.0000
     1.0000   1.0000   1.0000   1.0000   1.0000   1.0000   1.0000   1.0000
     1.0000   1.0000   1.0000   1.0000   1.0000   1.0000   1.0000   1.0000
     1.0000   1.0000   1.0000   1.0000   1.0010   1.0010  -0.0000  -0.0000
    -0.0000  -0.0000  -0.0000  -0.0000  -0.0000  -0.0000  -0.0000  -0.0000
    -0.0000  -0.0000  -0.0000  -0.0000  -0.0000  -0.0000  -0.0000  -0.0000
    -0.0000  -0.0000  -0.0000  -0.0000  -0.0000  -0.0000  -0.0000  -0.0000
    -0.0000  -0.0000  -0.0000  -0.0000  -0.0000  -0.0000  -0.0000  -0.0000
    -0.0000  -0.0000  -0.0000  -0.0000  -0.0000  -0.0000  -0.0000  -0.0000
    -0.0000  -0.0000  -0.0000  -0.0000

          k = 0.1675-0.7847 0.4668 ( 11916 PWs)   bands (ev):

   -28.7943 -28.7943 -28.7935 -28.7935 -28.7904 -28.7904 -28.7901 -28.7901
   -28.5549 -28.5549 -28.5258 -28.5258 -27.3294 -27.3294 -27.3290 -27.3290
   -27.3276 -27.3276 -27.3265 -27.3265 -27.3240 -27.3240 -27.3238 -27.3238
   -27.0915 -27.0915 -27.0799 -27.0799 -27.0537 -27.0537 -15.8351 -15.8351
   -15.8349 -15.8349 -15.8276 -15.8276 -15.8272 -15.8272 -12.8558 -12.8557
   -12.8546 -12.8546 -12.8465 -12.8465 -12.8461 -12.8461 -12.8387 -12.8387
   -12.8374 -12.8374  -3.3520  -3.3520  -2.8620  -2.8620  -1.9817  -1.9817
    -0.9179  -0.9179  -0.4725  -0.4725   4.1336   4.1336   5.0783   5.0783
     5.5317   5.5317   5.9992   5.9992   6.1847   6.1847   6.6928   6.6928
     7.0442   7.0442   7.5152   7.5152   7.8982   7.8982   9.5793   9.5793
    10.4951  10.4951  10.7025  10.7025  11.3223  11.3223  11.8859  11.8859
    12.3530  12.3530  12.4075  12.4075  14.5904  14.5904  14.9603  14.9603
    15.6007  15.6007  16.2302  16.2302  16.6300  16.6300  17.0540  17.0540
    17.5709  17.5709  17.7069  17.7069  17.7653  17.7653  18.4122  18.4122
    18.6273  18.6273  18.6852  18.6852  19.1761  19.1761  21.0759  21.0759
    21.2126  21.2127  21.5355  21.5358

     occupation numbers 
     1.0000   1.0000   1.0000   1.0000   1.0000   1.0000   1.0000   1.0000
     1.0000   1.0000   1.0000   1.0000   1.0000   1.0000   1.0000   1.0000
     1.0000   1.0000   1.0000   1.0000   1.0000   1.0000   1.0000   1.0000
     1.0000   1.0000   1.0000   1.0000   1.0000   1.0000   1.0000   1.0000
     1.0000   1.0000   1.0000   1.0000   1.0000   1.0000   1.0000   1.0000
     1.0000   1.0000   1.0000   1.0000   1.0000   1.0000   1.0000   1.0000
     1.0000   1.0000   1.0000   1.0000   1.0000   1.0000   1.0000   1.0000
     1.0000   1.0000   1.0000   1.0000   1.0000   1.0000   1.0000   1.0000
     1.0000   1.0000   1.0000   1.0000   1.0000   1.0000   1.0000   1.0000
     1.0000   1.0000   1.0000   1.0000   1.0000   1.0000  -0.0000  -0.0000
    -0.0000  -0.0000  -0.0000  -0.0000  -0.0000  -0.0000  -0.0000  -0.0000
    -0.0000  -0.0000  -0.0000  -0.0000  -0.0000  -0.0000  -0.0000  -0.0000
    -0.0000  -0.0000  -0.0000  -0.0000  -0.0000  -0.0000  -0.0000  -0.0000
    -0.0000  -0.0000  -0.0000  -0.0000  -0.0000  -0.0000  -0.0000  -0.0000
    -0.0000  -0.0000  -0.0000  -0.0000  -0.0000  -0.0000  -0.0000  -0.0000
    -0.0000  -0.0000  -0.0000  -0.0000

          k = 0.1670-0.7848 0.9336 ( 11915 PWs)   bands (ev):

   -28.7941 -28.7941 -28.7936 -28.7936 -28.7903 -28.7903 -28.7901 -28.7901
   -28.5548 -28.5548 -28.5257 -28.5257 -27.3295 -27.3295 -27.3288 -27.3288
   -27.3275 -27.3275 -27.3266 -27.3266 -27.3238 -27.3238 -27.3237 -27.3237
   -27.0915 -27.0915 -27.0799 -27.0799 -27.0536 -27.0536 -15.8350 -15.8350
   -15.8339 -15.8339 -15.8278 -15.8278 -15.8273 -15.8273 -12.8553 -12.8553
   -12.8536 -12.8535 -12.8474 -12.8474 -12.8466 -12.8466 -12.8379 -12.8379
   -12.8370 -12.8370  -2.7643  -2.7643  -2.4370  -2.4370  -1.8783  -1.8783
    -1.3996  -1.3996  -1.0322  -1.0322   3.9578   3.9578   4.7870   4.7870
     5.0429   5.0429   5.5101   5.5101   5.8489   5.8489   6.0819   6.0819
     6.9446   6.9446   7.8661   7.8661   7.9943   7.9943   9.6500   9.6500
    10.0218  10.0218  11.1305  11.1305  11.6969  11.6969  12.3545  12.3545
    12.6556  12.6556  12.8228  12.8228  14.6435  14.6435  14.7853  14.7853
    15.6865  15.6865  16.1409  16.1409  16.8825  16.8825  17.7748  17.7748
    17.8375  17.8375  18.0599  18.0599  18.5921  18.5921  19.3198  19.3198
    19.3735  19.3735  19.8652  19.8652  20.4272  20.4272  20.6799  20.6799
    20.9284  20.9284  21.1373  21.1373

     occupation numbers 
     1.0000   1.0000   1.0000   1.0000   1.0000   1.0000   1.0000   1.0000
     1.0000   1.0000   1.0000   1.0000   1.0000   1.0000   1.0000   1.0000
     1.0000   1.0000   1.0000   1.0000   1.0000   1.0000   1.0000   1.0000
     1.0000   1.0000   1.0000   1.0000   1.0000   1.0000   1.0000   1.0000
     1.0000   1.0000   1.0000   1.0000   1.0000   1.0000   1.0000   1.0000
     1.0000   1.0000   1.0000   1.0000   1.0000   1.0000   1.0000   1.0000
     1.0000   1.0000   1.0000   1.0000   1.0000   1.0000   1.0000   1.0000
     1.0000   1.0000   1.0000   1.0000   1.0000   1.0000   1.0000   1.0000
     1.0000   1.0000   1.0000   1.0000   1.0000   1.0000   1.0000   1.0000
     1.0000   1.0000   1.0000   1.0000   1.0000   1.0000  -0.0000  -0.0000
    -0.0000  -0.0000  -0.0000  -0.0000  -0.0000  -0.0000  -0.0000  -0.0000
    -0.0000  -0.0000  -0.0000  -0.0000  -0.0000  -0.0000  -0.0000  -0.0000
    -0.0000  -0.0000  -0.0000  -0.0000  -0.0000  -0.0000  -0.0000  -0.0000
    -0.0000  -0.0000  -0.0000  -0.0000  -0.0000  -0.0000  -0.0000  -0.0000
    -0.0000  -0.0000  -0.0000  -0.0000  -0.0000  -0.0000  -0.0000  -0.0000
    -0.0000  -0.0000  -0.0000  -0.0000

          k = 0.1693-0.7843-1.4003 ( 11936 PWs)   bands (ev):

   -28.7940 -28.7939 -28.7938 -28.7938 -28.7901 -28.7901 -28.7901 -28.7901
   -28.5548 -28.5548 -28.5257 -28.5257 -27.3296 -27.3296 -27.3286 -27.3286
   -27.3276 -27.3275 -27.3266 -27.3266 -27.3238 -27.3238 -27.3237 -27.3236
   -27.0915 -27.0915 -27.0799 -27.0799 -27.0535 -27.0535 -15.8349 -15.8349
   -15.8332 -15.8332 -15.8281 -15.8281 -15.8273 -15.8273 -12.8534 -12.8534
   -12.8515 -12.8515 -12.8495 -12.8495 -12.8477 -12.8477 -12.8375 -12.8374
   -12.8374 -12.8374  -1.9560  -1.9560  -1.9407  -1.9407  -1.9110  -1.9110
    -1.8819  -1.8819  -1.7752  -1.7752   4.0985   4.0985   4.5319   4.5319
     4.6591   4.6591   5.0808   5.0808   5.5424   5.5424   6.2671   6.2671
     6.9657   6.9657   7.7016   7.7016   7.8886   7.8886   9.6145   9.6145
    10.4883  10.4883  11.1435  11.1435  12.0198  12.0198  12.5270  12.5270
    12.8971  12.8971  14.2688  14.2688  14.7129  14.7129  14.9199  14.9199
    15.0287  15.0287  15.4299  15.4299  16.4837  16.4837  17.3302  17.3302
    17.5002  17.5002  18.5056  18.5056  18.6024  18.6024  18.9392  18.9392
    19.1968  19.1968  19.8683  19.8683  20.1003  20.1003  21.0763  21.0763
    21.5588  21.5588  21.8310  21.8311

     occupation numbers 
     1.0000   1.0000   1.0000   1.0000   1.0000   1.0000   1.0000   1.0000
     1.0000   1.0000   1.0000   1.0000   1.0000   1.0000   1.0000   1.0000
     1.0000   1.0000   1.0000   1.0000   1.0000   1.0000   1.0000   1.0000
     1.0000   1.0000   1.0000   1.0000   1.0000   1.0000   1.0000   1.0000
     1.0000   1.0000   1.0000   1.0000   1.0000   1.0000   1.0000   1.0000
     1.0000   1.0000   1.0000   1.0000   1.0000   1.0000   1.0000   1.0000
     1.0000   1.0000   1.0000   1.0000   1.0000   1.0000   1.0000   1.0000
     1.0000   1.0000   1.0000   1.0000   1.0000   1.0000   1.0000   1.0000
     1.0000   1.0000   1.0000   1.0000   1.0000   1.0000   1.0000   1.0000
     1.0000   1.0000   1.0000   1.0000   1.0000   1.0000  -0.0000  -0.0000
    -0.0000  -0.0000  -0.0000  -0.0000  -0.0000  -0.0000  -0.0000  -0.0000
    -0.0000  -0.0000  -0.0000  -0.0000  -0.0000  -0.0000  -0.0000  -0.0000
    -0.0000  -0.0000  -0.0000  -0.0000  -0.0000  -0.0000  -0.0000  -0.0000
    -0.0000  -0.0000  -0.0000  -0.0000  -0.0000  -0.0000  -0.0000  -0.0000
    -0.0000  -0.0000  -0.0000  -0.0000  -0.0000  -0.0000  -0.0000  -0.0000
    -0.0000  -0.0000  -0.0000  -0.0000

          k = 0.1689-0.7844-0.9336 ( 11915 PWs)   bands (ev):

   -28.7941 -28.7941 -28.7936 -28.7936 -28.7903 -28.7903 -28.7901 -28.7901
   -28.5548 -28.5548 -28.5257 -28.5257 -27.3295 -27.3295 -27.3288 -27.3288
   -27.3275 -27.3275 -27.3266 -27.3266 -27.3238 -27.3238 -27.3237 -27.3237
   -27.0915 -27.0915 -27.0799 -27.0799 -27.0536 -27.0536 -15.8350 -15.8350
   -15.8339 -15.8339 -15.8278 -15.8278 -15.8273 -15.8273 -12.8553 -12.8553
   -12.8536 -12.8535 -12.8474 -12.8474 -12.8466 -12.8466 -12.8379 -12.8379
   -12.8370 -12.8370  -2.7643  -2.7643  -2.4370  -2.4370  -1.8783  -1.8783
    -1.3996  -1.3996  -1.0322  -1.0322   3.9578   3.9578   4.7870   4.7870
     5.0429   5.0429   5.5101   5.5101   5.8489   5.8489   6.0819   6.0819
     6.9446   6.9446   7.8661   7.8661   7.9943   7.9943   9.6500   9.6500
    10.0218  10.0218  11.1304  11.1304  11.6969  11.6969  12.3545  12.3545
    12.6556  12.6556  12.8228  12.8228  14.6435  14.6435  14.7853  14.7853
    15.6865  15.6865  16.1409  16.1409  16.8825  16.8825  17.7748  17.7748
    17.8375  17.8375  18.0599  18.0599  18.5921  18.5921  19.3198  19.3198
    19.3735  19.3735  19.8652  19.8652  20.4272  20.4272  20.6799  20.6799
    20.9284  20.9284  21.1373  21.1373

     occupation numbers 
     1.0000   1.0000   1.0000   1.0000   1.0000   1.0000   1.0000   1.0000
     1.0000   1.0000   1.0000   1.0000   1.0000   1.0000   1.0000   1.0000
     1.0000   1.0000   1.0000   1.0000   1.0000   1.0000   1.0000   1.0000
     1.0000   1.0000   1.0000   1.0000   1.0000   1.0000   1.0000   1.0000
     1.0000   1.0000   1.0000   1.0000   1.0000   1.0000   1.0000   1.0000
     1.0000   1.0000   1.0000   1.0000   1.0000   1.0000   1.0000   1.0000
     1.0000   1.0000   1.0000   1.0000   1.0000   1.0000   1.0000   1.0000
     1.0000   1.0000   1.0000   1.0000   1.0000   1.0000   1.0000   1.0000
     1.0000   1.0000   1.0000   1.0000   1.0000   1.0000   1.0000   1.0000
     1.0000   1.0000   1.0000   1.0000   1.0000   1.0000  -0.0000  -0.0000
    -0.0000  -0.0000  -0.0000  -0.0000  -0.0000  -0.0000  -0.0000  -0.0000
    -0.0000  -0.0000  -0.0000  -0.0000  -0.0000  -0.0000  -0.0000  -0.0000
    -0.0000  -0.0000  -0.0000  -0.0000  -0.0000  -0.0000  -0.0000  -0.0000
    -0.0000  -0.0000  -0.0000  -0.0000  -0.0000  -0.0000  -0.0000  -0.0000
    -0.0000  -0.0000  -0.0000  -0.0000  -0.0000  -0.0000  -0.0000  -0.0000
    -0.0000  -0.0000  -0.0000  -0.0000

          k = 0.1684-0.7845-0.4668 ( 11916 PWs)   bands (ev):

   -28.7943 -28.7943 -28.7935 -28.7935 -28.7904 -28.7904 -28.7901 -28.7901
   -28.5549 -28.5549 -28.5258 -28.5258 -27.3294 -27.3294 -27.3290 -27.3290
   -27.3276 -27.3276 -27.3265 -27.3265 -27.3240 -27.3240 -27.3238 -27.3238
   -27.0915 -27.0915 -27.0799 -27.0799 -27.0537 -27.0537 -15.8351 -15.8351
   -15.8349 -15.8349 -15.8276 -15.8276 -15.8272 -15.8272 -12.8558 -12.8557
   -12.8546 -12.8546 -12.8465 -12.8465 -12.8461 -12.8461 -12.8387 -12.8387
   -12.8374 -12.8374  -3.3520  -3.3520  -2.8620  -2.8620  -1.9817  -1.9817
    -0.9179  -0.9179  -0.4725  -0.4725   4.1336   4.1336   5.0783   5.0783
     5.5317   5.5317   5.9992   5.9992   6.1847   6.1847   6.6927   6.6928
     7.0442   7.0442   7.5152   7.5152   7.8981   7.8981   9.5793   9.5793
    10.4951  10.4951  10.7025  10.7025  11.3223  11.3223  11.8859  11.8859
    12.3530  12.3530  12.4075  12.4075  14.5904  14.5904  14.9603  14.9603
    15.6007  15.6007  16.2302  16.2302  16.6300  16.6300  17.0540  17.0540
    17.5709  17.5709  17.7069  17.7069  17.7653  17.7653  18.4122  18.4122
    18.6273  18.6273  18.6852  18.6852  19.1761  19.1761  21.0759  21.0759
    21.2126  21.2126  21.5359  21.5359

     occupation numbers 
     1.0000   1.0000   1.0000   1.0000   1.0000   1.0000   1.0000   1.0000
     1.0000   1.0000   1.0000   1.0000   1.0000   1.0000   1.0000   1.0000
     1.0000   1.0000   1.0000   1.0000   1.0000   1.0000   1.0000   1.0000
     1.0000   1.0000   1.0000   1.0000   1.0000   1.0000   1.0000   1.0000
     1.0000   1.0000   1.0000   1.0000   1.0000   1.0000   1.0000   1.0000
     1.0000   1.0000   1.0000   1.0000   1.0000   1.0000   1.0000   1.0000
     1.0000   1.0000   1.0000   1.0000   1.0000   1.0000   1.0000   1.0000
     1.0000   1.0000   1.0000   1.0000   1.0000   1.0000   1.0000   1.0000
     1.0000   1.0000   1.0000   1.0000   1.0000   1.0000   1.0000   1.0000
     1.0000   1.0000   1.0000   1.0000   1.0000   1.0000  -0.0000  -0.0000
    -0.0000  -0.0000  -0.0000  -0.0000  -0.0000  -0.0000  -0.0000  -0.0000
    -0.0000  -0.0000  -0.0000  -0.0000  -0.0000  -0.0000  -0.0000  -0.0000
    -0.0000  -0.0000  -0.0000  -0.0000  -0.0000  -0.0000  -0.0000  -0.0000
    -0.0000  -0.0000  -0.0000  -0.0000  -0.0000  -0.0000  -0.0000  -0.0000
    -0.0000  -0.0000  -0.0000  -0.0000  -0.0000  -0.0000  -0.0000  -0.0000
    -0.0000  -0.0000  -0.0000  -0.0000

          k = 0.3350-0.7489-0.4456 ( 11906 PWs)   bands (ev):

   -28.7943 -28.7943 -28.7935 -28.7935 -28.7904 -28.7904 -28.7901 -28.7901
   -28.5549 -28.5549 -28.5258 -28.5258 -27.3294 -27.3294 -27.3290 -27.3290
   -27.3276 -27.3276 -27.3266 -27.3266 -27.3240 -27.3240 -27.3238 -27.3238
   -27.0915 -27.0915 -27.0799 -27.0799 -27.0537 -27.0537 -15.8351 -15.8351
   -15.8349 -15.8349 -15.8276 -15.8276 -15.8272 -15.8272 -12.8558 -12.8557
   -12.8546 -12.8546 -12.8465 -12.8465 -12.8461 -12.8461 -12.8387 -12.8387
   -12.8374 -12.8374  -3.3373  -3.3373  -2.9040  -2.9040  -1.9055  -1.9055
    -1.0269  -1.0269  -0.4138  -0.4138   4.2611   4.2611   5.1097   5.1097
     5.2441   5.2441   5.9040   5.9040   6.1485   6.1485   6.6038   6.6038
     7.2694   7.2694   7.7630   7.7630   8.2416   8.2416   9.2111   9.2111
    10.2995  10.2995  10.5153  10.5153  11.0742  11.0742  12.0310  12.0310
    12.5228  12.5228  12.7850  12.7850  14.1366  14.1366  15.0324  15.0324
    16.2312  16.2312  16.3498  16.3498  16.6893  16.6893  16.9074  16.9074
    17.2889  17.2889  17.8622  17.8622  18.0984  18.0984  18.1644  18.1644
    18.4011  18.4011  18.6066  18.6066  19.3703  19.3703  20.5163  20.5163
    20.7393  20.7393  20.9302  20.9302

     occupation numbers 
     1.0000   1.0000   1.0000   1.0000   1.0000   1.0000   1.0000   1.0000
     1.0000   1.0000   1.0000   1.0000   1.0000   1.0000   1.0000   1.0000
     1.0000   1.0000   1.0000   1.0000   1.0000   1.0000   1.0000   1.0000
     1.0000   1.0000   1.0000   1.0000   1.0000   1.0000   1.0000   1.0000
     1.0000   1.0000   1.0000   1.0000   1.0000   1.0000   1.0000   1.0000
     1.0000   1.0000   1.0000   1.0000   1.0000   1.0000   1.0000   1.0000
     1.0000   1.0000   1.0000   1.0000   1.0000   1.0000   1.0000   1.0000
     1.0000   1.0000   1.0000   1.0000   1.0000   1.0000   1.0000   1.0000
     1.0000   1.0000   1.0000   1.0000   1.0000   1.0000   1.0000   1.0000
     1.0000   1.0000   1.0000   1.0000   1.0004   1.0004  -0.0000  -0.0000
    -0.0000  -0.0000  -0.0000  -0.0000  -0.0000  -0.0000  -0.0000  -0.0000
    -0.0000  -0.0000  -0.0000  -0.0000  -0.0000  -0.0000  -0.0000  -0.0000
    -0.0000  -0.0000  -0.0000  -0.0000  -0.0000  -0.0000  -0.0000  -0.0000
    -0.0000  -0.0000  -0.0000  -0.0000  -0.0000  -0.0000  -0.0000  -0.0000
    -0.0000  -0.0000  -0.0000  -0.0000  -0.0000  -0.0000  -0.0000  -0.0000
    -0.0000  -0.0000  -0.0000  -0.0000

          k = 0.3345-0.7490 0.0212 ( 11897 PWs)   bands (ev):

   -28.7944 -28.7944 -28.7934 -28.7934 -28.7905 -28.7905 -28.7901 -28.7901
   -28.5549 -28.5549 -28.5258 -28.5258 -27.3295 -27.3295 -27.3290 -27.3290
   -27.3277 -27.3277 -27.3264 -27.3264 -27.3241 -27.3241 -27.3238 -27.3238
   -27.0916 -27.0916 -27.0799 -27.0799 -27.0538 -27.0538 -15.8355 -15.8355
   -15.8349 -15.8349 -15.8277 -15.8277 -15.8271 -15.8271 -12.8555 -12.8555
   -12.8538 -12.8538 -12.8467 -12.8467 -12.8463 -12.8462 -12.8393 -12.8393
   -12.8383 -12.8383  -3.5405  -3.5405  -3.0707  -3.0707  -1.9774  -1.9774
    -0.7274  -0.7274  -0.3040  -0.3040   4.6983   4.6983   5.0674   5.0674
     5.3065   5.3065   5.7882   5.7882   6.4361   6.4361   6.6351   6.6351
     7.4676   7.4676   8.0769   8.0769   8.1836   8.1836   9.4658   9.4658
     9.7496   9.7497  10.5984  10.5984  11.4781  11.4781  12.0616  12.0616
    12.4593  12.4593  13.2274  13.2274  13.3250  13.3250  14.7813  14.7813
    15.3005  15.3005  16.2031  16.2031  16.3479  16.3479  16.4807  16.4807
    16.9649  16.9649  17.2266  17.2266  17.4272  17.4272  18.1219  18.1219
    18.7522  18.7522  19.1214  19.1214  19.5838  19.5838  20.1692  20.1692
    20.4436  20.4436  20.8013  20.8014

     occupation numbers 
     1.0000   1.0000   1.0000   1.0000   1.0000   1.0000   1.0000   1.0000
     1.0000   1.0000   1.0000   1.0000   1.0000   1.0000   1.0000   1.0000
     1.0000   1.0000   1.0000   1.0000   1.0000   1.0000   1.0000   1.0000
     1.0000   1.0000   1.0000   1.0000   1.0000   1.0000   1.0000   1.0000
     1.0000   1.0000   1.0000   1.0000   1.0000   1.0000   1.0000   1.0000
     1.0000   1.0000   1.0000   1.0000   1.0000   1.0000   1.0000   1.0000
     1.0000   1.0000   1.0000   1.0000   1.0000   1.0000   1.0000   1.0000
     1.0000   1.0000   1.0000   1.0000   1.0000   1.0000   1.0000   1.0000
     1.0000   1.0000   1.0000   1.0000   1.0000   1.0000   1.0000   1.0000
     1.0000   1.0000   1.0000   1.0000   1.0000   1.0000  -0.0000  -0.0000
    -0.0000  -0.0000  -0.0000  -0.0000  -0.0000  -0.0000  -0.0000  -0.0000
    -0.0000  -0.0000  -0.0000  -0.0000  -0.0000  -0.0000  -0.0000  -0.0000
    -0.0000  -0.0000  -0.0000  -0.0000  -0.0000  -0.0000  -0.0000  -0.0000
    -0.0000  -0.0000  -0.0000  -0.0000  -0.0000  -0.0000  -0.0000  -0.0000
    -0.0000  -0.0000  -0.0000  -0.0000  -0.0000  -0.0000  -0.0000  -0.0000
    -0.0000  -0.0000  -0.0000  -0.0000

          k = 0.3341-0.7491 0.4880 ( 11884 PWs)   bands (ev):

   -28.7943 -28.7943 -28.7935 -28.7935 -28.7904 -28.7904 -28.7901 -28.7901
   -28.5548 -28.5548 -28.5258 -28.5258 -27.3294 -27.3294 -27.3290 -27.3290
   -27.3276 -27.3276 -27.3265 -27.3265 -27.3240 -27.3240 -27.3238 -27.3238
   -27.0915 -27.0915 -27.0799 -27.0799 -27.0537 -27.0537 -15.8351 -15.8351
   -15.8349 -15.8349 -15.8276 -15.8276 -15.8272 -15.8272 -12.8558 -12.8557
   -12.8546 -12.8546 -12.8465 -12.8465 -12.8461 -12.8461 -12.8387 -12.8386
   -12.8374 -12.8374  -3.3312  -3.3312  -2.9049  -2.9049  -1.9626  -1.9626
    -0.8401  -0.8401  -0.5507  -0.5507   4.1016   4.1016   5.0398   5.0398
     5.6559   5.6559   5.9863   5.9863   6.2657   6.2657   6.6341   6.6341
     7.2269   7.2269   7.3956   7.3956   7.6350   7.6350   9.7567   9.7567
    10.4638  10.4638  10.8540  10.8540  11.2887  11.2887  11.8346  11.8346
    12.3035  12.3035  12.3978  12.3978  14.4034  14.4034  15.3303  15.3303
    15.4567  15.4567  16.1569  16.1569  16.2834  16.2834  16.9954  16.9954
    17.1944  17.1944  17.6858  17.6858  17.8887  17.8887  18.6867  18.6867
    18.9986  18.9986  19.2961  19.2961  19.7606  19.7606  20.8616  20.8616
    21.0250  21.0250  21.5448  21.5452

     occupation numbers 
     1.0000   1.0000   1.0000   1.0000   1.0000   1.0000   1.0000   1.0000
     1.0000   1.0000   1.0000   1.0000   1.0000   1.0000   1.0000   1.0000
     1.0000   1.0000   1.0000   1.0000   1.0000   1.0000   1.0000   1.0000
     1.0000   1.0000   1.0000   1.0000   1.0000   1.0000   1.0000   1.0000
     1.0000   1.0000   1.0000   1.0000   1.0000   1.0000   1.0000   1.0000
     1.0000   1.0000   1.0000   1.0000   1.0000   1.0000   1.0000   1.0000
     1.0000   1.0000   1.0000   1.0000   1.0000   1.0000   1.0000   1.0000
     1.0000   1.0000   1.0000   1.0000   1.0000   1.0000   1.0000   1.0000
     1.0000   1.0000   1.0000   1.0000   1.0000   1.0000   1.0000   1.0000
     1.0000   1.0000   1.0000   1.0000   1.0000   1.0000  -0.0000  -0.0000
    -0.0000  -0.0000  -0.0000  -0.0000  -0.0000  -0.0000  -0.0000  -0.0000
    -0.0000  -0.0000  -0.0000  -0.0000  -0.0000  -0.0000  -0.0000  -0.0000
    -0.0000  -0.0000  -0.0000  -0.0000  -0.0000  -0.0000  -0.0000  -0.0000
    -0.0000  -0.0000  -0.0000  -0.0000  -0.0000  -0.0000  -0.0000  -0.0000
    -0.0000  -0.0000  -0.0000  -0.0000  -0.0000  -0.0000  -0.0000  -0.0000
    -0.0000  -0.0000  -0.0000  -0.0000

          k = 0.3364-0.7486-1.8459 ( 11912 PWs)   bands (ev):

   -28.7941 -28.7941 -28.7936 -28.7936 -28.7903 -28.7903 -28.7901 -28.7901
   -28.5548 -28.5548 -28.5257 -28.5257 -27.3295 -27.3295 -27.3288 -27.3288
   -27.3275 -27.3275 -27.3266 -27.3266 -27.3238 -27.3238 -27.3237 -27.3237
   -27.0915 -27.0915 -27.0799 -27.0799 -27.0536 -27.0536 -15.8350 -15.8350
   -15.8339 -15.8339 -15.8278 -15.8278 -15.8273 -15.8273 -12.8553 -12.8553
   -12.8536 -12.8535 -12.8474 -12.8474 -12.8466 -12.8466 -12.8378 -12.8378
   -12.8370 -12.8370  -2.7472  -2.7472  -2.4602  -2.4602  -1.9000  -1.9000
    -1.3341  -1.3341  -1.0700  -1.0700   4.0687   4.0687   4.8250   4.8250
     4.9753   4.9753   5.2862   5.2862   5.6896   5.6897   6.0365   6.0365
     7.3851   7.3851   8.0374   8.0374   8.1984   8.1984   9.3408   9.3408
     9.8541   9.8541  10.6260  10.6260  11.7991  11.7991  12.4753  12.4753
    12.8251  12.8251  13.0277  13.0277  14.6071  14.6071  15.1859  15.1859
    15.4426  15.4426  15.8227  15.8227  16.8108  16.8108  17.8186  17.8186
    17.9188  17.9188  18.1994  18.1994  18.8971  18.8971  19.3413  19.3413
    19.3879  19.3879  19.8042  19.8042  20.1510  20.1510  20.6683  20.6683
    20.7744  20.7744  21.1397  21.1400

     occupation numbers 
     1.0000   1.0000   1.0000   1.0000   1.0000   1.0000   1.0000   1.0000
     1.0000   1.0000   1.0000   1.0000   1.0000   1.0000   1.0000   1.0000
     1.0000   1.0000   1.0000   1.0000   1.0000   1.0000   1.0000   1.0000
     1.0000   1.0000   1.0000   1.0000   1.0000   1.0000   1.0000   1.0000
     1.0000   1.0000   1.0000   1.0000   1.0000   1.0000   1.0000   1.0000
     1.0000   1.0000   1.0000   1.0000   1.0000   1.0000   1.0000   1.0000
     1.0000   1.0000   1.0000   1.0000   1.0000   1.0000   1.0000   1.0000
     1.0000   1.0000   1.0000   1.0000   1.0000   1.0000   1.0000   1.0000
     1.0000   1.0000   1.0000   1.0000   1.0000   1.0000   1.0000   1.0000
     1.0000   1.0000   1.0000   1.0000   1.0001   1.0001  -0.0000  -0.0000
    -0.0000  -0.0000  -0.0000  -0.0000  -0.0000  -0.0000  -0.0000  -0.0000
    -0.0000  -0.0000  -0.0000  -0.0000  -0.0000  -0.0000  -0.0000  -0.0000
    -0.0000  -0.0000  -0.0000  -0.0000  -0.0000  -0.0000  -0.0000  -0.0000
    -0.0000  -0.0000  -0.0000  -0.0000  -0.0000  -0.0000  -0.0000  -0.0000
    -0.0000  -0.0000  -0.0000  -0.0000  -0.0000  -0.0000  -0.0000  -0.0000
    -0.0000  -0.0000  -0.0000  -0.0000

          k = 0.3359-0.7487-1.3791 ( 11913 PWs)   bands (ev):

   -28.7939 -28.7939 -28.7938 -28.7938 -28.7901 -28.7901 -28.7901 -28.7901
   -28.5548 -28.5548 -28.5257 -28.5257 -27.3296 -27.3296 -27.3286 -27.3286
   -27.3275 -27.3275 -27.3266 -27.3266 -27.3238 -27.3238 -27.3236 -27.3236
   -27.0915 -27.0915 -27.0799 -27.0799 -27.0535 -27.0535 -15.8349 -15.8349
   -15.8332 -15.8332 -15.8281 -15.8281 -15.8273 -15.8273 -12.8534 -12.8534
   -12.8515 -12.8515 -12.8495 -12.8495 -12.8477 -12.8477 -12.8375 -12.8374
   -12.8374 -12.8374  -1.9560  -1.9560  -1.9407  -1.9407  -1.9110  -1.9110
    -1.8819  -1.8819  -1.7752  -1.7752   4.0996   4.0996   4.5031   4.5031
     4.7183   4.7183   5.0173   5.0173   5.6106   5.6106   6.1857   6.1857
     7.1265   7.1265   7.4481   7.4481   8.0443   8.0443   9.5607   9.5607
    10.6107  10.6107  11.0135  11.0135  12.1466  12.1466  12.4156  12.4156
    12.9254  12.9254  14.2693  14.2693  14.7646  14.7646  14.7997  14.7997
    15.1534  15.1534  15.3545  15.3545  16.6408  16.6408  16.9233  16.9233
    18.1155  18.1155  18.1750  18.1750  18.5330  18.5330  18.8437  18.8437
    19.2122  19.2122  19.9904  19.9904  20.5056  20.5056  20.8596  20.8597
    20.9054  20.9054  22.0802  22.0803

     occupation numbers 
     1.0000   1.0000   1.0000   1.0000   1.0000   1.0000   1.0000   1.0000
     1.0000   1.0000   1.0000   1.0000   1.0000   1.0000   1.0000   1.0000
     1.0000   1.0000   1.0000   1.0000   1.0000   1.0000   1.0000   1.0000
     1.0000   1.0000   1.0000   1.0000   1.0000   1.0000   1.0000   1.0000
     1.0000   1.0000   1.0000   1.0000   1.0000   1.0000   1.0000   1.0000
     1.0000   1.0000   1.0000   1.0000   1.0000   1.0000   1.0000   1.0000
     1.0000   1.0000   1.0000   1.0000   1.0000   1.0000   1.0000   1.0000
     1.0000   1.0000   1.0000   1.0000   1.0000   1.0000   1.0000   1.0000
     1.0000   1.0000   1.0000   1.0000   1.0000   1.0000   1.0000   1.0000
     1.0000   1.0000   1.0000   1.0000   1.0000   1.0000  -0.0000  -0.0000
    -0.0000  -0.0000  -0.0000  -0.0000  -0.0000  -0.0000  -0.0000  -0.0000
    -0.0000  -0.0000  -0.0000  -0.0000  -0.0000  -0.0000  -0.0000  -0.0000
    -0.0000  -0.0000  -0.0000  -0.0000  -0.0000  -0.0000  -0.0000  -0.0000
    -0.0000  -0.0000  -0.0000  -0.0000  -0.0000  -0.0000  -0.0000  -0.0000
    -0.0000  -0.0000  -0.0000  -0.0000  -0.0000  -0.0000  -0.0000  -0.0000
    -0.0000  -0.0000  -0.0000  -0.0000

          k = 0.3354-0.7488-0.9123 ( 11920 PWs)   bands (ev):

   -28.7941 -28.7941 -28.7936 -28.7936 -28.7903 -28.7903 -28.7901 -28.7901
   -28.5548 -28.5548 -28.5257 -28.5257 -27.3295 -27.3295 -27.3288 -27.3288
   -27.3275 -27.3275 -27.3266 -27.3266 -27.3238 -27.3238 -27.3237 -27.3237
   -27.0915 -27.0915 -27.0799 -27.0799 -27.0536 -27.0536 -15.8350 -15.8350
   -15.8339 -15.8339 -15.8278 -15.8278 -15.8273 -15.8273 -12.8553 -12.8553
   -12.8536 -12.8535 -12.8474 -12.8474 -12.8466 -12.8466 -12.8379 -12.8379
   -12.8370 -12.8370  -2.7551  -2.7551  -2.4656  -2.4656  -1.8255  -1.8255
    -1.4435  -1.4435  -1.0218  -1.0218   3.9448   3.9448   4.6863   4.6863
     5.0140   5.0140   5.5492   5.5492   6.1187   6.1187   6.3547   6.3547
     6.7908   6.7908   7.4961   7.4961   7.6660   7.6660  10.0764  10.0764
    10.3126  10.3126  11.2037  11.2037  11.6866  11.6866  12.1322  12.1322
    12.4755  12.4755  12.8839  12.8839  14.0514  14.0514  14.7639  14.7639
    16.1735  16.1735  16.7718  16.7718  17.1330  17.1330  17.3179  17.3179
    17.8477  17.8477  18.1124  18.1124  18.6530  18.6530  19.0934  19.0934
    19.3064  19.3064  19.7276  19.7276  20.0042  20.0042  20.2206  20.2206
    20.6043  20.6043  21.0207  21.0207

     occupation numbers 
     1.0000   1.0000   1.0000   1.0000   1.0000   1.0000   1.0000   1.0000
     1.0000   1.0000   1.0000   1.0000   1.0000   1.0000   1.0000   1.0000
     1.0000   1.0000   1.0000   1.0000   1.0000   1.0000   1.0000   1.0000
     1.0000   1.0000   1.0000   1.0000   1.0000   1.0000   1.0000   1.0000
     1.0000   1.0000   1.0000   1.0000   1.0000   1.0000   1.0000   1.0000
     1.0000   1.0000   1.0000   1.0000   1.0000   1.0000   1.0000   1.0000
     1.0000   1.0000   1.0000   1.0000   1.0000   1.0000   1.0000   1.0000
     1.0000   1.0000   1.0000   1.0000   1.0000   1.0000   1.0000   1.0000
     1.0000   1.0000   1.0000   1.0000   1.0000   1.0000   1.0000   1.0000
     1.0000   1.0000   1.0000   1.0000   1.0000   1.0000  -0.0000  -0.0000
    -0.0000  -0.0000  -0.0000  -0.0000  -0.0000  -0.0000  -0.0000  -0.0000
    -0.0000  -0.0000  -0.0000  -0.0000  -0.0000  -0.0000  -0.0000  -0.0000
    -0.0000  -0.0000  -0.0000  -0.0000  -0.0000  -0.0000  -0.0000  -0.0000
    -0.0000  -0.0000  -0.0000  -0.0000  -0.0000  -0.0000  -0.0000  -0.0000
    -0.0000  -0.0000  -0.0000  -0.0000  -0.0000  -0.0000  -0.0000  -0.0000
    -0.0000  -0.0000  -0.0000  -0.0000

          k = 0.3345-0.3387-0.6683 ( 11897 PWs)   bands (ev):

   -28.7944 -28.7944 -28.7934 -28.7934 -28.7905 -28.7905 -28.7901 -28.7901
   -28.5549 -28.5549 -28.5258 -28.5258 -27.3295 -27.3295 -27.3290 -27.3290
   -27.3277 -27.3277 -27.3264 -27.3264 -27.3241 -27.3241 -27.3238 -27.3238
   -27.0916 -27.0916 -27.0799 -27.0799 -27.0538 -27.0538 -15.8355 -15.8355
   -15.8349 -15.8349 -15.8277 -15.8277 -15.8271 -15.8271 -12.8555 -12.8555
   -12.8538 -12.8538 -12.8467 -12.8467 -12.8463 -12.8462 -12.8393 -12.8393
   -12.8383 -12.8383  -3.5405  -3.5405  -3.0707  -3.0707  -1.9774  -1.9774
    -0.7274  -0.7274  -0.3040  -0.3040   4.6983   4.6983   5.0674   5.0674
     5.3065   5.3065   5.7882   5.7882   6.4361   6.4361   6.6351   6.6351
     7.4676   7.4676   8.0769   8.0769   8.1836   8.1836   9.4658   9.4658
     9.7496   9.7497  10.5984  10.5984  11.4781  11.4781  12.0616  12.0616
    12.4593  12.4593  13.2274  13.2274  13.3250  13.3250  14.7813  14.7813
    15.3005  15.3005  16.2031  16.2031  16.3479  16.3479  16.4807  16.4807
    16.9649  16.9649  17.2266  17.2266  17.4272  17.4272  18.1219  18.1219
    18.7522  18.7522  19.1214  19.1214  19.5838  19.5838  20.1692  20.1692
    20.4436  20.4436  20.8013  20.8014

     occupation numbers 
     1.0000   1.0000   1.0000   1.0000   1.0000   1.0000   1.0000   1.0000
     1.0000   1.0000   1.0000   1.0000   1.0000   1.0000   1.0000   1.0000
     1.0000   1.0000   1.0000   1.0000   1.0000   1.0000   1.0000   1.0000
     1.0000   1.0000   1.0000   1.0000   1.0000   1.0000   1.0000   1.0000
     1.0000   1.0000   1.0000   1.0000   1.0000   1.0000   1.0000   1.0000
     1.0000   1.0000   1.0000   1.0000   1.0000   1.0000   1.0000   1.0000
     1.0000   1.0000   1.0000   1.0000   1.0000   1.0000   1.0000   1.0000
     1.0000   1.0000   1.0000   1.0000   1.0000   1.0000   1.0000   1.0000
     1.0000   1.0000   1.0000   1.0000   1.0000   1.0000   1.0000   1.0000
     1.0000   1.0000   1.0000   1.0000   1.0000   1.0000  -0.0000  -0.0000
    -0.0000  -0.0000  -0.0000  -0.0000  -0.0000  -0.0000  -0.0000  -0.0000
    -0.0000  -0.0000  -0.0000  -0.0000  -0.0000  -0.0000  -0.0000  -0.0000
    -0.0000  -0.0000  -0.0000  -0.0000  -0.0000  -0.0000  -0.0000  -0.0000
    -0.0000  -0.0000  -0.0000  -0.0000  -0.0000  -0.0000  -0.0000  -0.0000
    -0.0000  -0.0000  -0.0000  -0.0000  -0.0000  -0.0000  -0.0000  -0.0000
    -0.0000  -0.0000  -0.0000  -0.0000

          k = 0.3341-0.3388-0.2016 ( 11906 PWs)   bands (ev):

   -28.7946 -28.7946 -28.7933 -28.7933 -28.7907 -28.7907 -28.7901 -28.7901
   -28.5549 -28.5549 -28.5259 -28.5259 -27.3295 -27.3295 -27.3290 -27.3290
   -27.3280 -27.3280 -27.3263 -27.3263 -27.3243 -27.3243 -27.3240 -27.3240
   -27.0916 -27.0916 -27.0798 -27.0798 -27.0540 -27.0540 -15.8361 -15.8361
   -15.8359 -15.8359 -15.8275 -15.8275 -15.8269 -15.8269 -12.8561 -12.8561
   -12.8549 -12.8549 -12.8455 -12.8455 -12.8453 -12.8453 -12.8406 -12.8406
   -12.8394 -12.8394  -3.9617  -3.9617  -3.4930  -3.4930  -2.1195  -2.1195
    -0.5389  -0.5389   0.3583   0.3583   5.3018   5.3018   5.5067   5.5067
     6.1681   6.1681   6.6048   6.6048   6.7748   6.7748   7.3011   7.3011
     7.7174   7.7174   7.9546   7.9546   8.3292   8.3292   8.9968   8.9968
     9.8698   9.8698  10.4049  10.4049  10.8911  10.8911  11.2706  11.2706
    11.6222  11.6222  13.1629  13.1629  14.1091  14.1091  14.6622  14.6622
    15.0537  15.0537  15.1993  15.1993  15.5457  15.5457  16.1658  16.1658
    16.5364  16.5364  17.1591  17.1591  17.5007  17.5007  17.6130  17.6130
    17.7540  17.7540  17.8598  17.8598  18.1629  18.1629  18.8659  18.8659
    19.0371  19.0372  19.5793  19.5793

     occupation numbers 
     1.0000   1.0000   1.0000   1.0000   1.0000   1.0000   1.0000   1.0000
     1.0000   1.0000   1.0000   1.0000   1.0000   1.0000   1.0000   1.0000
     1.0000   1.0000   1.0000   1.0000   1.0000   1.0000   1.0000   1.0000
     1.0000   1.0000   1.0000   1.0000   1.0000   1.0000   1.0000   1.0000
     1.0000   1.0000   1.0000   1.0000   1.0000   1.0000   1.0000   1.0000
     1.0000   1.0000   1.0000   1.0000   1.0000   1.0000   1.0000   1.0000
     1.0000   1.0000   1.0000   1.0000   1.0000   1.0000   1.0000   1.0000
     1.0000   1.0000   1.0000   1.0000   1.0000   1.0000   1.0000   1.0000
     1.0000   1.0000   1.0000   1.0000   1.0000   1.0000   1.0000   1.0000
     1.0000   1.0000   1.0000   1.0000   1.0066   1.0066  -0.0002  -0.0002
    -0.0000  -0.0000  -0.0000  -0.0000  -0.0000  -0.0000  -0.0000  -0.0000
    -0.0000  -0.0000  -0.0000  -0.0000  -0.0000  -0.0000  -0.0000  -0.0000
    -0.0000  -0.0000  -0.0000  -0.0000  -0.0000  -0.0000  -0.0000  -0.0000
    -0.0000  -0.0000  -0.0000  -0.0000  -0.0000  -0.0000  -0.0000  -0.0000
    -0.0000  -0.0000  -0.0000  -0.0000  -0.0000  -0.0000  -0.0000  -0.0000
    -0.0000  -0.0000  -0.0000  -0.0000

          k = 0.3336-0.3389 0.2652 ( 11898 PWs)   bands (ev):

   -28.7946 -28.7946 -28.7932 -28.7932 -28.7907 -28.7907 -28.7901 -28.7901
   -28.5549 -28.5549 -28.5259 -28.5259 -27.3295 -27.3295 -27.3290 -27.3290
   -27.3280 -27.3280 -27.3263 -27.3263 -27.3243 -27.3243 -27.3240 -27.3240
   -27.0916 -27.0916 -27.0798 -27.0798 -27.0540 -27.0540 -15.8361 -15.8361
   -15.8359 -15.8359 -15.8275 -15.8275 -15.8269 -15.8269 -12.8561 -12.8561
   -12.8549 -12.8549 -12.8455 -12.8455 -12.8453 -12.8453 -12.8406 -12.8406
   -12.8394 -12.8394  -3.9457  -3.9457  -3.5251  -3.5251  -2.0824  -2.0824
    -0.5674  -0.5674   0.3567   0.3567   5.2778   5.2778   5.7236   5.7236
     5.9775   5.9775   6.6650   6.6650   6.8496   6.8496   7.2053   7.2053
     7.6876   7.6876   7.9188   7.9188   8.2421   8.2421   9.1032   9.1032
     9.7390   9.7390  10.3114  10.3114  10.8404  10.8404  11.5754  11.5754
    11.8205  11.8205  13.4132  13.4132  13.9007  13.9007  14.4671  14.4671
    14.8723  14.8723  15.5321  15.5321  15.6839  15.6839  16.2565  16.2565
    16.2983  16.2983  16.4815  16.4815  16.6303  16.6303  17.2876  17.2876
    17.6542  17.6542  18.0715  18.0715  19.0559  19.0559  19.2520  19.2520
    19.5254  19.5254  19.8632  19.8632

     occupation numbers 
     1.0000   1.0000   1.0000   1.0000   1.0000   1.0000   1.0000   1.0000
     1.0000   1.0000   1.0000   1.0000   1.0000   1.0000   1.0000   1.0000
     1.0000   1.0000   1.0000   1.0000   1.0000   1.0000   1.0000   1.0000
     1.0000   1.0000   1.0000   1.0000   1.0000   1.0000   1.0000   1.0000
     1.0000   1.0000   1.0000   1.0000   1.0000   1.0000   1.0000   1.0000
     1.0000   1.0000   1.0000   1.0000   1.0000   1.0000   1.0000   1.0000
     1.0000   1.0000   1.0000   1.0000   1.0000   1.0000   1.0000   1.0000
     1.0000   1.0000   1.0000   1.0000   1.0000   1.0000   1.0000   1.0000
     1.0000   1.0000   1.0000   1.0000   1.0000   1.0000   1.0000   1.0000
     1.0000   1.0000   1.0000   1.0000   1.0005   1.0005  -0.0000  -0.0000
    -0.0000  -0.0000  -0.0000  -0.0000  -0.0000  -0.0000  -0.0000  -0.0000
    -0.0000  -0.0000  -0.0000  -0.0000  -0.0000  -0.0000  -0.0000  -0.0000
    -0.0000  -0.0000  -0.0000  -0.0000  -0.0000  -0.0000  -0.0000  -0.0000
    -0.0000  -0.0000  -0.0000  -0.0000  -0.0000  -0.0000  -0.0000  -0.0000
    -0.0000  -0.0000  -0.0000  -0.0000  -0.0000  -0.0000  -0.0000  -0.0000
    -0.0000  -0.0000  -0.0000  -0.0000

          k = 0.3359-0.3384-2.0687 ( 11894 PWs)   bands (ev):

   -28.7944 -28.7944 -28.7934 -28.7934 -28.7905 -28.7905 -28.7901 -28.7901
   -28.5549 -28.5549 -28.5258 -28.5258 -27.3295 -27.3295 -27.3290 -27.3290
   -27.3277 -27.3277 -27.3264 -27.3264 -27.3241 -27.3241 -27.3238 -27.3238
   -27.0916 -27.0916 -27.0798 -27.0798 -27.0538 -27.0538 -15.8355 -15.8355
   -15.8349 -15.8349 -15.8277 -15.8277 -15.8271 -15.8271 -12.8555 -12.8554
   -12.8538 -12.8538 -12.8467 -12.8467 -12.8463 -12.8462 -12.8393 -12.8393
   -12.8383 -12.8383  -3.4912  -3.4912  -3.1692  -3.1692  -1.8558  -1.8558
    -0.8709  -0.8709  -0.2330  -0.2330   4.6095   4.6095   4.9951   4.9951
     5.3815   5.3815   5.9595   5.9595   6.4569   6.4569   6.8668   6.8668
     7.3114   7.3114   7.8102   7.8102   7.9431   7.9431   9.7519   9.7519
     9.8968   9.8968  10.8878  10.8878  11.3867  11.3867  11.8147  11.8147
    12.2711  12.2711  13.4014  13.4014  13.4267  13.4267  14.2107  14.2107
    14.7799  14.7799  16.4915  16.4915  16.7050  16.7050  16.8840  16.8840
    17.2695  17.2695  17.6380  17.6380  17.9519  17.9519  18.2796  18.2796
    18.6123  18.6123  18.7090  18.7090  18.9940  18.9940  19.7864  19.7864
    20.2255  20.2255  20.4687  20.4688

     occupation numbers 
     1.0000   1.0000   1.0000   1.0000   1.0000   1.0000   1.0000   1.0000
     1.0000   1.0000   1.0000   1.0000   1.0000   1.0000   1.0000   1.0000
     1.0000   1.0000   1.0000   1.0000   1.0000   1.0000   1.0000   1.0000
     1.0000   1.0000   1.0000   1.0000   1.0000   1.0000   1.0000   1.0000
     1.0000   1.0000   1.0000   1.0000   1.0000   1.0000   1.0000   1.0000
     1.0000   1.0000   1.0000   1.0000   1.0000   1.0000   1.0000   1.0000
     1.0000   1.0000   1.0000   1.0000   1.0000   1.0000   1.0000   1.0000
     1.0000   1.0000   1.0000   1.0000   1.0000   1.0000   1.0000   1.0000
     1.0000   1.0000   1.0000   1.0000   1.0000   1.0000   1.0000   1.0000
     1.0000   1.0000   1.0000   1.0000   1.0000   1.0000  -0.0000  -0.0000
    -0.0000  -0.0000  -0.0000  -0.0000  -0.0000  -0.0000  -0.0000  -0.0000
    -0.0000  -0.0000  -0.0000  -0.0000  -0.0000  -0.0000  -0.0000  -0.0000
    -0.0000  -0.0000  -0.0000  -0.0000  -0.0000  -0.0000  -0.0000  -0.0000
    -0.0000  -0.0000  -0.0000  -0.0000  -0.0000  -0.0000  -0.0000  -0.0000
    -0.0000  -0.0000  -0.0000  -0.0000  -0.0000  -0.0000  -0.0000  -0.0000
    -0.0000  -0.0000  -0.0000  -0.0000

          k = 0.3354-0.3385-1.6019 ( 11918 PWs)   bands (ev):

   -28.7941 -28.7941 -28.7936 -28.7936 -28.7903 -28.7903 -28.7901 -28.7901
   -28.5548 -28.5548 -28.5257 -28.5257 -27.3295 -27.3295 -27.3288 -27.3288
   -27.3275 -27.3275 -27.3266 -27.3266 -27.3238 -27.3238 -27.3237 -27.3237
   -27.0915 -27.0915 -27.0799 -27.0799 -27.0536 -27.0536 -15.8350 -15.8350
   -15.8339 -15.8339 -15.8278 -15.8278 -15.8273 -15.8273 -12.8553 -12.8553
   -12.8536 -12.8535 -12.8474 -12.8474 -12.8466 -12.8466 -12.8379 -12.8379
   -12.8370 -12.8370  -2.6908  -2.6908  -2.5576  -2.5576  -1.8328  -1.8328
    -1.3486  -1.3486  -1.0818  -1.0818   4.1779   4.1779   4.6719   4.6719
     4.8396   4.8396   5.0870   5.0870   6.0372   6.0372   6.5574   6.5574
     7.2968   7.2968   7.5101   7.5101   7.8450   7.8450   9.6841   9.6841
    10.3260  10.3260  10.6886  10.6886  11.5674  11.5674  12.1590  12.1590
    12.9183  12.9183  13.2538  13.2538  13.7364  13.7364  14.8310  14.8310
    16.2055  16.2055  16.8654  16.8654  17.1129  17.1129  17.7852  17.7852
    17.9819  17.9819  18.2055  18.2055  18.6554  18.6554  18.7993  18.7993
    19.3075  19.3075  19.6576  19.6576  19.8438  19.8438  19.9980  19.9980
    20.3874  20.3874  21.0897  21.0901

     occupation numbers 
     1.0000   1.0000   1.0000   1.0000   1.0000   1.0000   1.0000   1.0000
     1.0000   1.0000   1.0000   1.0000   1.0000   1.0000   1.0000   1.0000
     1.0000   1.0000   1.0000   1.0000   1.0000   1.0000   1.0000   1.0000
     1.0000   1.0000   1.0000   1.0000   1.0000   1.0000   1.0000   1.0000
     1.0000   1.0000   1.0000   1.0000   1.0000   1.0000   1.0000   1.0000
     1.0000   1.0000   1.0000   1.0000   1.0000   1.0000   1.0000   1.0000
     1.0000   1.0000   1.0000   1.0000   1.0000   1.0000   1.0000   1.0000
     1.0000   1.0000   1.0000   1.0000   1.0000   1.0000   1.0000   1.0000
     1.0000   1.0000   1.0000   1.0000   1.0000   1.0000   1.0000   1.0000
     1.0000   1.0000   1.0000   1.0000   1.0000   1.0000  -0.0000  -0.0000
    -0.0000  -0.0000  -0.0000  -0.0000  -0.0000  -0.0000  -0.0000  -0.0000
    -0.0000  -0.0000  -0.0000  -0.0000  -0.0000  -0.0000  -0.0000  -0.0000
    -0.0000  -0.0000  -0.0000  -0.0000  -0.0000  -0.0000  -0.0000  -0.0000
    -0.0000  -0.0000  -0.0000  -0.0000  -0.0000  -0.0000  -0.0000  -0.0000
    -0.0000  -0.0000  -0.0000  -0.0000  -0.0000  -0.0000  -0.0000  -0.0000
    -0.0000  -0.0000  -0.0000  -0.0000

          k = 0.3350-0.3386-1.1351 ( 11915 PWs)   bands (ev):

   -28.7941 -28.7941 -28.7936 -28.7936 -28.7903 -28.7903 -28.7901 -28.7901
   -28.5548 -28.5548 -28.5257 -28.5257 -27.3295 -27.3295 -27.3288 -27.3288
   -27.3275 -27.3275 -27.3266 -27.3266 -27.3238 -27.3238 -27.3237 -27.3237
   -27.0915 -27.0915 -27.0799 -27.0799 -27.0536 -27.0536 -15.8350 -15.8350
   -15.8339 -15.8339 -15.8278 -15.8278 -15.8273 -15.8273 -12.8553 -12.8553
   -12.8536 -12.8535 -12.8474 -12.8474 -12.8466 -12.8466 -12.8379 -12.8379
   -12.8370 -12.8370  -2.7643  -2.7643  -2.4370  -2.4370  -1.8783  -1.8783
    -1.3996  -1.3996  -1.0322  -1.0322   3.9578   3.9578   4.7870   4.7870
     5.0429   5.0429   5.5101   5.5101   5.8489   5.8489   6.0819   6.0819
     6.9446   6.9446   7.8661   7.8661   7.9943   7.9943   9.6500   9.6500
    10.0218  10.0218  11.1304  11.1305  11.6969  11.6969  12.3545  12.3545
    12.6556  12.6556  12.8228  12.8228  14.6435  14.6435  14.7853  14.7853
    15.6865  15.6865  16.1409  16.1409  16.8825  16.8825  17.7748  17.7748
    17.8375  17.8375  18.0599  18.0599  18.5921  18.5921  19.3198  19.3198
    19.3735  19.3735  19.8652  19.8652  20.4272  20.4272  20.6799  20.6799
    20.9284  20.9284  21.1373  21.1373

     occupation numbers 
     1.0000   1.0000   1.0000   1.0000   1.0000   1.0000   1.0000   1.0000
     1.0000   1.0000   1.0000   1.0000   1.0000   1.0000   1.0000   1.0000
     1.0000   1.0000   1.0000   1.0000   1.0000   1.0000   1.0000   1.0000
     1.0000   1.0000   1.0000   1.0000   1.0000   1.0000   1.0000   1.0000
     1.0000   1.0000   1.0000   1.0000   1.0000   1.0000   1.0000   1.0000
     1.0000   1.0000   1.0000   1.0000   1.0000   1.0000   1.0000   1.0000
     1.0000   1.0000   1.0000   1.0000   1.0000   1.0000   1.0000   1.0000
     1.0000   1.0000   1.0000   1.0000   1.0000   1.0000   1.0000   1.0000
     1.0000   1.0000   1.0000   1.0000   1.0000   1.0000   1.0000   1.0000
     1.0000   1.0000   1.0000   1.0000   1.0000   1.0000  -0.0000  -0.0000
    -0.0000  -0.0000  -0.0000  -0.0000  -0.0000  -0.0000  -0.0000  -0.0000
    -0.0000  -0.0000  -0.0000  -0.0000  -0.0000  -0.0000  -0.0000  -0.0000
    -0.0000  -0.0000  -0.0000  -0.0000  -0.0000  -0.0000  -0.0000  -0.0000
    -0.0000  -0.0000  -0.0000  -0.0000  -0.0000  -0.0000  -0.0000  -0.0000
    -0.0000  -0.0000  -0.0000  -0.0000  -0.0000  -0.0000  -0.0000  -0.0000
    -0.0000  -0.0000  -0.0000  -0.0000

          k = 0.3341 0.0715-0.8911 ( 11884 PWs)   bands (ev):

   -28.7943 -28.7943 -28.7935 -28.7935 -28.7904 -28.7904 -28.7901 -28.7901
   -28.5548 -28.5548 -28.5258 -28.5258 -27.3294 -27.3294 -27.3290 -27.3290
   -27.3276 -27.3276 -27.3265 -27.3265 -27.3240 -27.3240 -27.3238 -27.3238
   -27.0915 -27.0915 -27.0799 -27.0799 -27.0537 -27.0537 -15.8351 -15.8351
   -15.8349 -15.8349 -15.8276 -15.8276 -15.8272 -15.8272 -12.8558 -12.8557
   -12.8546 -12.8546 -12.8465 -12.8465 -12.8461 -12.8461 -12.8387 -12.8386
   -12.8374 -12.8374  -3.3312  -3.3312  -2.9049  -2.9049  -1.9626  -1.9626
    -0.8401  -0.8401  -0.5507  -0.5507   4.1016   4.1016   5.0398   5.0398
     5.6559   5.6559   5.9863   5.9863   6.2657   6.2657   6.6341   6.6341
     7.2269   7.2269   7.3956   7.3956   7.6350   7.6350   9.7567   9.7567
    10.4638  10.4638  10.8540  10.8540  11.2887  11.2887  11.8346  11.8346
    12.3035  12.3035  12.3978  12.3978  14.4034  14.4034  15.3303  15.3303
    15.4567  15.4567  16.1569  16.1569  16.2834  16.2834  16.9954  16.9954
    17.1944  17.1944  17.6858  17.6858  17.8887  17.8887  18.6867  18.6867
    18.9986  18.9986  19.2961  19.2961  19.7606  19.7606  20.8616  20.8616
    21.0250  21.0250  21.5448  21.5450

     occupation numbers 
     1.0000   1.0000   1.0000   1.0000   1.0000   1.0000   1.0000   1.0000
     1.0000   1.0000   1.0000   1.0000   1.0000   1.0000   1.0000   1.0000
     1.0000   1.0000   1.0000   1.0000   1.0000   1.0000   1.0000   1.0000
     1.0000   1.0000   1.0000   1.0000   1.0000   1.0000   1.0000   1.0000
     1.0000   1.0000   1.0000   1.0000   1.0000   1.0000   1.0000   1.0000
     1.0000   1.0000   1.0000   1.0000   1.0000   1.0000   1.0000   1.0000
     1.0000   1.0000   1.0000   1.0000   1.0000   1.0000   1.0000   1.0000
     1.0000   1.0000   1.0000   1.0000   1.0000   1.0000   1.0000   1.0000
     1.0000   1.0000   1.0000   1.0000   1.0000   1.0000   1.0000   1.0000
     1.0000   1.0000   1.0000   1.0000   1.0000   1.0000  -0.0000  -0.0000
    -0.0000  -0.0000  -0.0000  -0.0000  -0.0000  -0.0000  -0.0000  -0.0000
    -0.0000  -0.0000  -0.0000  -0.0000  -0.0000  -0.0000  -0.0000  -0.0000
    -0.0000  -0.0000  -0.0000  -0.0000  -0.0000  -0.0000  -0.0000  -0.0000
    -0.0000  -0.0000  -0.0000  -0.0000  -0.0000  -0.0000  -0.0000  -0.0000
    -0.0000  -0.0000  -0.0000  -0.0000  -0.0000  -0.0000  -0.0000  -0.0000
    -0.0000  -0.0000  -0.0000  -0.0000

          k = 0.3336 0.0714-0.4243 ( 11898 PWs)   bands (ev):

   -28.7946 -28.7946 -28.7932 -28.7932 -28.7907 -28.7907 -28.7901 -28.7901
   -28.5549 -28.5549 -28.5259 -28.5259 -27.3295 -27.3295 -27.3290 -27.3290
   -27.3280 -27.3280 -27.3263 -27.3263 -27.3243 -27.3243 -27.3240 -27.3240
   -27.0916 -27.0916 -27.0798 -27.0798 -27.0540 -27.0540 -15.8361 -15.8361
   -15.8359 -15.8359 -15.8275 -15.8275 -15.8269 -15.8269 -12.8561 -12.8561
   -12.8549 -12.8549 -12.8455 -12.8455 -12.8453 -12.8453 -12.8406 -12.8406
   -12.8394 -12.8394  -3.9457  -3.9457  -3.5251  -3.5251  -2.0824  -2.0824
    -0.5674  -0.5674   0.3567   0.3567   5.2778   5.2778   5.7236   5.7236
     5.9775   5.9775   6.6650   6.6650   6.8496   6.8496   7.2053   7.2053
     7.6876   7.6876   7.9188   7.9188   8.2421   8.2421   9.1032   9.1032
     9.7390   9.7390  10.3114  10.3114  10.8404  10.8404  11.5754  11.5754
    11.8205  11.8205  13.4132  13.4132  13.9007  13.9007  14.4671  14.4671
    14.8723  14.8723  15.5321  15.5321  15.6839  15.6839  16.2565  16.2565
    16.2983  16.2983  16.4815  16.4815  16.6303  16.6303  17.2876  17.2876
    17.6542  17.6542  18.0715  18.0715  19.0559  19.0559  19.2520  19.2520
    19.5254  19.5254  19.8631  19.8632

     occupation numbers 
     1.0000   1.0000   1.0000   1.0000   1.0000   1.0000   1.0000   1.0000
     1.0000   1.0000   1.0000   1.0000   1.0000   1.0000   1.0000   1.0000
     1.0000   1.0000   1.0000   1.0000   1.0000   1.0000   1.0000   1.0000
     1.0000   1.0000   1.0000   1.0000   1.0000   1.0000   1.0000   1.0000
     1.0000   1.0000   1.0000   1.0000   1.0000   1.0000   1.0000   1.0000
     1.0000   1.0000   1.0000   1.0000   1.0000   1.0000   1.0000   1.0000
     1.0000   1.0000   1.0000   1.0000   1.0000   1.0000   1.0000   1.0000
     1.0000   1.0000   1.0000   1.0000   1.0000   1.0000   1.0000   1.0000
     1.0000   1.0000   1.0000   1.0000   1.0000   1.0000   1.0000   1.0000
     1.0000   1.0000   1.0000   1.0000   1.0005   1.0005  -0.0000  -0.0000
    -0.0000  -0.0000  -0.0000  -0.0000  -0.0000  -0.0000  -0.0000  -0.0000
    -0.0000  -0.0000  -0.0000  -0.0000  -0.0000  -0.0000  -0.0000  -0.0000
    -0.0000  -0.0000  -0.0000  -0.0000  -0.0000  -0.0000  -0.0000  -0.0000
    -0.0000  -0.0000  -0.0000  -0.0000  -0.0000  -0.0000  -0.0000  -0.0000
    -0.0000  -0.0000  -0.0000  -0.0000  -0.0000  -0.0000  -0.0000  -0.0000
    -0.0000  -0.0000  -0.0000  -0.0000

          k = 0.3332 0.0713 0.0424 ( 11956 PWs)   bands (ev):

   -28.7947 -28.7947 -28.7932 -28.7932 -28.7908 -28.7908 -28.7902 -28.7902
   -28.5549 -28.5549 -28.5260 -28.5260 -27.3296 -27.3296 -27.3289 -27.3289
   -27.3283 -27.3283 -27.3262 -27.3262 -27.3245 -27.3245 -27.3241 -27.3241
   -27.0917 -27.0917 -27.0798 -27.0798 -27.0542 -27.0542 -15.8367 -15.8367
   -15.8364 -15.8364 -15.8273 -15.8273 -15.8269 -15.8269 -12.8571 -12.8571
   -12.8560 -12.8560 -12.8445 -12.8445 -12.8441 -12.8441 -12.8415 -12.8415
   -12.8401 -12.8401  -4.1493  -4.1493  -3.7754  -3.7754  -2.1365  -2.1365
    -0.6013  -0.6013   0.8050   0.8050   5.7157   5.7157   6.4112   6.4112
     6.8273   6.8273   7.0680   7.0680   7.4130   7.4130   7.6182   7.6182
     7.6873   7.6873   8.0251   8.0251   8.3824   8.3824   8.6746   8.6746
     9.2905   9.2905   9.9066   9.9066  10.2946  10.2946  11.0135  11.0135
    11.1601  11.1601  13.6931  13.6931  14.4459  14.4459  14.4801  14.4801
    14.5435  14.5435  15.6379  15.6379  15.7719  15.7719  15.9256  15.9256
    15.9788  15.9788  16.4319  16.4319  16.6157  16.6157  16.6757  16.6757
    17.1414  17.1414  17.2604  17.2604  17.4756  17.4756  18.1298  18.1298
    18.2437  18.2437  18.9678  18.9678

     occupation numbers 
     1.0000   1.0000   1.0000   1.0000   1.0000   1.0000   1.0000   1.0000
     1.0000   1.0000   1.0000   1.0000   1.0000   1.0000   1.0000   1.0000
     1.0000   1.0000   1.0000   1.0000   1.0000   1.0000   1.0000   1.0000
     1.0000   1.0000   1.0000   1.0000   1.0000   1.0000   1.0000   1.0000
     1.0000   1.0000   1.0000   1.0000   1.0000   1.0000   1.0000   1.0000
     1.0000   1.0000   1.0000   1.0000   1.0000   1.0000   1.0000   1.0000
     1.0000   1.0000   1.0000   1.0000   1.0000   1.0000   1.0000   1.0000
     1.0000   1.0000   1.0000   1.0000   1.0000   1.0000   1.0000   1.0000
     1.0000   1.0000   1.0000   1.0000   1.0000   1.0000   1.0000   1.0000
     1.0000   1.0000   1.0000   1.0000   1.0200   1.0200   0.1407   0.1407
    -0.0000  -0.0000  -0.0000  -0.0000  -0.0000  -0.0000  -0.0000  -0.0000
    -0.0000  -0.0000  -0.0000  -0.0000  -0.0000  -0.0000  -0.0000  -0.0000
    -0.0000  -0.0000  -0.0000  -0.0000  -0.0000  -0.0000  -0.0000  -0.0000
    -0.0000  -0.0000  -0.0000  -0.0000  -0.0000  -0.0000  -0.0000  -0.0000
    -0.0000  -0.0000  -0.0000  -0.0000  -0.0000  -0.0000  -0.0000  -0.0000
    -0.0000  -0.0000  -0.0000  -0.0000

          k = 0.3354 0.0718-2.2915 ( 11903 PWs)   bands (ev):

   -28.7946 -28.7946 -28.7932 -28.7932 -28.7907 -28.7907 -28.7901 -28.7901
   -28.5549 -28.5549 -28.5259 -28.5259 -27.3295 -27.3295 -27.3290 -27.3290
   -27.3280 -27.3280 -27.3263 -27.3263 -27.3243 -27.3243 -27.3240 -27.3240
   -27.0916 -27.0916 -27.0798 -27.0798 -27.0540 -27.0540 -15.8361 -15.8361
   -15.8359 -15.8359 -15.8275 -15.8275 -15.8269 -15.8269 -12.8561 -12.8561
   -12.8549 -12.8549 -12.8455 -12.8455 -12.8453 -12.8453 -12.8406 -12.8406
   -12.8394 -12.8394  -3.9043  -3.9043  -3.6002  -3.6002  -1.9727  -1.9727
    -0.7365  -0.7365   0.4613   0.4613   5.2419   5.2419   5.6177   5.6177
     6.1464   6.1464   6.6413   6.6413   6.8517   6.8517   7.1819   7.1819
     7.6179   7.6179   7.8944   7.8944   8.5319   8.5319   8.8236   8.8236
    10.0175  10.0175  10.2111  10.2111  10.9891  10.9891  11.3540  11.3540
    11.6771  11.6771  13.3216  13.3216  14.2443  14.2443  14.3622  14.3622
    14.7626  14.7626  15.1637  15.1637  15.6465  15.6465  16.0783  16.0783
    16.5893  16.5893  16.9813  16.9813  17.2050  17.2050  17.4750  17.4750
    17.9754  17.9754  18.0872  18.0872  18.2759  18.2759  18.6327  18.6327
    19.6792  19.6792  20.0417  20.0418

     occupation numbers 
     1.0000   1.0000   1.0000   1.0000   1.0000   1.0000   1.0000   1.0000
     1.0000   1.0000   1.0000   1.0000   1.0000   1.0000   1.0000   1.0000
     1.0000   1.0000   1.0000   1.0000   1.0000   1.0000   1.0000   1.0000
     1.0000   1.0000   1.0000   1.0000   1.0000   1.0000   1.0000   1.0000
     1.0000   1.0000   1.0000   1.0000   1.0000   1.0000   1.0000   1.0000
     1.0000   1.0000   1.0000   1.0000   1.0000   1.0000   1.0000   1.0000
     1.0000   1.0000   1.0000   1.0000   1.0000   1.0000   1.0000   1.0000
     1.0000   1.0000   1.0000   1.0000   1.0000   1.0000   1.0000   1.0000
     1.0000   1.0000   1.0000   1.0000   1.0000   1.0000   1.0000   1.0000
     1.0000   1.0000   1.0000   1.0000   0.9050   0.9050  -0.0242  -0.0242
    -0.0000  -0.0000  -0.0000  -0.0000  -0.0000  -0.0000  -0.0000  -0.0000
    -0.0000  -0.0000  -0.0000  -0.0000  -0.0000  -0.0000  -0.0000  -0.0000
    -0.0000  -0.0000  -0.0000  -0.0000  -0.0000  -0.0000  -0.0000  -0.0000
    -0.0000  -0.0000  -0.0000  -0.0000  -0.0000  -0.0000  -0.0000  -0.0000
    -0.0000  -0.0000  -0.0000  -0.0000  -0.0000  -0.0000  -0.0000  -0.0000
    -0.0000  -0.0000  -0.0000  -0.0000

          k = 0.3350 0.0717-1.8247 ( 11918 PWs)   bands (ev):

   -28.7943 -28.7943 -28.7935 -28.7935 -28.7904 -28.7904 -28.7901 -28.7901
   -28.5549 -28.5549 -28.5258 -28.5258 -27.3294 -27.3294 -27.3290 -27.3290
   -27.3276 -27.3276 -27.3265 -27.3265 -27.3240 -27.3240 -27.3238 -27.3238
   -27.0915 -27.0915 -27.0799 -27.0799 -27.0537 -27.0537 -15.8351 -15.8351
   -15.8349 -15.8349 -15.8276 -15.8276 -15.8272 -15.8272 -12.8557 -12.8557
   -12.8546 -12.8546 -12.8465 -12.8465 -12.8461 -12.8461 -12.8387 -12.8386
   -12.8374 -12.8374  -3.2536  -3.2536  -3.0480  -3.0480  -1.7956  -1.7956
    -1.0357  -1.0357  -0.4623  -0.4623   4.3424   4.3424   4.8780   4.8780
     5.3953   5.3953   5.8066   5.8066   6.1628   6.1628   6.6148   6.6148
     7.4145   7.4145   7.9653   7.9653   8.1427   8.1427   9.1505   9.1505
    10.1090  10.1090  10.4886  10.4886  10.9842  10.9842  12.1126  12.1126
    12.5992  12.5992  13.0176  13.0176  13.7629  13.7629  15.3318  15.3318
    15.8379  15.8379  16.4607  16.4607  16.5553  16.5553  16.6158  16.6158
    17.2116  17.2116  17.5288  17.5288  18.5447  18.5447  18.7812  18.7812
    19.1344  19.1344  19.5113  19.5113  19.7993  19.7993  19.8679  19.8679
    20.3443  20.3443  20.9900  20.9901

     occupation numbers 
     1.0000   1.0000   1.0000   1.0000   1.0000   1.0000   1.0000   1.0000
     1.0000   1.0000   1.0000   1.0000   1.0000   1.0000   1.0000   1.0000
     1.0000   1.0000   1.0000   1.0000   1.0000   1.0000   1.0000   1.0000
     1.0000   1.0000   1.0000   1.0000   1.0000   1.0000   1.0000   1.0000
     1.0000   1.0000   1.0000   1.0000   1.0000   1.0000   1.0000   1.0000
     1.0000   1.0000   1.0000   1.0000   1.0000   1.0000   1.0000   1.0000
     1.0000   1.0000   1.0000   1.0000   1.0000   1.0000   1.0000   1.0000
     1.0000   1.0000   1.0000   1.0000   1.0000   1.0000   1.0000   1.0000
     1.0000   1.0000   1.0000   1.0000   1.0000   1.0000   1.0000   1.0000
     1.0000   1.0000   1.0000   1.0000   1.0000   1.0000  -0.0000  -0.0000
    -0.0000  -0.0000  -0.0000  -0.0000  -0.0000  -0.0000  -0.0000  -0.0000
    -0.0000  -0.0000  -0.0000  -0.0000  -0.0000  -0.0000  -0.0000  -0.0000
    -0.0000  -0.0000  -0.0000  -0.0000  -0.0000  -0.0000  -0.0000  -0.0000
    -0.0000  -0.0000  -0.0000  -0.0000  -0.0000  -0.0000  -0.0000  -0.0000
    -0.0000  -0.0000  -0.0000  -0.0000  -0.0000  -0.0000  -0.0000  -0.0000
    -0.0000  -0.0000  -0.0000  -0.0000

          k = 0.3345 0.0716-1.3579 ( 11906 PWs)   bands (ev):

   -28.7941 -28.7941 -28.7936 -28.7936 -28.7903 -28.7903 -28.7901 -28.7901
   -28.5548 -28.5548 -28.5257 -28.5257 -27.3294 -27.3294 -27.3289 -27.3289
   -27.3274 -27.3274 -27.3267 -27.3267 -27.3237 -27.3237 -27.3237 -27.3237
   -27.0915 -27.0915 -27.0799 -27.0799 -27.0536 -27.0536 -15.8346 -15.8346
   -15.8345 -15.8345 -15.8276 -15.8276 -15.8274 -15.8274 -12.8563 -12.8563
   -12.8556 -12.8556 -12.8464 -12.8464 -12.8458 -12.8458 -12.8375 -12.8375
   -12.8361 -12.8361  -2.5515  -2.5515  -2.5352  -2.5352  -2.0607  -2.0607
    -1.4991  -1.4991  -0.8836  -0.8836   3.9006   3.9006   4.7604   4.7604
     4.9228   4.9228   5.7696   5.7696   5.8929   5.8929   6.6247   6.6247
     7.0208   7.0208   7.6671   7.6671   7.7413   7.7413   9.4934   9.4934
    10.2533  10.2533  10.6794  10.6794  10.9175  10.9175  11.9158  11.9158
    12.3693  12.3693  13.3168  13.3168  14.0617  14.0617  15.4898  15.4898
    17.1186  17.1186  17.2061  17.2061  17.7718  17.7718  17.8240  17.8240
    18.2283  18.2283  18.3838  18.3838  19.0793  19.0793  19.1324  19.1324
    19.3130  19.3130  19.6213  19.6213  19.8226  19.8226  19.9937  19.9937
    20.3540  20.3540  20.8051  20.8052

     occupation numbers 
     1.0000   1.0000   1.0000   1.0000   1.0000   1.0000   1.0000   1.0000
     1.0000   1.0000   1.0000   1.0000   1.0000   1.0000   1.0000   1.0000
     1.0000   1.0000   1.0000   1.0000   1.0000   1.0000   1.0000   1.0000
     1.0000   1.0000   1.0000   1.0000   1.0000   1.0000   1.0000   1.0000
     1.0000   1.0000   1.0000   1.0000   1.0000   1.0000   1.0000   1.0000
     1.0000   1.0000   1.0000   1.0000   1.0000   1.0000   1.0000   1.0000
     1.0000   1.0000   1.0000   1.0000   1.0000   1.0000   1.0000   1.0000
     1.0000   1.0000   1.0000   1.0000   1.0000   1.0000   1.0000   1.0000
     1.0000   1.0000   1.0000   1.0000   1.0000   1.0000   1.0000   1.0000
     1.0000   1.0000   1.0000   1.0000   1.0000   1.0000  -0.0000  -0.0000
    -0.0000  -0.0000  -0.0000  -0.0000  -0.0000  -0.0000  -0.0000  -0.0000
    -0.0000  -0.0000  -0.0000  -0.0000  -0.0000  -0.0000  -0.0000  -0.0000
    -0.0000  -0.0000  -0.0000  -0.0000  -0.0000  -0.0000  -0.0000  -0.0000
    -0.0000  -0.0000  -0.0000  -0.0000  -0.0000  -0.0000  -0.0000  -0.0000
    -0.0000  -0.0000  -0.0000  -0.0000  -0.0000  -0.0000  -0.0000  -0.0000
    -0.0000  -0.0000  -0.0000  -0.0000

          k = 0.3364-1.9794 0.2228 ( 11912 PWs)   bands (ev):

   -28.7941 -28.7941 -28.7936 -28.7936 -28.7903 -28.7903 -28.7901 -28.7901
   -28.5548 -28.5548 -28.5257 -28.5257 -27.3295 -27.3295 -27.3288 -27.3288
   -27.3275 -27.3275 -27.3266 -27.3266 -27.3238 -27.3238 -27.3237 -27.3237
   -27.0915 -27.0915 -27.0799 -27.0799 -27.0536 -27.0536 -15.8350 -15.8350
   -15.8339 -15.8339 -15.8278 -15.8278 -15.8273 -15.8273 -12.8553 -12.8553
   -12.8536 -12.8535 -12.8474 -12.8474 -12.8466 -12.8466 -12.8378 -12.8378
   -12.8370 -12.8370  -2.7472  -2.7472  -2.4602  -2.4602  -1.9000  -1.9000
    -1.3341  -1.3341  -1.0700  -1.0700   4.0687   4.0687   4.8250   4.8250
     4.9753   4.9753   5.2862   5.2862   5.6896   5.6897   6.0365   6.0365
     7.3851   7.3851   8.0374   8.0374   8.1984   8.1984   9.3408   9.3408
     9.8541   9.8541  10.6260  10.6260  11.7991  11.7991  12.4753  12.4753
    12.8251  12.8251  13.0277  13.0277  14.6071  14.6071  15.1859  15.1859
    15.4426  15.4426  15.8227  15.8227  16.8108  16.8108  17.8186  17.8186
    17.9188  17.9188  18.1994  18.1994  18.8971  18.8971  19.3413  19.3413
    19.3879  19.3879  19.8042  19.8042  20.1510  20.1510  20.6683  20.6683
    20.7744  20.7744  21.1398  21.1399

     occupation numbers 
     1.0000   1.0000   1.0000   1.0000   1.0000   1.0000   1.0000   1.0000
     1.0000   1.0000   1.0000   1.0000   1.0000   1.0000   1.0000   1.0000
     1.0000   1.0000   1.0000   1.0000   1.0000   1.0000   1.0000   1.0000
     1.0000   1.0000   1.0000   1.0000   1.0000   1.0000   1.0000   1.0000
     1.0000   1.0000   1.0000   1.0000   1.0000   1.0000   1.0000   1.0000
     1.0000   1.0000   1.0000   1.0000   1.0000   1.0000   1.0000   1.0000
     1.0000   1.0000   1.0000   1.0000   1.0000   1.0000   1.0000   1.0000
     1.0000   1.0000   1.0000   1.0000   1.0000   1.0000   1.0000   1.0000
     1.0000   1.0000   1.0000   1.0000   1.0000   1.0000   1.0000   1.0000
     1.0000   1.0000   1.0000   1.0000   1.0001   1.0001  -0.0000  -0.0000
    -0.0000  -0.0000  -0.0000  -0.0000  -0.0000  -0.0000  -0.0000  -0.0000
    -0.0000  -0.0000  -0.0000  -0.0000  -0.0000  -0.0000  -0.0000  -0.0000
    -0.0000  -0.0000  -0.0000  -0.0000  -0.0000  -0.0000  -0.0000  -0.0000
    -0.0000  -0.0000  -0.0000  -0.0000  -0.0000  -0.0000  -0.0000  -0.0000
    -0.0000  -0.0000  -0.0000  -0.0000  -0.0000  -0.0000  -0.0000  -0.0000
    -0.0000  -0.0000  -0.0000  -0.0000

          k = 0.3359-1.9795 0.6896 ( 11894 PWs)   bands (ev):

   -28.7944 -28.7944 -28.7934 -28.7934 -28.7905 -28.7905 -28.7901 -28.7901
   -28.5549 -28.5549 -28.5258 -28.5258 -27.3295 -27.3295 -27.3290 -27.3290
   -27.3277 -27.3277 -27.3264 -27.3264 -27.3241 -27.3241 -27.3238 -27.3238
   -27.0916 -27.0916 -27.0798 -27.0798 -27.0538 -27.0538 -15.8355 -15.8355
   -15.8349 -15.8349 -15.8277 -15.8277 -15.8271 -15.8271 -12.8555 -12.8554
   -12.8538 -12.8538 -12.8467 -12.8467 -12.8463 -12.8462 -12.8393 -12.8393
   -12.8383 -12.8383  -3.4912  -3.4912  -3.1692  -3.1692  -1.8558  -1.8558
    -0.8709  -0.8709  -0.2330  -0.2330   4.6095   4.6095   4.9951   4.9951
     5.3815   5.3815   5.9595   5.9595   6.4569   6.4569   6.8668   6.8668
     7.3114   7.3114   7.8102   7.8102   7.9431   7.9431   9.7519   9.7519
     9.8968   9.8968  10.8878  10.8878  11.3867  11.3867  11.8147  11.8147
    12.2711  12.2711  13.4014  13.4014  13.4267  13.4267  14.2107  14.2107
    14.7799  14.7799  16.4915  16.4915  16.7050  16.7050  16.8840  16.8840
    17.2695  17.2695  17.6380  17.6380  17.9519  17.9519  18.2796  18.2796
    18.6123  18.6123  18.7090  18.7090  18.9940  18.9940  19.7864  19.7864
    20.2255  20.2255  20.4687  20.4687

     occupation numbers 
     1.0000   1.0000   1.0000   1.0000   1.0000   1.0000   1.0000   1.0000
     1.0000   1.0000   1.0000   1.0000   1.0000   1.0000   1.0000   1.0000
     1.0000   1.0000   1.0000   1.0000   1.0000   1.0000   1.0000   1.0000
     1.0000   1.0000   1.0000   1.0000   1.0000   1.0000   1.0000   1.0000
     1.0000   1.0000   1.0000   1.0000   1.0000   1.0000   1.0000   1.0000
     1.0000   1.0000   1.0000   1.0000   1.0000   1.0000   1.0000   1.0000
     1.0000   1.0000   1.0000   1.0000   1.0000   1.0000   1.0000   1.0000
     1.0000   1.0000   1.0000   1.0000   1.0000   1.0000   1.0000   1.0000
     1.0000   1.0000   1.0000   1.0000   1.0000   1.0000   1.0000   1.0000
     1.0000   1.0000   1.0000   1.0000   1.0000   1.0000  -0.0000  -0.0000
    -0.0000  -0.0000  -0.0000  -0.0000  -0.0000  -0.0000  -0.0000  -0.0000
    -0.0000  -0.0000  -0.0000  -0.0000  -0.0000  -0.0000  -0.0000  -0.0000
    -0.0000  -0.0000  -0.0000  -0.0000  -0.0000  -0.0000  -0.0000  -0.0000
    -0.0000  -0.0000  -0.0000  -0.0000  -0.0000  -0.0000  -0.0000  -0.0000
    -0.0000  -0.0000  -0.0000  -0.0000  -0.0000  -0.0000  -0.0000  -0.0000
    -0.0000  -0.0000  -0.0000  -0.0000

          k = 0.3354-1.9796 1.1563 ( 11903 PWs)   bands (ev):

   -28.7946 -28.7946 -28.7932 -28.7932 -28.7907 -28.7907 -28.7901 -28.7901
   -28.5549 -28.5549 -28.5259 -28.5259 -27.3295 -27.3295 -27.3290 -27.3290
   -27.3280 -27.3280 -27.3263 -27.3263 -27.3243 -27.3243 -27.3240 -27.3240
   -27.0916 -27.0916 -27.0798 -27.0798 -27.0540 -27.0540 -15.8361 -15.8361
   -15.8359 -15.8359 -15.8275 -15.8275 -15.8269 -15.8269 -12.8561 -12.8561
   -12.8549 -12.8549 -12.8455 -12.8455 -12.8453 -12.8453 -12.8406 -12.8406
   -12.8394 -12.8394  -3.9043  -3.9043  -3.6002  -3.6002  -1.9727  -1.9727
    -0.7365  -0.7365   0.4613   0.4613   5.2419   5.2419   5.6177   5.6177
     6.1464   6.1464   6.6413   6.6413   6.8517   6.8517   7.1819   7.1819
     7.6179   7.6179   7.8944   7.8944   8.5319   8.5319   8.8236   8.8236
    10.0175  10.0175  10.2111  10.2111  10.9891  10.9891  11.3540  11.3540
    11.6771  11.6771  13.3216  13.3216  14.2443  14.2443  14.3622  14.3622
    14.7626  14.7626  15.1637  15.1637  15.6465  15.6465  16.0783  16.0783
    16.5893  16.5893  16.9813  16.9813  17.2050  17.2050  17.4750  17.4750
    17.9754  17.9754  18.0872  18.0872  18.2759  18.2759  18.6327  18.6327
    19.6792  19.6792  20.0417  20.0417

     occupation numbers 
     1.0000   1.0000   1.0000   1.0000   1.0000   1.0000   1.0000   1.0000
     1.0000   1.0000   1.0000   1.0000   1.0000   1.0000   1.0000   1.0000
     1.0000   1.0000   1.0000   1.0000   1.0000   1.0000   1.0000   1.0000
     1.0000   1.0000   1.0000   1.0000   1.0000   1.0000   1.0000   1.0000
     1.0000   1.0000   1.0000   1.0000   1.0000   1.0000   1.0000   1.0000
     1.0000   1.0000   1.0000   1.0000   1.0000   1.0000   1.0000   1.0000
     1.0000   1.0000   1.0000   1.0000   1.0000   1.0000   1.0000   1.0000
     1.0000   1.0000   1.0000   1.0000   1.0000   1.0000   1.0000   1.0000
     1.0000   1.0000   1.0000   1.0000   1.0000   1.0000   1.0000   1.0000
     1.0000   1.0000   1.0000   1.0000   0.9050   0.9050  -0.0242  -0.0242
    -0.0000  -0.0000  -0.0000  -0.0000  -0.0000  -0.0000  -0.0000  -0.0000
    -0.0000  -0.0000  -0.0000  -0.0000  -0.0000  -0.0000  -0.0000  -0.0000
    -0.0000  -0.0000  -0.0000  -0.0000  -0.0000  -0.0000  -0.0000  -0.0000
    -0.0000  -0.0000  -0.0000  -0.0000  -0.0000  -0.0000  -0.0000  -0.0000
    -0.0000  -0.0000  -0.0000  -0.0000  -0.0000  -0.0000  -0.0000  -0.0000
    -0.0000  -0.0000  -0.0000  -0.0000

          k = 0.3377-1.9791-1.1776 ( 11888 PWs)   bands (ev):

   -28.7946 -28.7946 -28.7932 -28.7932 -28.7907 -28.7907 -28.7901 -28.7901
   -28.5549 -28.5549 -28.5259 -28.5259 -27.3295 -27.3295 -27.3290 -27.3290
   -27.3280 -27.3280 -27.3263 -27.3263 -27.3243 -27.3243 -27.3240 -27.3240
   -27.0916 -27.0916 -27.0798 -27.0798 -27.0540 -27.0540 -15.8361 -15.8361
   -15.8359 -15.8359 -15.8275 -15.8275 -15.8269 -15.8269 -12.8561 -12.8561
   -12.8549 -12.8549 -12.8455 -12.8455 -12.8453 -12.8453 -12.8406 -12.8406
   -12.8394 -12.8394  -3.8914  -3.8914  -3.6202  -3.6202  -1.9524  -1.9524
    -0.7527  -0.7527   0.4596   0.4596   5.2381   5.2381   5.7210   5.7210
     6.0490   6.0490   6.6921   6.6921   6.8819   6.8819   7.1038   7.1038
     7.6509   7.6509   7.8400   7.8400   8.4679   8.4679   8.8884   8.8884
     9.9521   9.9522  10.1933  10.1933  10.9267  10.9267  11.5410  11.5410
    11.7653  11.7653  13.4784  13.4784  14.0168  14.0168  14.2829  14.2829
    14.9756  14.9756  15.1140  15.1140  15.6928  15.6928  16.0906  16.0906
    16.3973  16.3973  16.5133  16.5133  16.8712  16.8712  17.7691  17.7691
    17.7993  17.7993  18.1605  18.1605  18.4487  18.4487  19.2219  19.2219
    19.7141  19.7141  19.9135  19.9138

     occupation numbers 
     1.0000   1.0000   1.0000   1.0000   1.0000   1.0000   1.0000   1.0000
     1.0000   1.0000   1.0000   1.0000   1.0000   1.0000   1.0000   1.0000
     1.0000   1.0000   1.0000   1.0000   1.0000   1.0000   1.0000   1.0000
     1.0000   1.0000   1.0000   1.0000   1.0000   1.0000   1.0000   1.0000
     1.0000   1.0000   1.0000   1.0000   1.0000   1.0000   1.0000   1.0000
     1.0000   1.0000   1.0000   1.0000   1.0000   1.0000   1.0000   1.0000
     1.0000   1.0000   1.0000   1.0000   1.0000   1.0000   1.0000   1.0000
     1.0000   1.0000   1.0000   1.0000   1.0000   1.0000   1.0000   1.0000
     1.0000   1.0000   1.0000   1.0000   1.0000   1.0000   1.0000   1.0000
     1.0000   1.0000   1.0000   1.0000   1.0287   1.0287  -0.0067  -0.0067
    -0.0000  -0.0000  -0.0000  -0.0000  -0.0000  -0.0000  -0.0000  -0.0000
    -0.0000  -0.0000  -0.0000  -0.0000  -0.0000  -0.0000  -0.0000  -0.0000
    -0.0000  -0.0000  -0.0000  -0.0000  -0.0000  -0.0000  -0.0000  -0.0000
    -0.0000  -0.0000  -0.0000  -0.0000  -0.0000  -0.0000  -0.0000  -0.0000
    -0.0000  -0.0000  -0.0000  -0.0000  -0.0000  -0.0000  -0.0000  -0.0000
    -0.0000  -0.0000  -0.0000  -0.0000

          k = 0.3373-1.9792-0.7108 ( 11900 PWs)   bands (ev):

   -28.7944 -28.7944 -28.7934 -28.7934 -28.7905 -28.7905 -28.7901 -28.7901
   -28.5549 -28.5549 -28.5258 -28.5258 -27.3295 -27.3295 -27.3290 -27.3290
   -27.3277 -27.3277 -27.3264 -27.3264 -27.3241 -27.3241 -27.3238 -27.3238
   -27.0916 -27.0916 -27.0798 -27.0798 -27.0538 -27.0538 -15.8355 -15.8355
   -15.8349 -15.8349 -15.8277 -15.8277 -15.8271 -15.8271 -12.8555 -12.8554
   -12.8538 -12.8538 -12.8467 -12.8467 -12.8463 -12.8462 -12.8393 -12.8393
   -12.8383 -12.8383  -3.4543  -3.4543  -3.2279  -3.2279  -1.7899  -1.7899
    -0.9420  -0.9420  -0.2059  -0.2059   4.5761   4.5761   4.9524   4.9524
     5.4221   5.4221   6.1256   6.1256   6.3251   6.3251   7.1132   7.1132
     7.3078   7.3078   7.6138   7.6138   7.7431   7.7431   9.9180   9.9181
     9.9974   9.9974  11.0075  11.0075  11.3128  11.3128  11.7286  11.7286
    12.1369  12.1369  13.5039  13.5039  13.6080  13.6080  13.8653  13.8653
    14.5577  14.5577  16.5241  16.5241  16.8562  16.8562  17.2523  17.2523
    17.4904  17.4904  17.7340  17.7341  18.0591  18.0591  18.4152  18.4152
    18.5487  18.5487  18.6196  18.6196  19.0485  19.0485  19.3974  19.3974
    19.8931  19.8931  20.2545  20.2545

     occupation numbers 
     1.0000   1.0000   1.0000   1.0000   1.0000   1.0000   1.0000   1.0000
     1.0000   1.0000   1.0000   1.0000   1.0000   1.0000   1.0000   1.0000
     1.0000   1.0000   1.0000   1.0000   1.0000   1.0000   1.0000   1.0000
     1.0000   1.0000   1.0000   1.0000   1.0000   1.0000   1.0000   1.0000
     1.0000   1.0000   1.0000   1.0000   1.0000   1.0000   1.0000   1.0000
     1.0000   1.0000   1.0000   1.0000   1.0000   1.0000   1.0000   1.0000
     1.0000   1.0000   1.0000   1.0000   1.0000   1.0000   1.0000   1.0000
     1.0000   1.0000   1.0000   1.0000   1.0000   1.0000   1.0000   1.0000
     1.0000   1.0000   1.0000   1.0000   1.0000   1.0000   1.0000   1.0000
     1.0000   1.0000   1.0000   1.0000   1.0000   1.0000  -0.0000  -0.0000
    -0.0000  -0.0000  -0.0000  -0.0000  -0.0000  -0.0000  -0.0000  -0.0000
    -0.0000  -0.0000  -0.0000  -0.0000  -0.0000  -0.0000  -0.0000  -0.0000
    -0.0000  -0.0000  -0.0000  -0.0000  -0.0000  -0.0000  -0.0000  -0.0000
    -0.0000  -0.0000  -0.0000  -0.0000  -0.0000  -0.0000  -0.0000  -0.0000
    -0.0000  -0.0000  -0.0000  -0.0000  -0.0000  -0.0000  -0.0000  -0.0000
    -0.0000  -0.0000  -0.0000  -0.0000

          k = 0.3368-1.9793-0.2440 ( 11915 PWs)   bands (ev):

   -28.7941 -28.7941 -28.7936 -28.7936 -28.7903 -28.7903 -28.7901 -28.7901
   -28.5548 -28.5548 -28.5257 -28.5257 -27.3295 -27.3295 -27.3288 -27.3288
   -27.3275 -27.3275 -27.3266 -27.3266 -27.3238 -27.3238 -27.3237 -27.3237
   -27.0915 -27.0915 -27.0799 -27.0799 -27.0536 -27.0536 -15.8350 -15.8350
   -15.8339 -15.8339 -15.8278 -15.8278 -15.8273 -15.8273 -12.8553 -12.8553
   -12.8536 -12.8535 -12.8474 -12.8474 -12.8466 -12.8466 -12.8378 -12.8378
   -12.8370 -12.8370  -2.7117  -2.7117  -2.5203  -2.5203  -1.8763  -1.8763
    -1.3000  -1.3000  -1.1032  -1.1032   4.2156   4.2156   4.7078   4.7078
     4.8313   4.8313   5.1531   5.1531   5.7735   5.7735   6.2437   6.2437
     7.6044   7.6044   7.8637   7.8637   8.0938   8.0938   9.3481   9.3481
    10.0177  10.0177  10.4394  10.4394  11.7562  11.7562  12.3719  12.3719
    12.8348  12.8348  13.2832  13.2832  14.1745  14.1745  14.9967  14.9967
    15.8459  15.8459  16.2108  16.2108  16.9283  16.9283  17.8334  17.8334
    17.9915  17.9915  18.2871  18.2871  18.8459  18.8459  19.0331  19.0331
    19.4103  19.4103  19.8501  19.8501  19.9763  19.9763  20.3854  20.3854
    20.6451  20.6451  20.9447  20.9447

     occupation numbers 
     1.0000   1.0000   1.0000   1.0000   1.0000   1.0000   1.0000   1.0000
     1.0000   1.0000   1.0000   1.0000   1.0000   1.0000   1.0000   1.0000
     1.0000   1.0000   1.0000   1.0000   1.0000   1.0000   1.0000   1.0000
     1.0000   1.0000   1.0000   1.0000   1.0000   1.0000   1.0000   1.0000
     1.0000   1.0000   1.0000   1.0000   1.0000   1.0000   1.0000   1.0000
     1.0000   1.0000   1.0000   1.0000   1.0000   1.0000   1.0000   1.0000
     1.0000   1.0000   1.0000   1.0000   1.0000   1.0000   1.0000   1.0000
     1.0000   1.0000   1.0000   1.0000   1.0000   1.0000   1.0000   1.0000
     1.0000   1.0000   1.0000   1.0000   1.0000   1.0000   1.0000   1.0000
     1.0000   1.0000   1.0000   1.0000   1.0000   1.0000  -0.0000  -0.0000
    -0.0000  -0.0000  -0.0000  -0.0000  -0.0000  -0.0000  -0.0000  -0.0000
    -0.0000  -0.0000  -0.0000  -0.0000  -0.0000  -0.0000  -0.0000  -0.0000
    -0.0000  -0.0000  -0.0000  -0.0000  -0.0000  -0.0000  -0.0000  -0.0000
    -0.0000  -0.0000  -0.0000  -0.0000  -0.0000  -0.0000  -0.0000  -0.0000
    -0.0000  -0.0000  -0.0000  -0.0000  -0.0000  -0.0000  -0.0000  -0.0000
    -0.0000  -0.0000  -0.0000  -0.0000

          k = 0.3359-1.5692-0.0000 ( 11913 PWs)   bands (ev):

   -28.7939 -28.7939 -28.7938 -28.7938 -28.7901 -28.7901 -28.7901 -28.7901
   -28.5548 -28.5548 -28.5257 -28.5257 -27.3296 -27.3296 -27.3286 -27.3286
   -27.3275 -27.3275 -27.3266 -27.3266 -27.3238 -27.3238 -27.3236 -27.3236
   -27.0915 -27.0915 -27.0799 -27.0799 -27.0535 -27.0535 -15.8349 -15.8349
   -15.8332 -15.8332 -15.8281 -15.8281 -15.8273 -15.8273 -12.8534 -12.8534
   -12.8515 -12.8515 -12.8495 -12.8495 -12.8477 -12.8477 -12.8375 -12.8374
   -12.8374 -12.8374  -1.9560  -1.9560  -1.9407  -1.9407  -1.9110  -1.9110
    -1.8819  -1.8819  -1.7752  -1.7752   4.0996   4.0996   4.5031   4.5031
     4.7183   4.7183   5.0173   5.0173   5.6106   5.6106   6.1857   6.1857
     7.1265   7.1265   7.4481   7.4481   8.0443   8.0443   9.5607   9.5607
    10.6107  10.6107  11.0135  11.0135  12.1466  12.1466  12.4156  12.4156
    12.9254  12.9254  14.2693  14.2693  14.7646  14.7646  14.7997  14.7997
    15.1534  15.1534  15.3545  15.3545  16.6408  16.6408  16.9233  16.9233
    18.1155  18.1155  18.1750  18.1750  18.5330  18.5330  18.8437  18.8437
    19.2122  19.2122  19.9904  19.9904  20.5056  20.5056  20.8596  20.8597
    20.9054  20.9054  22.0802  22.0802

     occupation numbers 
     1.0000   1.0000   1.0000   1.0000   1.0000   1.0000   1.0000   1.0000
     1.0000   1.0000   1.0000   1.0000   1.0000   1.0000   1.0000   1.0000
     1.0000   1.0000   1.0000   1.0000   1.0000   1.0000   1.0000   1.0000
     1.0000   1.0000   1.0000   1.0000   1.0000   1.0000   1.0000   1.0000
     1.0000   1.0000   1.0000   1.0000   1.0000   1.0000   1.0000   1.0000
     1.0000   1.0000   1.0000   1.0000   1.0000   1.0000   1.0000   1.0000
     1.0000   1.0000   1.0000   1.0000   1.0000   1.0000   1.0000   1.0000
     1.0000   1.0000   1.0000   1.0000   1.0000   1.0000   1.0000   1.0000
     1.0000   1.0000   1.0000   1.0000   1.0000   1.0000   1.0000   1.0000
     1.0000   1.0000   1.0000   1.0000   1.0000   1.0000  -0.0000  -0.0000
    -0.0000  -0.0000  -0.0000  -0.0000  -0.0000  -0.0000  -0.0000  -0.0000
    -0.0000  -0.0000  -0.0000  -0.0000  -0.0000  -0.0000  -0.0000  -0.0000
    -0.0000  -0.0000  -0.0000  -0.0000  -0.0000  -0.0000  -0.0000  -0.0000
    -0.0000  -0.0000  -0.0000  -0.0000  -0.0000  -0.0000  -0.0000  -0.0000
    -0.0000  -0.0000  -0.0000  -0.0000  -0.0000  -0.0000  -0.0000  -0.0000
    -0.0000  -0.0000  -0.0000  -0.0000

          k = 0.3354-1.5693 0.4668 ( 11918 PWs)   bands (ev):

   -28.7941 -28.7941 -28.7936 -28.7936 -28.7903 -28.7903 -28.7901 -28.7901
   -28.5548 -28.5548 -28.5257 -28.5257 -27.3295 -27.3295 -27.3288 -27.3288
   -27.3275 -27.3275 -27.3266 -27.3266 -27.3238 -27.3238 -27.3237 -27.3237
   -27.0915 -27.0915 -27.0799 -27.0799 -27.0536 -27.0536 -15.8350 -15.8350
   -15.8339 -15.8339 -15.8278 -15.8278 -15.8273 -15.8273 -12.8553 -12.8553
   -12.8536 -12.8535 -12.8474 -12.8474 -12.8466 -12.8466 -12.8379 -12.8379
   -12.8370 -12.8370  -2.6908  -2.6908  -2.5576  -2.5576  -1.8328  -1.8328
    -1.3486  -1.3486  -1.0818  -1.0818   4.1779   4.1779   4.6719   4.6719
     4.8396   4.8396   5.0870   5.0870   6.0372   6.0372   6.5574   6.5574
     7.2968   7.2968   7.5101   7.5101   7.8450   7.8450   9.6841   9.6841
    10.3260  10.3260  10.6886  10.6886  11.5674  11.5674  12.1590  12.1590
    12.9183  12.9183  13.2538  13.2538  13.7364  13.7364  14.8310  14.8310
    16.2055  16.2055  16.8654  16.8654  17.1129  17.1129  17.7852  17.7852
    17.9819  17.9819  18.2055  18.2055  18.6554  18.6554  18.7993  18.7993
    19.3075  19.3075  19.6576  19.6576  19.8438  19.8438  19.9980  19.9980
    20.3874  20.3874  21.0897  21.0905

     occupation numbers 
     1.0000   1.0000   1.0000   1.0000   1.0000   1.0000   1.0000   1.0000
     1.0000   1.0000   1.0000   1.0000   1.0000   1.0000   1.0000   1.0000
     1.0000   1.0000   1.0000   1.0000   1.0000   1.0000   1.0000   1.0000
     1.0000   1.0000   1.0000   1.0000   1.0000   1.0000   1.0000   1.0000
     1.0000   1.0000   1.0000   1.0000   1.0000   1.0000   1.0000   1.0000
     1.0000   1.0000   1.0000   1.0000   1.0000   1.0000   1.0000   1.0000
     1.0000   1.0000   1.0000   1.0000   1.0000   1.0000   1.0000   1.0000
     1.0000   1.0000   1.0000   1.0000   1.0000   1.0000   1.0000   1.0000
     1.0000   1.0000   1.0000   1.0000   1.0000   1.0000   1.0000   1.0000
     1.0000   1.0000   1.0000   1.0000   1.0000   1.0000  -0.0000  -0.0000
    -0.0000  -0.0000  -0.0000  -0.0000  -0.0000  -0.0000  -0.0000  -0.0000
    -0.0000  -0.0000  -0.0000  -0.0000  -0.0000  -0.0000  -0.0000  -0.0000
    -0.0000  -0.0000  -0.0000  -0.0000  -0.0000  -0.0000  -0.0000  -0.0000
    -0.0000  -0.0000  -0.0000  -0.0000  -0.0000  -0.0000  -0.0000  -0.0000
    -0.0000  -0.0000  -0.0000  -0.0000  -0.0000  -0.0000  -0.0000  -0.0000
    -0.0000  -0.0000  -0.0000  -0.0000

          k = 0.3350-1.5694 0.9336 ( 11918 PWs)   bands (ev):

   -28.7943 -28.7943 -28.7935 -28.7935 -28.7904 -28.7904 -28.7901 -28.7901
   -28.5549 -28.5549 -28.5258 -28.5258 -27.3294 -27.3294 -27.3290 -27.3290
   -27.3276 -27.3276 -27.3265 -27.3265 -27.3240 -27.3240 -27.3238 -27.3238
   -27.0915 -27.0915 -27.0799 -27.0799 -27.0537 -27.0537 -15.8351 -15.8351
   -15.8349 -15.8349 -15.8276 -15.8276 -15.8272 -15.8272 -12.8557 -12.8557
   -12.8546 -12.8546 -12.8465 -12.8465 -12.8461 -12.8461 -12.8387 -12.8386
   -12.8374 -12.8374  -3.2536  -3.2536  -3.0480  -3.0480  -1.7956  -1.7956
    -1.0357  -1.0357  -0.4623  -0.4623   4.3424   4.3424   4.8780   4.8780
     5.3953   5.3953   5.8066   5.8066   6.1628   6.1628   6.6148   6.6148
     7.4145   7.4145   7.9653   7.9653   8.1427   8.1427   9.1505   9.1505
    10.1090  10.1090  10.4886  10.4886  10.9842  10.9842  12.1126  12.1126
    12.5992  12.5992  13.0176  13.0176  13.7629  13.7629  15.3318  15.3318
    15.8379  15.8379  16.4607  16.4607  16.5553  16.5553  16.6158  16.6158
    17.2116  17.2116  17.5288  17.5288  18.5447  18.5447  18.7812  18.7812
    19.1344  19.1344  19.5113  19.5113  19.7993  19.7993  19.8679  19.8679
    20.3443  20.3443  20.9901  20.9902

     occupation numbers 
     1.0000   1.0000   1.0000   1.0000   1.0000   1.0000   1.0000   1.0000
     1.0000   1.0000   1.0000   1.0000   1.0000   1.0000   1.0000   1.0000
     1.0000   1.0000   1.0000   1.0000   1.0000   1.0000   1.0000   1.0000
     1.0000   1.0000   1.0000   1.0000   1.0000   1.0000   1.0000   1.0000
     1.0000   1.0000   1.0000   1.0000   1.0000   1.0000   1.0000   1.0000
     1.0000   1.0000   1.0000   1.0000   1.0000   1.0000   1.0000   1.0000
     1.0000   1.0000   1.0000   1.0000   1.0000   1.0000   1.0000   1.0000
     1.0000   1.0000   1.0000   1.0000   1.0000   1.0000   1.0000   1.0000
     1.0000   1.0000   1.0000   1.0000   1.0000   1.0000   1.0000   1.0000
     1.0000   1.0000   1.0000   1.0000   1.0000   1.0000  -0.0000  -0.0000
    -0.0000  -0.0000  -0.0000  -0.0000  -0.0000  -0.0000  -0.0000  -0.0000
    -0.0000  -0.0000  -0.0000  -0.0000  -0.0000  -0.0000  -0.0000  -0.0000
    -0.0000  -0.0000  -0.0000  -0.0000  -0.0000  -0.0000  -0.0000  -0.0000
    -0.0000  -0.0000  -0.0000  -0.0000  -0.0000  -0.0000  -0.0000  -0.0000
    -0.0000  -0.0000  -0.0000  -0.0000  -0.0000  -0.0000  -0.0000  -0.0000
    -0.0000  -0.0000  -0.0000  -0.0000

          k = 0.3373-1.5689-1.4003 ( 11900 PWs)   bands (ev):

   -28.7944 -28.7944 -28.7934 -28.7934 -28.7905 -28.7905 -28.7901 -28.7901
   -28.5549 -28.5549 -28.5258 -28.5258 -27.3295 -27.3295 -27.3290 -27.3290
   -27.3277 -27.3277 -27.3264 -27.3264 -27.3241 -27.3241 -27.3238 -27.3238
   -27.0916 -27.0916 -27.0798 -27.0798 -27.0538 -27.0538 -15.8355 -15.8355
   -15.8349 -15.8349 -15.8277 -15.8277 -15.8271 -15.8271 -12.8555 -12.8554
   -12.8538 -12.8538 -12.8467 -12.8467 -12.8463 -12.8462 -12.8393 -12.8393
   -12.8383 -12.8383  -3.4543  -3.4543  -3.2279  -3.2279  -1.7899  -1.7899
    -0.9420  -0.9420  -0.2059  -0.2059   4.5761   4.5761   4.9524   4.9524
     5.4221   5.4221   6.1256   6.1256   6.3251   6.3251   7.1132   7.1132
     7.3078   7.3078   7.6138   7.6138   7.7431   7.7431   9.9180   9.9181
     9.9974   9.9974  11.0075  11.0075  11.3128  11.3128  11.7286  11.7286
    12.1369  12.1369  13.5039  13.5039  13.6080  13.6080  13.8653  13.8653
    14.5577  14.5577  16.5241  16.5241  16.8562  16.8562  17.2523  17.2523
    17.4904  17.4904  17.7340  17.7341  18.0591  18.0591  18.4152  18.4152
    18.5487  18.5487  18.6196  18.6196  19.0485  19.0485  19.3974  19.3974
    19.8931  19.8931  20.2545  20.2545

     occupation numbers 
     1.0000   1.0000   1.0000   1.0000   1.0000   1.0000   1.0000   1.0000
     1.0000   1.0000   1.0000   1.0000   1.0000   1.0000   1.0000   1.0000
     1.0000   1.0000   1.0000   1.0000   1.0000   1.0000   1.0000   1.0000
     1.0000   1.0000   1.0000   1.0000   1.0000   1.0000   1.0000   1.0000
     1.0000   1.0000   1.0000   1.0000   1.0000   1.0000   1.0000   1.0000
     1.0000   1.0000   1.0000   1.0000   1.0000   1.0000   1.0000   1.0000
     1.0000   1.0000   1.0000   1.0000   1.0000   1.0000   1.0000   1.0000
     1.0000   1.0000   1.0000   1.0000   1.0000   1.0000   1.0000   1.0000
     1.0000   1.0000   1.0000   1.0000   1.0000   1.0000   1.0000   1.0000
     1.0000   1.0000   1.0000   1.0000   1.0000   1.0000  -0.0000  -0.0000
    -0.0000  -0.0000  -0.0000  -0.0000  -0.0000  -0.0000  -0.0000  -0.0000
    -0.0000  -0.0000  -0.0000  -0.0000  -0.0000  -0.0000  -0.0000  -0.0000
    -0.0000  -0.0000  -0.0000  -0.0000  -0.0000  -0.0000  -0.0000  -0.0000
    -0.0000  -0.0000  -0.0000  -0.0000  -0.0000  -0.0000  -0.0000  -0.0000
    -0.0000  -0.0000  -0.0000  -0.0000  -0.0000  -0.0000  -0.0000  -0.0000
    -0.0000  -0.0000  -0.0000  -0.0000

          k = 0.3368-1.5690-0.9336 ( 11918 PWs)   bands (ev):

   -28.7943 -28.7943 -28.7935 -28.7935 -28.7904 -28.7904 -28.7901 -28.7901
   -28.5549 -28.5549 -28.5258 -28.5258 -27.3294 -27.3294 -27.3290 -27.3290
   -27.3276 -27.3276 -27.3265 -27.3265 -27.3240 -27.3240 -27.3238 -27.3238
   -27.0915 -27.0915 -27.0799 -27.0799 -27.0537 -27.0537 -15.8351 -15.8351
   -15.8349 -15.8349 -15.8276 -15.8276 -15.8272 -15.8272 -12.8557 -12.8557
   -12.8546 -12.8546 -12.8465 -12.8465 -12.8461 -12.8461 -12.8387 -12.8386
   -12.8374 -12.8374  -3.2536  -3.2536  -3.0480  -3.0480  -1.7956  -1.7956
    -1.0357  -1.0357  -0.4623  -0.4623   4.3424   4.3424   4.8780   4.8780
     5.3953   5.3953   5.8066   5.8066   6.1628   6.1628   6.6148   6.6148
     7.4145   7.4145   7.9653   7.9653   8.1427   8.1427   9.1505   9.1505
    10.1090  10.1090  10.4886  10.4886  10.9842  10.9842  12.1126  12.1126
    12.5992  12.5992  13.0176  13.0176  13.7629  13.7629  15.3318  15.3318
    15.8379  15.8379  16.4607  16.4607  16.5553  16.5553  16.6158  16.6158
    17.2116  17.2116  17.5287  17.5287  18.5448  18.5448  18.7812  18.7812
    19.1344  19.1344  19.5113  19.5113  19.7993  19.7993  19.8679  19.8679
    20.3443  20.3443  20.9900  20.9908

     occupation numbers 
     1.0000   1.0000   1.0000   1.0000   1.0000   1.0000   1.0000   1.0000
     1.0000   1.0000   1.0000   1.0000   1.0000   1.0000   1.0000   1.0000
     1.0000   1.0000   1.0000   1.0000   1.0000   1.0000   1.0000   1.0000
     1.0000   1.0000   1.0000   1.0000   1.0000   1.0000   1.0000   1.0000
     1.0000   1.0000   1.0000   1.0000   1.0000   1.0000   1.0000   1.0000
     1.0000   1.0000   1.0000   1.0000   1.0000   1.0000   1.0000   1.0000
     1.0000   1.0000   1.0000   1.0000   1.0000   1.0000   1.0000   1.0000
     1.0000   1.0000   1.0000   1.0000   1.0000   1.0000   1.0000   1.0000
     1.0000   1.0000   1.0000   1.0000   1.0000   1.0000   1.0000   1.0000
     1.0000   1.0000   1.0000   1.0000   1.0000   1.0000  -0.0000  -0.0000
    -0.0000  -0.0000  -0.0000  -0.0000  -0.0000  -0.0000  -0.0000  -0.0000
    -0.0000  -0.0000  -0.0000  -0.0000  -0.0000  -0.0000  -0.0000  -0.0000
    -0.0000  -0.0000  -0.0000  -0.0000  -0.0000  -0.0000  -0.0000  -0.0000
    -0.0000  -0.0000  -0.0000  -0.0000  -0.0000  -0.0000  -0.0000  -0.0000
    -0.0000  -0.0000  -0.0000  -0.0000  -0.0000  -0.0000  -0.0000  -0.0000
    -0.0000  -0.0000  -0.0000  -0.0000

          k = 0.3364-1.5691-0.4668 ( 11918 PWs)   bands (ev):

   -28.7941 -28.7941 -28.7936 -28.7936 -28.7903 -28.7903 -28.7901 -28.7901
   -28.5548 -28.5548 -28.5257 -28.5257 -27.3295 -27.3295 -27.3288 -27.3288
   -27.3275 -27.3275 -27.3266 -27.3266 -27.3238 -27.3238 -27.3237 -27.3237
   -27.0915 -27.0915 -27.0799 -27.0799 -27.0536 -27.0536 -15.8350 -15.8350
   -15.8339 -15.8339 -15.8278 -15.8278 -15.8273 -15.8273 -12.8553 -12.8553
   -12.8536 -12.8535 -12.8474 -12.8474 -12.8466 -12.8466 -12.8379 -12.8379
   -12.8370 -12.8370  -2.6908  -2.6908  -2.5576  -2.5576  -1.8328  -1.8328
    -1.3486  -1.3486  -1.0818  -1.0818   4.1779   4.1779   4.6719   4.6719
     4.8396   4.8396   5.0870   5.0870   6.0372   6.0372   6.5574   6.5574
     7.2968   7.2968   7.5101   7.5101   7.8450   7.8450   9.6841   9.6841
    10.3260  10.3260  10.6886  10.6886  11.5674  11.5674  12.1590  12.1590
    12.9183  12.9183  13.2538  13.2538  13.7364  13.7364  14.8310  14.8310
    16.2055  16.2055  16.8654  16.8654  17.1129  17.1129  17.7852  17.7852
    17.9819  17.9819  18.2055  18.2055  18.6554  18.6554  18.7993  18.7993
    19.3075  19.3075  19.6576  19.6576  19.8438  19.8438  19.9980  19.9980
    20.3874  20.3874  21.0897  21.0903

     occupation numbers 
     1.0000   1.0000   1.0000   1.0000   1.0000   1.0000   1.0000   1.0000
     1.0000   1.0000   1.0000   1.0000   1.0000   1.0000   1.0000   1.0000
     1.0000   1.0000   1.0000   1.0000   1.0000   1.0000   1.0000   1.0000
     1.0000   1.0000   1.0000   1.0000   1.0000   1.0000   1.0000   1.0000
     1.0000   1.0000   1.0000   1.0000   1.0000   1.0000   1.0000   1.0000
     1.0000   1.0000   1.0000   1.0000   1.0000   1.0000   1.0000   1.0000
     1.0000   1.0000   1.0000   1.0000   1.0000   1.0000   1.0000   1.0000
     1.0000   1.0000   1.0000   1.0000   1.0000   1.0000   1.0000   1.0000
     1.0000   1.0000   1.0000   1.0000   1.0000   1.0000   1.0000   1.0000
     1.0000   1.0000   1.0000   1.0000   1.0000   1.0000  -0.0000  -0.0000
    -0.0000  -0.0000  -0.0000  -0.0000  -0.0000  -0.0000  -0.0000  -0.0000
    -0.0000  -0.0000  -0.0000  -0.0000  -0.0000  -0.0000  -0.0000  -0.0000
    -0.0000  -0.0000  -0.0000  -0.0000  -0.0000  -0.0000  -0.0000  -0.0000
    -0.0000  -0.0000  -0.0000  -0.0000  -0.0000  -0.0000  -0.0000  -0.0000
    -0.0000  -0.0000  -0.0000  -0.0000  -0.0000  -0.0000  -0.0000  -0.0000
    -0.0000  -0.0000  -0.0000  -0.0000

          k = 0.3354-1.1590-0.2228 ( 11920 PWs)   bands (ev):

   -28.7941 -28.7941 -28.7936 -28.7936 -28.7903 -28.7903 -28.7901 -28.7901
   -28.5548 -28.5548 -28.5257 -28.5257 -27.3295 -27.3295 -27.3288 -27.3288
   -27.3275 -27.3275 -27.3266 -27.3266 -27.3238 -27.3238 -27.3237 -27.3237
   -27.0915 -27.0915 -27.0799 -27.0799 -27.0536 -27.0536 -15.8350 -15.8350
   -15.8339 -15.8339 -15.8278 -15.8278 -15.8273 -15.8273 -12.8553 -12.8553
   -12.8536 -12.8535 -12.8474 -12.8474 -12.8466 -12.8466 -12.8379 -12.8379
   -12.8370 -12.8370  -2.7551  -2.7551  -2.4656  -2.4656  -1.8255  -1.8255
    -1.4435  -1.4435  -1.0218  -1.0218   3.9448   3.9448   4.6863   4.6863
     5.0140   5.0140   5.5492   5.5492   6.1187   6.1187   6.3547   6.3547
     6.7908   6.7908   7.4961   7.4961   7.6660   7.6660  10.0764  10.0764
    10.3126  10.3126  11.2037  11.2037  11.6866  11.6866  12.1322  12.1322
    12.4755  12.4755  12.8839  12.8839  14.0514  14.0514  14.7639  14.7639
    16.1735  16.1735  16.7718  16.7718  17.1330  17.1330  17.3179  17.3179
    17.8477  17.8477  18.1124  18.1124  18.6530  18.6530  19.0934  19.0934
    19.3064  19.3064  19.7276  19.7276  20.0042  20.0042  20.2206  20.2206
    20.6043  20.6043  21.0207  21.0207

     occupation numbers 
     1.0000   1.0000   1.0000   1.0000   1.0000   1.0000   1.0000   1.0000
     1.0000   1.0000   1.0000   1.0000   1.0000   1.0000   1.0000   1.0000
     1.0000   1.0000   1.0000   1.0000   1.0000   1.0000   1.0000   1.0000
     1.0000   1.0000   1.0000   1.0000   1.0000   1.0000   1.0000   1.0000
     1.0000   1.0000   1.0000   1.0000   1.0000   1.0000   1.0000   1.0000
     1.0000   1.0000   1.0000   1.0000   1.0000   1.0000   1.0000   1.0000
     1.0000   1.0000   1.0000   1.0000   1.0000   1.0000   1.0000   1.0000
     1.0000   1.0000   1.0000   1.0000   1.0000   1.0000   1.0000   1.0000
     1.0000   1.0000   1.0000   1.0000   1.0000   1.0000   1.0000   1.0000
     1.0000   1.0000   1.0000   1.0000   1.0000   1.0000  -0.0000  -0.0000
    -0.0000  -0.0000  -0.0000  -0.0000  -0.0000  -0.0000  -0.0000  -0.0000
    -0.0000  -0.0000  -0.0000  -0.0000  -0.0000  -0.0000  -0.0000  -0.0000
    -0.0000  -0.0000  -0.0000  -0.0000  -0.0000  -0.0000  -0.0000  -0.0000
    -0.0000  -0.0000  -0.0000  -0.0000  -0.0000  -0.0000  -0.0000  -0.0000
    -0.0000  -0.0000  -0.0000  -0.0000  -0.0000  -0.0000  -0.0000  -0.0000
    -0.0000  -0.0000  -0.0000  -0.0000

          k = 0.3350-1.1591 0.2440 ( 11915 PWs)   bands (ev):

   -28.7941 -28.7941 -28.7936 -28.7936 -28.7903 -28.7903 -28.7901 -28.7901
   -28.5548 -28.5548 -28.5257 -28.5257 -27.3295 -27.3295 -27.3288 -27.3288
   -27.3275 -27.3275 -27.3266 -27.3266 -27.3238 -27.3238 -27.3237 -27.3237
   -27.0915 -27.0915 -27.0799 -27.0799 -27.0536 -27.0536 -15.8350 -15.8350
   -15.8339 -15.8339 -15.8278 -15.8278 -15.8273 -15.8273 -12.8553 -12.8553
   -12.8536 -12.8535 -12.8474 -12.8474 -12.8466 -12.8466 -12.8379 -12.8379
   -12.8370 -12.8370  -2.7643  -2.7643  -2.4370  -2.4370  -1.8783  -1.8783
    -1.3996  -1.3996  -1.0322  -1.0322   3.9578   3.9578   4.7870   4.7870
     5.0429   5.0429   5.5101   5.5101   5.8489   5.8489   6.0819   6.0819
     6.9446   6.9446   7.8661   7.8661   7.9943   7.9943   9.6500   9.6500
    10.0218  10.0218  11.1305  11.1305  11.6969  11.6969  12.3545  12.3545
    12.6556  12.6556  12.8228  12.8228  14.6435  14.6435  14.7853  14.7853
    15.6865  15.6865  16.1409  16.1409  16.8825  16.8825  17.7748  17.7748
    17.8375  17.8375  18.0599  18.0599  18.5921  18.5921  19.3198  19.3198
    19.3735  19.3735  19.8652  19.8652  20.4272  20.4272  20.6799  20.6799
    20.9284  20.9284  21.1373  21.1373

     occupation numbers 
     1.0000   1.0000   1.0000   1.0000   1.0000   1.0000   1.0000   1.0000
     1.0000   1.0000   1.0000   1.0000   1.0000   1.0000   1.0000   1.0000
     1.0000   1.0000   1.0000   1.0000   1.0000   1.0000   1.0000   1.0000
     1.0000   1.0000   1.0000   1.0000   1.0000   1.0000   1.0000   1.0000
     1.0000   1.0000   1.0000   1.0000   1.0000   1.0000   1.0000   1.0000
     1.0000   1.0000   1.0000   1.0000   1.0000   1.0000   1.0000   1.0000
     1.0000   1.0000   1.0000   1.0000   1.0000   1.0000   1.0000   1.0000
     1.0000   1.0000   1.0000   1.0000   1.0000   1.0000   1.0000   1.0000
     1.0000   1.0000   1.0000   1.0000   1.0000   1.0000   1.0000   1.0000
     1.0000   1.0000   1.0000   1.0000   1.0000   1.0000  -0.0000  -0.0000
    -0.0000  -0.0000  -0.0000  -0.0000  -0.0000  -0.0000  -0.0000  -0.0000
    -0.0000  -0.0000  -0.0000  -0.0000  -0.0000  -0.0000  -0.0000  -0.0000
    -0.0000  -0.0000  -0.0000  -0.0000  -0.0000  -0.0000  -0.0000  -0.0000
    -0.0000  -0.0000  -0.0000  -0.0000  -0.0000  -0.0000  -0.0000  -0.0000
    -0.0000  -0.0000  -0.0000  -0.0000  -0.0000  -0.0000  -0.0000  -0.0000
    -0.0000  -0.0000  -0.0000  -0.0000

          k = 0.3345-1.1592 0.7108 ( 11906 PWs)   bands (ev):

   -28.7941 -28.7941 -28.7936 -28.7936 -28.7903 -28.7903 -28.7901 -28.7901
   -28.5548 -28.5548 -28.5257 -28.5257 -27.3294 -27.3294 -27.3289 -27.3289
   -27.3274 -27.3274 -27.3267 -27.3267 -27.3237 -27.3237 -27.3237 -27.3237
   -27.0915 -27.0915 -27.0799 -27.0799 -27.0536 -27.0536 -15.8346 -15.8346
   -15.8345 -15.8345 -15.8276 -15.8276 -15.8274 -15.8274 -12.8563 -12.8563
   -12.8556 -12.8556 -12.8464 -12.8464 -12.8458 -12.8458 -12.8375 -12.8375
   -12.8361 -12.8361  -2.5515  -2.5515  -2.5352  -2.5352  -2.0607  -2.0607
    -1.4991  -1.4991  -0.8836  -0.8836   3.9006   3.9006   4.7604   4.7604
     4.9228   4.9228   5.7696   5.7696   5.8929   5.8929   6.6247   6.6247
     7.0208   7.0208   7.6671   7.6671   7.7413   7.7413   9.4934   9.4934
    10.2533  10.2533  10.6794  10.6794  10.9175  10.9175  11.9158  11.9158
    12.3693  12.3693  13.3168  13.3168  14.0617  14.0617  15.4898  15.4898
    17.1186  17.1186  17.2061  17.2061  17.7718  17.7718  17.8240  17.8240
    18.2283  18.2283  18.3838  18.3838  19.0793  19.0793  19.1324  19.1324
    19.3130  19.3130  19.6213  19.6213  19.8226  19.8226  19.9937  19.9937
    20.3539  20.3540  20.8052  20.8052

     occupation numbers 
     1.0000   1.0000   1.0000   1.0000   1.0000   1.0000   1.0000   1.0000
     1.0000   1.0000   1.0000   1.0000   1.0000   1.0000   1.0000   1.0000
     1.0000   1.0000   1.0000   1.0000   1.0000   1.0000   1.0000   1.0000
     1.0000   1.0000   1.0000   1.0000   1.0000   1.0000   1.0000   1.0000
     1.0000   1.0000   1.0000   1.0000   1.0000   1.0000   1.0000   1.0000
     1.0000   1.0000   1.0000   1.0000   1.0000   1.0000   1.0000   1.0000
     1.0000   1.0000   1.0000   1.0000   1.0000   1.0000   1.0000   1.0000
     1.0000   1.0000   1.0000   1.0000   1.0000   1.0000   1.0000   1.0000
     1.0000   1.0000   1.0000   1.0000   1.0000   1.0000   1.0000   1.0000
     1.0000   1.0000   1.0000   1.0000   1.0000   1.0000  -0.0000  -0.0000
    -0.0000  -0.0000  -0.0000  -0.0000  -0.0000  -0.0000  -0.0000  -0.0000
    -0.0000  -0.0000  -0.0000  -0.0000  -0.0000  -0.0000  -0.0000  -0.0000
    -0.0000  -0.0000  -0.0000  -0.0000  -0.0000  -0.0000  -0.0000  -0.0000
    -0.0000  -0.0000  -0.0000  -0.0000  -0.0000  -0.0000  -0.0000  -0.0000
    -0.0000  -0.0000  -0.0000  -0.0000  -0.0000  -0.0000  -0.0000  -0.0000
    -0.0000  -0.0000  -0.0000  -0.0000

          k = 0.3368-1.1588-1.6231 ( 11915 PWs)   bands (ev):

   -28.7941 -28.7941 -28.7936 -28.7936 -28.7903 -28.7903 -28.7901 -28.7901
   -28.5548 -28.5548 -28.5257 -28.5257 -27.3295 -27.3295 -27.3288 -27.3288
   -27.3275 -27.3275 -27.3266 -27.3266 -27.3238 -27.3238 -27.3237 -27.3237
   -27.0915 -27.0915 -27.0799 -27.0799 -27.0536 -27.0536 -15.8350 -15.8350
   -15.8339 -15.8339 -15.8278 -15.8278 -15.8273 -15.8273 -12.8553 -12.8553
   -12.8536 -12.8535 -12.8474 -12.8474 -12.8466 -12.8466 -12.8378 -12.8378
   -12.8370 -12.8370  -2.7117  -2.7117  -2.5203  -2.5203  -1.8763  -1.8763
    -1.3000  -1.3000  -1.1032  -1.1032   4.2156   4.2156   4.7078   4.7078
     4.8313   4.8313   5.1531   5.1531   5.7735   5.7735   6.2437   6.2437
     7.6044   7.6044   7.8637   7.8637   8.0938   8.0938   9.3481   9.3481
    10.0177  10.0177  10.4394  10.4394  11.7562  11.7562  12.3719  12.3719
    12.8348  12.8348  13.2832  13.2832  14.1745  14.1745  14.9967  14.9967
    15.8459  15.8459  16.2108  16.2108  16.9283  16.9283  17.8334  17.8334
    17.9915  17.9915  18.2871  18.2871  18.8459  18.8459  19.0331  19.0331
    19.4103  19.4103  19.8501  19.8501  19.9763  19.9763  20.3854  20.3854
    20.6451  20.6451  20.9447  20.9448

     occupation numbers 
     1.0000   1.0000   1.0000   1.0000   1.0000   1.0000   1.0000   1.0000
     1.0000   1.0000   1.0000   1.0000   1.0000   1.0000   1.0000   1.0000
     1.0000   1.0000   1.0000   1.0000   1.0000   1.0000   1.0000   1.0000
     1.0000   1.0000   1.0000   1.0000   1.0000   1.0000   1.0000   1.0000
     1.0000   1.0000   1.0000   1.0000   1.0000   1.0000   1.0000   1.0000
     1.0000   1.0000   1.0000   1.0000   1.0000   1.0000   1.0000   1.0000
     1.0000   1.0000   1.0000   1.0000   1.0000   1.0000   1.0000   1.0000
     1.0000   1.0000   1.0000   1.0000   1.0000   1.0000   1.0000   1.0000
     1.0000   1.0000   1.0000   1.0000   1.0000   1.0000   1.0000   1.0000
     1.0000   1.0000   1.0000   1.0000   1.0000   1.0000  -0.0000  -0.0000
    -0.0000  -0.0000  -0.0000  -0.0000  -0.0000  -0.0000  -0.0000  -0.0000
    -0.0000  -0.0000  -0.0000  -0.0000  -0.0000  -0.0000  -0.0000  -0.0000
    -0.0000  -0.0000  -0.0000  -0.0000  -0.0000  -0.0000  -0.0000  -0.0000
    -0.0000  -0.0000  -0.0000  -0.0000  -0.0000  -0.0000  -0.0000  -0.0000
    -0.0000  -0.0000  -0.0000  -0.0000  -0.0000  -0.0000  -0.0000  -0.0000
    -0.0000  -0.0000  -0.0000  -0.0000

          k = 0.3364-1.1589-1.1563 ( 11918 PWs)   bands (ev):

   -28.7941 -28.7941 -28.7936 -28.7936 -28.7903 -28.7903 -28.7901 -28.7901
   -28.5548 -28.5548 -28.5257 -28.5257 -27.3295 -27.3295 -27.3288 -27.3288
   -27.3275 -27.3275 -27.3266 -27.3266 -27.3238 -27.3238 -27.3237 -27.3237
   -27.0915 -27.0915 -27.0799 -27.0799 -27.0536 -27.0536 -15.8350 -15.8350
   -15.8339 -15.8339 -15.8278 -15.8278 -15.8273 -15.8273 -12.8553 -12.8553
   -12.8536 -12.8535 -12.8474 -12.8474 -12.8466 -12.8466 -12.8379 -12.8379
   -12.8370 -12.8370  -2.6908  -2.6908  -2.5576  -2.5576  -1.8328  -1.8328
    -1.3486  -1.3486  -1.0818  -1.0818   4.1779   4.1779   4.6719   4.6719
     4.8396   4.8396   5.0870   5.0870   6.0372   6.0372   6.5574   6.5574
     7.2968   7.2968   7.5101   7.5101   7.8450   7.8450   9.6841   9.6841
    10.3260  10.3260  10.6886  10.6886  11.5674  11.5674  12.1590  12.1590
    12.9183  12.9183  13.2538  13.2538  13.7364  13.7364  14.8310  14.8310
    16.2055  16.2055  16.8654  16.8654  17.1129  17.1129  17.7852  17.7852
    17.9819  17.9819  18.2055  18.2055  18.6554  18.6554  18.7993  18.7993
    19.3075  19.3075  19.6576  19.6576  19.8438  19.8438  19.9980  19.9980
    20.3874  20.3875  21.0900  21.0903

     occupation numbers 
     1.0000   1.0000   1.0000   1.0000   1.0000   1.0000   1.0000   1.0000
     1.0000   1.0000   1.0000   1.0000   1.0000   1.0000   1.0000   1.0000
     1.0000   1.0000   1.0000   1.0000   1.0000   1.0000   1.0000   1.0000
     1.0000   1.0000   1.0000   1.0000   1.0000   1.0000   1.0000   1.0000
     1.0000   1.0000   1.0000   1.0000   1.0000   1.0000   1.0000   1.0000
     1.0000   1.0000   1.0000   1.0000   1.0000   1.0000   1.0000   1.0000
     1.0000   1.0000   1.0000   1.0000   1.0000   1.0000   1.0000   1.0000
     1.0000   1.0000   1.0000   1.0000   1.0000   1.0000   1.0000   1.0000
     1.0000   1.0000   1.0000   1.0000   1.0000   1.0000   1.0000   1.0000
     1.0000   1.0000   1.0000   1.0000   1.0000   1.0000  -0.0000  -0.0000
    -0.0000  -0.0000  -0.0000  -0.0000  -0.0000  -0.0000  -0.0000  -0.0000
    -0.0000  -0.0000  -0.0000  -0.0000  -0.0000  -0.0000  -0.0000  -0.0000
    -0.0000  -0.0000  -0.0000  -0.0000  -0.0000  -0.0000  -0.0000  -0.0000
    -0.0000  -0.0000  -0.0000  -0.0000  -0.0000  -0.0000  -0.0000  -0.0000
    -0.0000  -0.0000  -0.0000  -0.0000  -0.0000  -0.0000  -0.0000  -0.0000
    -0.0000  -0.0000  -0.0000  -0.0000

          k = 0.3359-1.1590-0.6896 ( 11935 PWs)   bands (ev):

   -28.7941 -28.7941 -28.7936 -28.7936 -28.7903 -28.7903 -28.7901 -28.7901
   -28.5548 -28.5548 -28.5257 -28.5257 -27.3294 -27.3294 -27.3289 -27.3289
   -27.3274 -27.3274 -27.3267 -27.3267 -27.3238 -27.3238 -27.3237 -27.3237
   -27.0915 -27.0915 -27.0799 -27.0799 -27.0536 -27.0536 -15.8346 -15.8346
   -15.8345 -15.8345 -15.8276 -15.8276 -15.8274 -15.8274 -12.8563 -12.8563
   -12.8556 -12.8556 -12.8464 -12.8464 -12.8458 -12.8458 -12.8375 -12.8375
   -12.8361 -12.8361  -2.5508  -2.5508  -2.5239  -2.5239  -2.1145  -2.1145
    -1.3928  -1.3928  -0.9527  -0.9527   3.7607   3.7607   4.9869   4.9869
     5.1810   5.1810   5.6357   5.6357   5.8995   5.8995   6.3794   6.3794
     6.7623   6.7623   7.6693   7.6693   8.0801   8.0801   9.2184   9.2184
    10.3670  10.3670  10.7731  10.7731  11.1281  11.1281  12.0134  12.0134
    12.4521  12.4521  12.8292  12.8292  13.8356  13.8356  16.3509  16.3509
    17.0614  17.0614  17.2942  17.2942  17.5110  17.5110  17.8302  17.8302
    18.1657  18.1657  18.3053  18.3053  18.9363  18.9363  19.0087  19.0087
    19.0911  19.0911  19.5511  19.5512  19.6696  19.6696  20.1499  20.1499
    20.2597  20.2597  20.7520  20.7522

     occupation numbers 
     1.0000   1.0000   1.0000   1.0000   1.0000   1.0000   1.0000   1.0000
     1.0000   1.0000   1.0000   1.0000   1.0000   1.0000   1.0000   1.0000
     1.0000   1.0000   1.0000   1.0000   1.0000   1.0000   1.0000   1.0000
     1.0000   1.0000   1.0000   1.0000   1.0000   1.0000   1.0000   1.0000
     1.0000   1.0000   1.0000   1.0000   1.0000   1.0000   1.0000   1.0000
     1.0000   1.0000   1.0000   1.0000   1.0000   1.0000   1.0000   1.0000
     1.0000   1.0000   1.0000   1.0000   1.0000   1.0000   1.0000   1.0000
     1.0000   1.0000   1.0000   1.0000   1.0000   1.0000   1.0000   1.0000
     1.0000   1.0000   1.0000   1.0000   1.0000   1.0000   1.0000   1.0000
     1.0000   1.0000   1.0000   1.0000   1.0000   1.0000  -0.0000  -0.0000
    -0.0000  -0.0000  -0.0000  -0.0000  -0.0000  -0.0000  -0.0000  -0.0000
    -0.0000  -0.0000  -0.0000  -0.0000  -0.0000  -0.0000  -0.0000  -0.0000
    -0.0000  -0.0000  -0.0000  -0.0000  -0.0000  -0.0000  -0.0000  -0.0000
    -0.0000  -0.0000  -0.0000  -0.0000  -0.0000  -0.0000  -0.0000  -0.0000
    -0.0000  -0.0000  -0.0000  -0.0000  -0.0000  -0.0000  -0.0000  -0.0000
    -0.0000  -0.0000  -0.0000  -0.0000

          k =-0.5025 1.1233 0.6683 ( 11896 PWs)   bands (ev):

   -28.7941 -28.7941 -28.7936 -28.7936 -28.7902 -28.7902 -28.7901 -28.7901
   -28.5548 -28.5548 -28.5257 -28.5257 -27.3294 -27.3294 -27.3289 -27.3289
   -27.3274 -27.3274 -27.3267 -27.3267 -27.3237 -27.3237 -27.3237 -27.3237
   -27.0915 -27.0915 -27.0799 -27.0799 -27.0536 -27.0536 -15.8346 -15.8346
   -15.8345 -15.8345 -15.8276 -15.8276 -15.8274 -15.8274 -12.8563 -12.8563
   -12.8556 -12.8556 -12.8464 -12.8464 -12.8458 -12.8458 -12.8375 -12.8375
   -12.8361 -12.8361  -2.5503  -2.5503  -2.5177  -2.5177  -2.1388  -2.1388
    -1.3303  -1.3303  -0.9997  -0.9997   3.7079   3.7079   5.1359   5.1359
     5.2729   5.2729   5.5811   5.5811   6.0005   6.0005   6.2211   6.2211
     6.5166   6.5166   7.7496   7.7496   8.2887   8.2887   9.0136   9.0136
    10.2134  10.2134  11.0202  11.0202  11.4082  11.4082  12.0546  12.0546
    12.2637  12.2637  12.5919  12.5919  13.8401  13.8401  16.8572  16.8572
    17.0096  17.0096  17.3534  17.3534  17.4830  17.4830  17.7416  17.7416
    18.0393  18.0393  18.2822  18.2822  18.6766  18.6766  19.0427  19.0427
    19.0674  19.0674  19.1778  19.1778  19.7586  19.7586  20.2236  20.2236
    20.3286  20.3286  20.6784  20.6785

     occupation numbers 
     1.0000   1.0000   1.0000   1.0000   1.0000   1.0000   1.0000   1.0000
     1.0000   1.0000   1.0000   1.0000   1.0000   1.0000   1.0000   1.0000
     1.0000   1.0000   1.0000   1.0000   1.0000   1.0000   1.0000   1.0000
     1.0000   1.0000   1.0000   1.0000   1.0000   1.0000   1.0000   1.0000
     1.0000   1.0000   1.0000   1.0000   1.0000   1.0000   1.0000   1.0000
     1.0000   1.0000   1.0000   1.0000   1.0000   1.0000   1.0000   1.0000
     1.0000   1.0000   1.0000   1.0000   1.0000   1.0000   1.0000   1.0000
     1.0000   1.0000   1.0000   1.0000   1.0000   1.0000   1.0000   1.0000
     1.0000   1.0000   1.0000   1.0000   1.0000   1.0000   1.0000   1.0000
     1.0000   1.0000   1.0000   1.0000   1.0022   1.0022  -0.0001  -0.0001
    -0.0000  -0.0000  -0.0000  -0.0000  -0.0000  -0.0000  -0.0000  -0.0000
    -0.0000  -0.0000  -0.0000  -0.0000  -0.0000  -0.0000  -0.0000  -0.0000
    -0.0000  -0.0000  -0.0000  -0.0000  -0.0000  -0.0000  -0.0000  -0.0000
    -0.0000  -0.0000  -0.0000  -0.0000  -0.0000  -0.0000  -0.0000  -0.0000
    -0.0000  -0.0000  -0.0000  -0.0000  -0.0000  -0.0000  -0.0000  -0.0000
    -0.0000  -0.0000  -0.0000  -0.0000

          k =-0.5029 1.1232 1.1351 ( 11914 PWs)   bands (ev):

   -28.7941 -28.7941 -28.7936 -28.7936 -28.7903 -28.7903 -28.7901 -28.7901
   -28.5548 -28.5548 -28.5257 -28.5257 -27.3295 -27.3295 -27.3288 -27.3288
   -27.3275 -27.3275 -27.3266 -27.3266 -27.3238 -27.3238 -27.3237 -27.3237
   -27.0915 -27.0915 -27.0799 -27.0799 -27.0536 -27.0536 -15.8350 -15.8350
   -15.8339 -15.8339 -15.8278 -15.8278 -15.8273 -15.8273 -12.8553 -12.8553
   -12.8536 -12.8535 -12.8474 -12.8474 -12.8466 -12.8466 -12.8379 -12.8379
   -12.8370 -12.8370  -2.7220  -2.7220  -2.5211  -2.5211  -1.8036  -1.8036
    -1.4228  -1.4228  -1.0421  -1.0421   4.0308   4.0308   4.6405   4.6405
     4.9697   4.9697   5.2635   5.2635   6.2409   6.2409   6.6707   6.6707
     6.9977   6.9977   7.2552   7.2552   7.5478   7.5478  10.1563  10.1563
    10.4322  10.4322  10.9914  10.9914  11.4532  11.4532  12.0863  12.0863
    12.7548  12.7548  13.0942  13.0942  13.6315  13.6315  14.7597  14.7597
    16.6704  16.6704  16.7222  16.7222  17.1314  17.1314  17.7739  17.7739
    17.9589  17.9589  18.1976  18.1976  18.3619  18.3619  18.9656  18.9656
    19.3167  19.3167  19.3960  19.3960  19.6953  19.6953  19.9037  19.9037
    20.5195  20.5195  21.1759  21.1759

     occupation numbers 
     1.0000   1.0000   1.0000   1.0000   1.0000   1.0000   1.0000   1.0000
     1.0000   1.0000   1.0000   1.0000   1.0000   1.0000   1.0000   1.0000
     1.0000   1.0000   1.0000   1.0000   1.0000   1.0000   1.0000   1.0000
     1.0000   1.0000   1.0000   1.0000   1.0000   1.0000   1.0000   1.0000
     1.0000   1.0000   1.0000   1.0000   1.0000   1.0000   1.0000   1.0000
     1.0000   1.0000   1.0000   1.0000   1.0000   1.0000   1.0000   1.0000
     1.0000   1.0000   1.0000   1.0000   1.0000   1.0000   1.0000   1.0000
     1.0000   1.0000   1.0000   1.0000   1.0000   1.0000   1.0000   1.0000
     1.0000   1.0000   1.0000   1.0000   1.0000   1.0000   1.0000   1.0000
     1.0000   1.0000   1.0000   1.0000   1.0000   1.0000  -0.0000  -0.0000
    -0.0000  -0.0000  -0.0000  -0.0000  -0.0000  -0.0000  -0.0000  -0.0000
    -0.0000  -0.0000  -0.0000  -0.0000  -0.0000  -0.0000  -0.0000  -0.0000
    -0.0000  -0.0000  -0.0000  -0.0000  -0.0000  -0.0000  -0.0000  -0.0000
    -0.0000  -0.0000  -0.0000  -0.0000  -0.0000  -0.0000  -0.0000  -0.0000
    -0.0000  -0.0000  -0.0000  -0.0000  -0.0000  -0.0000  -0.0000  -0.0000
    -0.0000  -0.0000  -0.0000  -0.0000

          k =-0.5034 1.1231 1.6019 ( 11912 PWs)   bands (ev):

   -28.7941 -28.7941 -28.7936 -28.7936 -28.7903 -28.7903 -28.7901 -28.7901
   -28.5548 -28.5548 -28.5257 -28.5257 -27.3295 -27.3295 -27.3288 -27.3288
   -27.3275 -27.3275 -27.3266 -27.3266 -27.3238 -27.3238 -27.3237 -27.3237
   -27.0915 -27.0915 -27.0799 -27.0799 -27.0536 -27.0536 -15.8350 -15.8350
   -15.8339 -15.8339 -15.8278 -15.8278 -15.8273 -15.8273 -12.8553 -12.8553
   -12.8536 -12.8535 -12.8474 -12.8474 -12.8466 -12.8466 -12.8378 -12.8378
   -12.8370 -12.8370  -2.7472  -2.7472  -2.4602  -2.4602  -1.9000  -1.9000
    -1.3341  -1.3341  -1.0700  -1.0700   4.0687   4.0687   4.8250   4.8250
     4.9753   4.9753   5.2862   5.2862   5.6896   5.6897   6.0365   6.0365
     7.3851   7.3851   8.0374   8.0374   8.1984   8.1984   9.3408   9.3408
     9.8541   9.8541  10.6260  10.6260  11.7991  11.7991  12.4753  12.4753
    12.8251  12.8251  13.0277  13.0277  14.6071  14.6071  15.1859  15.1859
    15.4426  15.4426  15.8227  15.8227  16.8108  16.8108  17.8186  17.8186
    17.9188  17.9188  18.1994  18.1994  18.8971  18.8971  19.3413  19.3413
    19.3879  19.3879  19.8042  19.8042  20.1510  20.1510  20.6683  20.6683
    20.7744  20.7744  21.1398  21.1400

     occupation numbers 
     1.0000   1.0000   1.0000   1.0000   1.0000   1.0000   1.0000   1.0000
     1.0000   1.0000   1.0000   1.0000   1.0000   1.0000   1.0000   1.0000
     1.0000   1.0000   1.0000   1.0000   1.0000   1.0000   1.0000   1.0000
     1.0000   1.0000   1.0000   1.0000   1.0000   1.0000   1.0000   1.0000
     1.0000   1.0000   1.0000   1.0000   1.0000   1.0000   1.0000   1.0000
     1.0000   1.0000   1.0000   1.0000   1.0000   1.0000   1.0000   1.0000
     1.0000   1.0000   1.0000   1.0000   1.0000   1.0000   1.0000   1.0000
     1.0000   1.0000   1.0000   1.0000   1.0000   1.0000   1.0000   1.0000
     1.0000   1.0000   1.0000   1.0000   1.0000   1.0000   1.0000   1.0000
     1.0000   1.0000   1.0000   1.0000   1.0001   1.0001  -0.0000  -0.0000
    -0.0000  -0.0000  -0.0000  -0.0000  -0.0000  -0.0000  -0.0000  -0.0000
    -0.0000  -0.0000  -0.0000  -0.0000  -0.0000  -0.0000  -0.0000  -0.0000
    -0.0000  -0.0000  -0.0000  -0.0000  -0.0000  -0.0000  -0.0000  -0.0000
    -0.0000  -0.0000  -0.0000  -0.0000  -0.0000  -0.0000  -0.0000  -0.0000
    -0.0000  -0.0000  -0.0000  -0.0000  -0.0000  -0.0000  -0.0000  -0.0000
    -0.0000  -0.0000  -0.0000  -0.0000

          k =-0.5011 1.1236-0.7320 ( 11906 PWs)   bands (ev):

   -28.7941 -28.7941 -28.7936 -28.7936 -28.7903 -28.7903 -28.7901 -28.7901
   -28.5548 -28.5548 -28.5257 -28.5257 -27.3294 -27.3294 -27.3289 -27.3289
   -27.3274 -27.3274 -27.3267 -27.3267 -27.3237 -27.3237 -27.3237 -27.3237
   -27.0915 -27.0915 -27.0799 -27.0799 -27.0536 -27.0536 -15.8346 -15.8346
   -15.8345 -15.8345 -15.8276 -15.8276 -15.8274 -15.8274 -12.8563 -12.8563
   -12.8556 -12.8556 -12.8463 -12.8463 -12.8458 -12.8458 -12.8375 -12.8375
   -12.8361 -12.8361  -2.5515  -2.5515  -2.5408  -2.5408  -2.0293  -2.0293
    -1.5507  -1.5507  -0.8555  -0.8555   4.0104   4.0104   4.5876   4.5876
     4.8504   4.8504   5.7396   5.7396   6.0196   6.0196   6.6999   6.6999
     7.1448   7.1448   7.4154   7.4154   7.8887   7.8887   9.4793   9.4793
    10.1743  10.1743  10.6676  10.6676  10.9456  10.9456  11.9873  11.9873
    12.1220  12.1220  13.5381  13.5381  14.5159  14.5159  14.8225  14.8225
    17.1401  17.1401  17.1651  17.1651  17.8150  17.8150  17.9006  17.9006
    18.2357  18.2357  18.4248  18.4248  19.1974  19.1974  19.3304  19.3304
    19.3843  19.3843  19.5205  19.5205  19.7156  19.7156  19.8106  19.8106
    20.3788  20.3788  20.8263  20.8263

     occupation numbers 
     1.0000   1.0000   1.0000   1.0000   1.0000   1.0000   1.0000   1.0000
     1.0000   1.0000   1.0000   1.0000   1.0000   1.0000   1.0000   1.0000
     1.0000   1.0000   1.0000   1.0000   1.0000   1.0000   1.0000   1.0000
     1.0000   1.0000   1.0000   1.0000   1.0000   1.0000   1.0000   1.0000
     1.0000   1.0000   1.0000   1.0000   1.0000   1.0000   1.0000   1.0000
     1.0000   1.0000   1.0000   1.0000   1.0000   1.0000   1.0000   1.0000
     1.0000   1.0000   1.0000   1.0000   1.0000   1.0000   1.0000   1.0000
     1.0000   1.0000   1.0000   1.0000   1.0000   1.0000   1.0000   1.0000
     1.0000   1.0000   1.0000   1.0000   1.0000   1.0000   1.0000   1.0000
     1.0000   1.0000   1.0000   1.0000   1.0000   1.0000  -0.0000  -0.0000
    -0.0000  -0.0000  -0.0000  -0.0000  -0.0000  -0.0000  -0.0000  -0.0000
    -0.0000  -0.0000  -0.0000  -0.0000  -0.0000  -0.0000  -0.0000  -0.0000
    -0.0000  -0.0000  -0.0000  -0.0000  -0.0000  -0.0000  -0.0000  -0.0000
    -0.0000  -0.0000  -0.0000  -0.0000  -0.0000  -0.0000  -0.0000  -0.0000
    -0.0000  -0.0000  -0.0000  -0.0000  -0.0000  -0.0000  -0.0000  -0.0000
    -0.0000  -0.0000  -0.0000  -0.0000

          k =-0.5016 1.1235-0.2652 ( 11912 PWs)   bands (ev):

   -28.7941 -28.7941 -28.7936 -28.7936 -28.7903 -28.7903 -28.7901 -28.7901
   -28.5548 -28.5548 -28.5257 -28.5257 -27.3295 -27.3295 -27.3288 -27.3288
   -27.3275 -27.3275 -27.3266 -27.3266 -27.3238 -27.3238 -27.3237 -27.3237
   -27.0915 -27.0915 -27.0799 -27.0799 -27.0536 -27.0536 -15.8350 -15.8350
   -15.8339 -15.8339 -15.8278 -15.8278 -15.8273 -15.8273 -12.8553 -12.8553
   -12.8536 -12.8535 -12.8474 -12.8474 -12.8466 -12.8466 -12.8378 -12.8378
   -12.8370 -12.8370  -2.7472  -2.7472  -2.4602  -2.4602  -1.9000  -1.9000
    -1.3341  -1.3341  -1.0700  -1.0700   4.0687   4.0687   4.8250   4.8250
     4.9753   4.9753   5.2862   5.2862   5.6896   5.6897   6.0365   6.0365
     7.3851   7.3851   8.0374   8.0374   8.1984   8.1984   9.3408   9.3408
     9.8541   9.8541  10.6260  10.6260  11.7991  11.7991  12.4753  12.4753
    12.8251  12.8251  13.0277  13.0277  14.6071  14.6071  15.1859  15.1859
    15.4426  15.4426  15.8227  15.8227  16.8108  16.8108  17.8186  17.8186
    17.9188  17.9188  18.1994  18.1994  18.8971  18.8971  19.3413  19.3413
    19.3879  19.3879  19.8042  19.8042  20.1510  20.1510  20.6683  20.6683
    20.7744  20.7744  21.1398  21.1400

     occupation numbers 
     1.0000   1.0000   1.0000   1.0000   1.0000   1.0000   1.0000   1.0000
     1.0000   1.0000   1.0000   1.0000   1.0000   1.0000   1.0000   1.0000
     1.0000   1.0000   1.0000   1.0000   1.0000   1.0000   1.0000   1.0000
     1.0000   1.0000   1.0000   1.0000   1.0000   1.0000   1.0000   1.0000
     1.0000   1.0000   1.0000   1.0000   1.0000   1.0000   1.0000   1.0000
     1.0000   1.0000   1.0000   1.0000   1.0000   1.0000   1.0000   1.0000
     1.0000   1.0000   1.0000   1.0000   1.0000   1.0000   1.0000   1.0000
     1.0000   1.0000   1.0000   1.0000   1.0000   1.0000   1.0000   1.0000
     1.0000   1.0000   1.0000   1.0000   1.0000   1.0000   1.0000   1.0000
     1.0000   1.0000   1.0000   1.0000   1.0001   1.0001  -0.0000  -0.0000
    -0.0000  -0.0000  -0.0000  -0.0000  -0.0000  -0.0000  -0.0000  -0.0000
    -0.0000  -0.0000  -0.0000  -0.0000  -0.0000  -0.0000  -0.0000  -0.0000
    -0.0000  -0.0000  -0.0000  -0.0000  -0.0000  -0.0000  -0.0000  -0.0000
    -0.0000  -0.0000  -0.0000  -0.0000  -0.0000  -0.0000  -0.0000  -0.0000
    -0.0000  -0.0000  -0.0000  -0.0000  -0.0000  -0.0000  -0.0000  -0.0000
    -0.0000  -0.0000  -0.0000  -0.0000

          k =-0.5020 1.1234 0.2016 ( 11914 PWs)   bands (ev):

   -28.7941 -28.7941 -28.7936 -28.7936 -28.7903 -28.7903 -28.7901 -28.7901
   -28.5548 -28.5548 -28.5257 -28.5257 -27.3295 -27.3295 -27.3288 -27.3288
   -27.3275 -27.3275 -27.3266 -27.3266 -27.3238 -27.3238 -27.3237 -27.3237
   -27.0915 -27.0915 -27.0799 -27.0799 -27.0536 -27.0536 -15.8350 -15.8350
   -15.8339 -15.8339 -15.8278 -15.8278 -15.8273 -15.8273 -12.8553 -12.8553
   -12.8536 -12.8535 -12.8474 -12.8474 -12.8466 -12.8466 -12.8379 -12.8379
   -12.8370 -12.8370  -2.7220  -2.7220  -2.5211  -2.5211  -1.8036  -1.8036
    -1.4228  -1.4228  -1.0421  -1.0421   4.0308   4.0308   4.6405   4.6405
     4.9697   4.9697   5.2635   5.2635   6.2409   6.2409   6.6707   6.6707
     6.9977   6.9977   7.2552   7.2552   7.5478   7.5478  10.1563  10.1563
    10.4322  10.4322  10.9914  10.9914  11.4532  11.4532  12.0863  12.0863
    12.7548  12.7548  13.0942  13.0942  13.6315  13.6315  14.7597  14.7597
    16.6704  16.6704  16.7222  16.7222  17.1314  17.1314  17.7739  17.7739
    17.9589  17.9589  18.1976  18.1976  18.3619  18.3619  18.9656  18.9656
    19.3167  19.3167  19.3960  19.3960  19.6953  19.6953  19.9037  19.9037
    20.5195  20.5195  21.1759  21.1759

     occupation numbers 
     1.0000   1.0000   1.0000   1.0000   1.0000   1.0000   1.0000   1.0000
     1.0000   1.0000   1.0000   1.0000   1.0000   1.0000   1.0000   1.0000
     1.0000   1.0000   1.0000   1.0000   1.0000   1.0000   1.0000   1.0000
     1.0000   1.0000   1.0000   1.0000   1.0000   1.0000   1.0000   1.0000
     1.0000   1.0000   1.0000   1.0000   1.0000   1.0000   1.0000   1.0000
     1.0000   1.0000   1.0000   1.0000   1.0000   1.0000   1.0000   1.0000
     1.0000   1.0000   1.0000   1.0000   1.0000   1.0000   1.0000   1.0000
     1.0000   1.0000   1.0000   1.0000   1.0000   1.0000   1.0000   1.0000
     1.0000   1.0000   1.0000   1.0000   1.0000   1.0000   1.0000   1.0000
     1.0000   1.0000   1.0000   1.0000   1.0000   1.0000  -0.0000  -0.0000
    -0.0000  -0.0000  -0.0000  -0.0000  -0.0000  -0.0000  -0.0000  -0.0000
    -0.0000  -0.0000  -0.0000  -0.0000  -0.0000  -0.0000  -0.0000  -0.0000
    -0.0000  -0.0000  -0.0000  -0.0000  -0.0000  -0.0000  -0.0000  -0.0000
    -0.0000  -0.0000  -0.0000  -0.0000  -0.0000  -0.0000  -0.0000  -0.0000
    -0.0000  -0.0000  -0.0000  -0.0000  -0.0000  -0.0000  -0.0000  -0.0000
    -0.0000  -0.0000  -0.0000  -0.0000

          k =-0.5029 1.5335 0.4456 ( 11914 PWs)   bands (ev):

   -28.7941 -28.7941 -28.7936 -28.7936 -28.7903 -28.7903 -28.7901 -28.7901
   -28.5548 -28.5548 -28.5257 -28.5257 -27.3295 -27.3295 -27.3288 -27.3288
   -27.3275 -27.3275 -27.3266 -27.3266 -27.3238 -27.3238 -27.3237 -27.3237
   -27.0915 -27.0915 -27.0799 -27.0799 -27.0536 -27.0536 -15.8350 -15.8350
   -15.8339 -15.8339 -15.8278 -15.8278 -15.8273 -15.8273 -12.8553 -12.8553
   -12.8536 -12.8535 -12.8474 -12.8474 -12.8466 -12.8466 -12.8379 -12.8379
   -12.8370 -12.8370  -2.7220  -2.7220  -2.5211  -2.5211  -1.8036  -1.8036
    -1.4228  -1.4228  -1.0421  -1.0421   4.0308   4.0308   4.6405   4.6405
     4.9697   4.9697   5.2635   5.2635   6.2409   6.2409   6.6707   6.6707
     6.9977   6.9977   7.2552   7.2552   7.5478   7.5478  10.1563  10.1563
    10.4322  10.4322  10.9914  10.9914  11.4532  11.4532  12.0863  12.0863
    12.7548  12.7548  13.0942  13.0942  13.6315  13.6315  14.7597  14.7597
    16.6704  16.6704  16.7222  16.7222  17.1314  17.1314  17.7739  17.7739
    17.9589  17.9589  18.1976  18.1976  18.3619  18.3619  18.9656  18.9656
    19.3167  19.3167  19.3960  19.3960  19.6953  19.6953  19.9037  19.9037
    20.5195  20.5195  21.1759  21.1759

     occupation numbers 
     1.0000   1.0000   1.0000   1.0000   1.0000   1.0000   1.0000   1.0000
     1.0000   1.0000   1.0000   1.0000   1.0000   1.0000   1.0000   1.0000
     1.0000   1.0000   1.0000   1.0000   1.0000   1.0000   1.0000   1.0000
     1.0000   1.0000   1.0000   1.0000   1.0000   1.0000   1.0000   1.0000
     1.0000   1.0000   1.0000   1.0000   1.0000   1.0000   1.0000   1.0000
     1.0000   1.0000   1.0000   1.0000   1.0000   1.0000   1.0000   1.0000
     1.0000   1.0000   1.0000   1.0000   1.0000   1.0000   1.0000   1.0000
     1.0000   1.0000   1.0000   1.0000   1.0000   1.0000   1.0000   1.0000
     1.0000   1.0000   1.0000   1.0000   1.0000   1.0000   1.0000   1.0000
     1.0000   1.0000   1.0000   1.0000   1.0000   1.0000  -0.0000  -0.0000
    -0.0000  -0.0000  -0.0000  -0.0000  -0.0000  -0.0000  -0.0000  -0.0000
    -0.0000  -0.0000  -0.0000  -0.0000  -0.0000  -0.0000  -0.0000  -0.0000
    -0.0000  -0.0000  -0.0000  -0.0000  -0.0000  -0.0000  -0.0000  -0.0000
    -0.0000  -0.0000  -0.0000  -0.0000  -0.0000  -0.0000  -0.0000  -0.0000
    -0.0000  -0.0000  -0.0000  -0.0000  -0.0000  -0.0000  -0.0000  -0.0000
    -0.0000  -0.0000  -0.0000  -0.0000

          k =-0.5034 1.5334 0.9123 ( 11904 PWs)   bands (ev):

   -28.7943 -28.7943 -28.7935 -28.7935 -28.7904 -28.7904 -28.7901 -28.7901
   -28.5549 -28.5549 -28.5258 -28.5258 -27.3294 -27.3294 -27.3290 -27.3290
   -27.3276 -27.3276 -27.3265 -27.3265 -27.3240 -27.3240 -27.3238 -27.3238
   -27.0915 -27.0915 -27.0799 -27.0799 -27.0537 -27.0537 -15.8351 -15.8351
   -15.8349 -15.8349 -15.8276 -15.8276 -15.8272 -15.8272 -12.8557 -12.8557
   -12.8546 -12.8546 -12.8465 -12.8465 -12.8461 -12.8461 -12.8387 -12.8387
   -12.8374 -12.8374  -3.2924  -3.2924  -2.9918  -2.9918  -1.8071  -1.8071
    -1.0884  -1.0884  -0.4123  -0.4123   4.4195   4.4195   4.8318   4.8318
     5.3598   5.3598   5.7349   5.7349   6.2632   6.2632   6.4459   6.4459
     7.5047   7.5047   8.0204   8.0204   8.3676   8.3676   8.9727   8.9728
    10.0405  10.0405  10.3627  10.3627  11.0458  11.0458  12.1696  12.1696
    12.5478  12.5478  13.0457  13.0457  13.8799  13.8799  15.1414  15.1414
    16.1760  16.1760  16.3319  16.3319  16.6975  16.6975  16.8422  16.8422
    17.4408  17.4408  17.7546  17.7546  17.9745  17.9745  18.2801  18.2801
    18.8160  18.8160  19.1540  19.1540  19.6821  19.6821  20.0035  20.0035
    20.3165  20.3165  20.7336  20.7336

     occupation numbers 
     1.0000   1.0000   1.0000   1.0000   1.0000   1.0000   1.0000   1.0000
     1.0000   1.0000   1.0000   1.0000   1.0000   1.0000   1.0000   1.0000
     1.0000   1.0000   1.0000   1.0000   1.0000   1.0000   1.0000   1.0000
     1.0000   1.0000   1.0000   1.0000   1.0000   1.0000   1.0000   1.0000
     1.0000   1.0000   1.0000   1.0000   1.0000   1.0000   1.0000   1.0000
     1.0000   1.0000   1.0000   1.0000   1.0000   1.0000   1.0000   1.0000
     1.0000   1.0000   1.0000   1.0000   1.0000   1.0000   1.0000   1.0000
     1.0000   1.0000   1.0000   1.0000   1.0000   1.0000   1.0000   1.0000
     1.0000   1.0000   1.0000   1.0000   1.0000   1.0000   1.0000   1.0000
     1.0000   1.0000   1.0000   1.0000   1.0154   1.0154  -0.0005  -0.0005
    -0.0000  -0.0000  -0.0000  -0.0000  -0.0000  -0.0000  -0.0000  -0.0000
    -0.0000  -0.0000  -0.0000  -0.0000  -0.0000  -0.0000  -0.0000  -0.0000
    -0.0000  -0.0000  -0.0000  -0.0000  -0.0000  -0.0000  -0.0000  -0.0000
    -0.0000  -0.0000  -0.0000  -0.0000  -0.0000  -0.0000  -0.0000  -0.0000
    -0.0000  -0.0000  -0.0000  -0.0000  -0.0000  -0.0000  -0.0000  -0.0000
    -0.0000  -0.0000  -0.0000  -0.0000

          k =-0.5038 1.5333 1.3791 ( 11894 PWs)   bands (ev):

   -28.7944 -28.7944 -28.7934 -28.7934 -28.7905 -28.7905 -28.7901 -28.7901
   -28.5549 -28.5549 -28.5258 -28.5258 -27.3295 -27.3295 -27.3290 -27.3290
   -27.3277 -27.3277 -27.3264 -27.3264 -27.3241 -27.3241 -27.3238 -27.3238
   -27.0916 -27.0916 -27.0798 -27.0798 -27.0538 -27.0538 -15.8355 -15.8355
   -15.8349 -15.8349 -15.8277 -15.8277 -15.8271 -15.8271 -12.8555 -12.8554
   -12.8538 -12.8538 -12.8467 -12.8467 -12.8463 -12.8462 -12.8393 -12.8393
   -12.8383 -12.8383  -3.4912  -3.4912  -3.1692  -3.1692  -1.8558  -1.8558
    -0.8709  -0.8709  -0.2330  -0.2330   4.6095   4.6095   4.9951   4.9951
     5.3815   5.3815   5.9595   5.9595   6.4569   6.4569   6.8668   6.8668
     7.3114   7.3114   7.8102   7.8102   7.9431   7.9431   9.7519   9.7519
     9.8968   9.8968  10.8878  10.8878  11.3867  11.3867  11.8147  11.8147
    12.2711  12.2711  13.4014  13.4014  13.4267  13.4267  14.2107  14.2107
    14.7799  14.7799  16.4915  16.4915  16.7050  16.7050  16.8840  16.8840
    17.2695  17.2695  17.6380  17.6380  17.9519  17.9519  18.2796  18.2796
    18.6123  18.6123  18.7090  18.7090  18.9940  18.9940  19.7864  19.7864
    20.2255  20.2255  20.4687  20.4687

     occupation numbers 
     1.0000   1.0000   1.0000   1.0000   1.0000   1.0000   1.0000   1.0000
     1.0000   1.0000   1.0000   1.0000   1.0000   1.0000   1.0000   1.0000
     1.0000   1.0000   1.0000   1.0000   1.0000   1.0000   1.0000   1.0000
     1.0000   1.0000   1.0000   1.0000   1.0000   1.0000   1.0000   1.0000
     1.0000   1.0000   1.0000   1.0000   1.0000   1.0000   1.0000   1.0000
     1.0000   1.0000   1.0000   1.0000   1.0000   1.0000   1.0000   1.0000
     1.0000   1.0000   1.0000   1.0000   1.0000   1.0000   1.0000   1.0000
     1.0000   1.0000   1.0000   1.0000   1.0000   1.0000   1.0000   1.0000
     1.0000   1.0000   1.0000   1.0000   1.0000   1.0000   1.0000   1.0000
     1.0000   1.0000   1.0000   1.0000   1.0000   1.0000  -0.0000  -0.0000
    -0.0000  -0.0000  -0.0000  -0.0000  -0.0000  -0.0000  -0.0000  -0.0000
    -0.0000  -0.0000  -0.0000  -0.0000  -0.0000  -0.0000  -0.0000  -0.0000
    -0.0000  -0.0000  -0.0000  -0.0000  -0.0000  -0.0000  -0.0000  -0.0000
    -0.0000  -0.0000  -0.0000  -0.0000  -0.0000  -0.0000  -0.0000  -0.0000
    -0.0000  -0.0000  -0.0000  -0.0000  -0.0000  -0.0000  -0.0000  -0.0000
    -0.0000  -0.0000  -0.0000  -0.0000

          k =-0.5016 1.5338-0.9548 ( 11898 PWs)   bands (ev):

   -28.7943 -28.7943 -28.7935 -28.7935 -28.7904 -28.7904 -28.7901 -28.7901
   -28.5548 -28.5548 -28.5258 -28.5258 -27.3294 -27.3294 -27.3290 -27.3290
   -27.3276 -27.3276 -27.3265 -27.3265 -27.3240 -27.3240 -27.3238 -27.3238
   -27.0915 -27.0915 -27.0799 -27.0799 -27.0537 -27.0537 -15.8351 -15.8351
   -15.8349 -15.8349 -15.8276 -15.8276 -15.8272 -15.8272 -12.8557 -12.8557
   -12.8546 -12.8546 -12.8465 -12.8465 -12.8461 -12.8461 -12.8386 -12.8386
   -12.8374 -12.8374  -3.2839  -3.2839  -2.9962  -2.9962  -1.8747  -1.8747
    -0.9037  -0.9037  -0.5354  -0.5354   4.1769   4.1769   5.0207   5.0207
     5.4723   5.4723   5.9951   5.9951   6.1103   6.1103   6.7977   6.7977
     7.2320   7.2320   7.5594   7.5594   7.8471   7.8471   9.5228   9.5228
    10.4797  10.4797  10.6582  10.6582  10.9762  10.9762  11.9378  11.9378
    12.5224  12.5224  12.7400  12.7400  13.9197  13.9197  15.4471  15.4471
    15.7730  15.7730  16.2625  16.2625  16.3816  16.3816  16.7445  16.7445
    16.8000  16.8000  17.5169  17.5169  18.4751  18.4751  18.9771  18.9771
    19.4892  19.4892  19.5473  19.5473  19.8427  19.8427  20.3118  20.3118
    20.6091  20.6091  21.3310  21.3318

     occupation numbers 
     1.0000   1.0000   1.0000   1.0000   1.0000   1.0000   1.0000   1.0000
     1.0000   1.0000   1.0000   1.0000   1.0000   1.0000   1.0000   1.0000
     1.0000   1.0000   1.0000   1.0000   1.0000   1.0000   1.0000   1.0000
     1.0000   1.0000   1.0000   1.0000   1.0000   1.0000   1.0000   1.0000
     1.0000   1.0000   1.0000   1.0000   1.0000   1.0000   1.0000   1.0000
     1.0000   1.0000   1.0000   1.0000   1.0000   1.0000   1.0000   1.0000
     1.0000   1.0000   1.0000   1.0000   1.0000   1.0000   1.0000   1.0000
     1.0000   1.0000   1.0000   1.0000   1.0000   1.0000   1.0000   1.0000
     1.0000   1.0000   1.0000   1.0000   1.0000   1.0000   1.0000   1.0000
     1.0000   1.0000   1.0000   1.0000   1.0000   1.0000  -0.0000  -0.0000
    -0.0000  -0.0000  -0.0000  -0.0000  -0.0000  -0.0000  -0.0000  -0.0000
    -0.0000  -0.0000  -0.0000  -0.0000  -0.0000  -0.0000  -0.0000  -0.0000
    -0.0000  -0.0000  -0.0000  -0.0000  -0.0000  -0.0000  -0.0000  -0.0000
    -0.0000  -0.0000  -0.0000  -0.0000  -0.0000  -0.0000  -0.0000  -0.0000
    -0.0000  -0.0000  -0.0000  -0.0000  -0.0000  -0.0000  -0.0000  -0.0000
    -0.0000  -0.0000  -0.0000  -0.0000

          k =-0.5020 1.5337-0.4880 ( 11915 PWs)   bands (ev):

   -28.7941 -28.7941 -28.7936 -28.7936 -28.7903 -28.7903 -28.7901 -28.7901
   -28.5548 -28.5548 -28.5257 -28.5257 -27.3295 -27.3295 -27.3288 -27.3288
   -27.3275 -27.3275 -27.3266 -27.3266 -27.3238 -27.3238 -27.3237 -27.3237
   -27.0915 -27.0915 -27.0799 -27.0799 -27.0536 -27.0536 -15.8350 -15.8350
   -15.8339 -15.8339 -15.8278 -15.8278 -15.8273 -15.8273 -12.8553 -12.8553
   -12.8536 -12.8535 -12.8474 -12.8474 -12.8466 -12.8466 -12.8378 -12.8378
   -12.8370 -12.8370  -2.7117  -2.7117  -2.5203  -2.5203  -1.8763  -1.8763
    -1.3000  -1.3000  -1.1032  -1.1032   4.2156   4.2156   4.7078   4.7078
     4.8313   4.8313   5.1531   5.1531   5.7735   5.7735   6.2437   6.2437
     7.6044   7.6044   7.8637   7.8637   8.0938   8.0938   9.3481   9.3481
    10.0177  10.0177  10.4394  10.4394  11.7562  11.7562  12.3719  12.3719
    12.8348  12.8348  13.2832  13.2832  14.1745  14.1745  14.9967  14.9967
    15.8459  15.8459  16.2108  16.2108  16.9283  16.9283  17.8334  17.8334
    17.9915  17.9915  18.2871  18.2871  18.8459  18.8459  19.0331  19.0331
    19.4103  19.4103  19.8501  19.8501  19.9763  19.9763  20.3854  20.3854
    20.6451  20.6451  20.9447  20.9448

     occupation numbers 
     1.0000   1.0000   1.0000   1.0000   1.0000   1.0000   1.0000   1.0000
     1.0000   1.0000   1.0000   1.0000   1.0000   1.0000   1.0000   1.0000
     1.0000   1.0000   1.0000   1.0000   1.0000   1.0000   1.0000   1.0000
     1.0000   1.0000   1.0000   1.0000   1.0000   1.0000   1.0000   1.0000
     1.0000   1.0000   1.0000   1.0000   1.0000   1.0000   1.0000   1.0000
     1.0000   1.0000   1.0000   1.0000   1.0000   1.0000   1.0000   1.0000
     1.0000   1.0000   1.0000   1.0000   1.0000   1.0000   1.0000   1.0000
     1.0000   1.0000   1.0000   1.0000   1.0000   1.0000   1.0000   1.0000
     1.0000   1.0000   1.0000   1.0000   1.0000   1.0000   1.0000   1.0000
     1.0000   1.0000   1.0000   1.0000   1.0000   1.0000  -0.0000  -0.0000
    -0.0000  -0.0000  -0.0000  -0.0000  -0.0000  -0.0000  -0.0000  -0.0000
    -0.0000  -0.0000  -0.0000  -0.0000  -0.0000  -0.0000  -0.0000  -0.0000
    -0.0000  -0.0000  -0.0000  -0.0000  -0.0000  -0.0000  -0.0000  -0.0000
    -0.0000  -0.0000  -0.0000  -0.0000  -0.0000  -0.0000  -0.0000  -0.0000
    -0.0000  -0.0000  -0.0000  -0.0000  -0.0000  -0.0000  -0.0000  -0.0000
    -0.0000  -0.0000  -0.0000  -0.0000

          k =-0.5025 1.5336-0.0212 ( 11936 PWs)   bands (ev):

   -28.7940 -28.7939 -28.7938 -28.7938 -28.7901 -28.7901 -28.7901 -28.7901
   -28.5548 -28.5548 -28.5257 -28.5257 -27.3296 -27.3296 -27.3286 -27.3286
   -27.3276 -27.3275 -27.3266 -27.3266 -27.3238 -27.3238 -27.3237 -27.3236
   -27.0915 -27.0915 -27.0799 -27.0799 -27.0535 -27.0535 -15.8349 -15.8349
   -15.8332 -15.8332 -15.8281 -15.8281 -15.8273 -15.8273 -12.8534 -12.8534
   -12.8515 -12.8515 -12.8495 -12.8495 -12.8477 -12.8477 -12.8375 -12.8374
   -12.8374 -12.8374  -1.9560  -1.9560  -1.9407  -1.9407  -1.9110  -1.9110
    -1.8819  -1.8819  -1.7752  -1.7752   4.0985   4.0985   4.5319   4.5319
     4.6591   4.6591   5.0808   5.0808   5.5424   5.5424   6.2671   6.2671
     6.9657   6.9657   7.7016   7.7016   7.8886   7.8886   9.6145   9.6145
    10.4883  10.4883  11.1435  11.1435  12.0198  12.0198  12.5270  12.5270
    12.8971  12.8971  14.2688  14.2688  14.7129  14.7129  14.9199  14.9199
    15.0287  15.0287  15.4299  15.4299  16.4837  16.4837  17.3302  17.3302
    17.5002  17.5002  18.5056  18.5056  18.6024  18.6024  18.9392  18.9392
    19.1968  19.1968  19.8683  19.8683  20.1003  20.1003  21.0763  21.0763
    21.5588  21.5588  21.8312  21.8319

     occupation numbers 
     1.0000   1.0000   1.0000   1.0000   1.0000   1.0000   1.0000   1.0000
     1.0000   1.0000   1.0000   1.0000   1.0000   1.0000   1.0000   1.0000
     1.0000   1.0000   1.0000   1.0000   1.0000   1.0000   1.0000   1.0000
     1.0000   1.0000   1.0000   1.0000   1.0000   1.0000   1.0000   1.0000
     1.0000   1.0000   1.0000   1.0000   1.0000   1.0000   1.0000   1.0000
     1.0000   1.0000   1.0000   1.0000   1.0000   1.0000   1.0000   1.0000
     1.0000   1.0000   1.0000   1.0000   1.0000   1.0000   1.0000   1.0000
     1.0000   1.0000   1.0000   1.0000   1.0000   1.0000   1.0000   1.0000
     1.0000   1.0000   1.0000   1.0000   1.0000   1.0000   1.0000   1.0000
     1.0000   1.0000   1.0000   1.0000   1.0000   1.0000  -0.0000  -0.0000
    -0.0000  -0.0000  -0.0000  -0.0000  -0.0000  -0.0000  -0.0000  -0.0000
    -0.0000  -0.0000  -0.0000  -0.0000  -0.0000  -0.0000  -0.0000  -0.0000
    -0.0000  -0.0000  -0.0000  -0.0000  -0.0000  -0.0000  -0.0000  -0.0000
    -0.0000  -0.0000  -0.0000  -0.0000  -0.0000  -0.0000  -0.0000  -0.0000
    -0.0000  -0.0000  -0.0000  -0.0000  -0.0000  -0.0000  -0.0000  -0.0000
    -0.0000  -0.0000  -0.0000  -0.0000

          k =-0.5034 1.9437 0.2228 ( 11912 PWs)   bands (ev):

   -28.7941 -28.7941 -28.7936 -28.7936 -28.7903 -28.7903 -28.7901 -28.7901
   -28.5548 -28.5548 -28.5257 -28.5257 -27.3295 -27.3295 -27.3288 -27.3288
   -27.3275 -27.3275 -27.3266 -27.3266 -27.3238 -27.3238 -27.3237 -27.3237
   -27.0915 -27.0915 -27.0799 -27.0799 -27.0536 -27.0536 -15.8350 -15.8350
   -15.8339 -15.8339 -15.8278 -15.8278 -15.8273 -15.8273 -12.8553 -12.8553
   -12.8536 -12.8535 -12.8474 -12.8474 -12.8466 -12.8466 -12.8378 -12.8378
   -12.8370 -12.8370  -2.7472  -2.7472  -2.4602  -2.4602  -1.9000  -1.9000
    -1.3341  -1.3341  -1.0700  -1.0700   4.0687   4.0687   4.8250   4.8250
     4.9753   4.9753   5.2862   5.2862   5.6896   5.6897   6.0365   6.0365
     7.3851   7.3851   8.0374   8.0374   8.1984   8.1984   9.3408   9.3408
     9.8541   9.8541  10.6260  10.6260  11.7991  11.7991  12.4753  12.4753
    12.8251  12.8251  13.0277  13.0277  14.6071  14.6071  15.1859  15.1859
    15.4426  15.4426  15.8227  15.8227  16.8108  16.8108  17.8186  17.8186
    17.9188  17.9188  18.1994  18.1994  18.8971  18.8971  19.3413  19.3413
    19.3879  19.3879  19.8042  19.8042  20.1510  20.1510  20.6683  20.6683
    20.7744  20.7744  21.1398  21.1400

     occupation numbers 
     1.0000   1.0000   1.0000   1.0000   1.0000   1.0000   1.0000   1.0000
     1.0000   1.0000   1.0000   1.0000   1.0000   1.0000   1.0000   1.0000
     1.0000   1.0000   1.0000   1.0000   1.0000   1.0000   1.0000   1.0000
     1.0000   1.0000   1.0000   1.0000   1.0000   1.0000   1.0000   1.0000
     1.0000   1.0000   1.0000   1.0000   1.0000   1.0000   1.0000   1.0000
     1.0000   1.0000   1.0000   1.0000   1.0000   1.0000   1.0000   1.0000
     1.0000   1.0000   1.0000   1.0000   1.0000   1.0000   1.0000   1.0000
     1.0000   1.0000   1.0000   1.0000   1.0000   1.0000   1.0000   1.0000
     1.0000   1.0000   1.0000   1.0000   1.0000   1.0000   1.0000   1.0000
     1.0000   1.0000   1.0000   1.0000   1.0001   1.0001  -0.0000  -0.0000
    -0.0000  -0.0000  -0.0000  -0.0000  -0.0000  -0.0000  -0.0000  -0.0000
    -0.0000  -0.0000  -0.0000  -0.0000  -0.0000  -0.0000  -0.0000  -0.0000
    -0.0000  -0.0000  -0.0000  -0.0000  -0.0000  -0.0000  -0.0000  -0.0000
    -0.0000  -0.0000  -0.0000  -0.0000  -0.0000  -0.0000  -0.0000  -0.0000
    -0.0000  -0.0000  -0.0000  -0.0000  -0.0000  -0.0000  -0.0000  -0.0000
    -0.0000  -0.0000  -0.0000  -0.0000

          k =-0.5038 1.9436 0.6896 ( 11894 PWs)   bands (ev):

   -28.7944 -28.7944 -28.7934 -28.7934 -28.7905 -28.7905 -28.7901 -28.7901
   -28.5549 -28.5549 -28.5258 -28.5258 -27.3295 -27.3295 -27.3290 -27.3290
   -27.3277 -27.3277 -27.3264 -27.3264 -27.3241 -27.3241 -27.3238 -27.3238
   -27.0916 -27.0916 -27.0798 -27.0798 -27.0538 -27.0538 -15.8355 -15.8355
   -15.8349 -15.8349 -15.8277 -15.8277 -15.8271 -15.8271 -12.8555 -12.8554
   -12.8538 -12.8538 -12.8467 -12.8467 -12.8463 -12.8462 -12.8393 -12.8393
   -12.8383 -12.8383  -3.4912  -3.4912  -3.1692  -3.1692  -1.8558  -1.8558
    -0.8709  -0.8709  -0.2330  -0.2330   4.6095   4.6095   4.9951   4.9951
     5.3815   5.3815   5.9595   5.9595   6.4569   6.4569   6.8668   6.8668
     7.3114   7.3114   7.8102   7.8102   7.9431   7.9431   9.7519   9.7519
     9.8968   9.8968  10.8878  10.8878  11.3867  11.3867  11.8147  11.8147
    12.2711  12.2711  13.4014  13.4014  13.4267  13.4267  14.2107  14.2107
    14.7799  14.7799  16.4915  16.4915  16.7050  16.7050  16.8840  16.8840
    17.2695  17.2695  17.6380  17.6380  17.9519  17.9519  18.2796  18.2796
    18.6123  18.6123  18.7090  18.7090  18.9940  18.9940  19.7864  19.7864
    20.2255  20.2255  20.4687  20.4687

     occupation numbers 
     1.0000   1.0000   1.0000   1.0000   1.0000   1.0000   1.0000   1.0000
     1.0000   1.0000   1.0000   1.0000   1.0000   1.0000   1.0000   1.0000
     1.0000   1.0000   1.0000   1.0000   1.0000   1.0000   1.0000   1.0000
     1.0000   1.0000   1.0000   1.0000   1.0000   1.0000   1.0000   1.0000
     1.0000   1.0000   1.0000   1.0000   1.0000   1.0000   1.0000   1.0000
     1.0000   1.0000   1.0000   1.0000   1.0000   1.0000   1.0000   1.0000
     1.0000   1.0000   1.0000   1.0000   1.0000   1.0000   1.0000   1.0000
     1.0000   1.0000   1.0000   1.0000   1.0000   1.0000   1.0000   1.0000
     1.0000   1.0000   1.0000   1.0000   1.0000   1.0000   1.0000   1.0000
     1.0000   1.0000   1.0000   1.0000   1.0000   1.0000  -0.0000  -0.0000
    -0.0000  -0.0000  -0.0000  -0.0000  -0.0000  -0.0000  -0.0000  -0.0000
    -0.0000  -0.0000  -0.0000  -0.0000  -0.0000  -0.0000  -0.0000  -0.0000
    -0.0000  -0.0000  -0.0000  -0.0000  -0.0000  -0.0000  -0.0000  -0.0000
    -0.0000  -0.0000  -0.0000  -0.0000  -0.0000  -0.0000  -0.0000  -0.0000
    -0.0000  -0.0000  -0.0000  -0.0000  -0.0000  -0.0000  -0.0000  -0.0000
    -0.0000  -0.0000  -0.0000  -0.0000

          k =-0.5043 1.9435 1.1563 ( 11903 PWs)   bands (ev):

   -28.7946 -28.7946 -28.7932 -28.7932 -28.7907 -28.7907 -28.7901 -28.7901
   -28.5549 -28.5549 -28.5259 -28.5259 -27.3295 -27.3295 -27.3290 -27.3290
   -27.3280 -27.3280 -27.3263 -27.3263 -27.3243 -27.3243 -27.3240 -27.3240
   -27.0916 -27.0916 -27.0798 -27.0798 -27.0540 -27.0540 -15.8361 -15.8361
   -15.8359 -15.8359 -15.8275 -15.8275 -15.8269 -15.8269 -12.8561 -12.8561
   -12.8549 -12.8549 -12.8455 -12.8455 -12.8453 -12.8453 -12.8406 -12.8406
   -12.8394 -12.8394  -3.9043  -3.9043  -3.6002  -3.6002  -1.9727  -1.9727
    -0.7365  -0.7365   0.4613   0.4613   5.2419   5.2419   5.6177   5.6177
     6.1464   6.1464   6.6413   6.6413   6.8517   6.8517   7.1819   7.1819
     7.6179   7.6179   7.8944   7.8944   8.5319   8.5319   8.8236   8.8236
    10.0175  10.0175  10.2111  10.2111  10.9891  10.9891  11.3540  11.3540
    11.6771  11.6771  13.3216  13.3216  14.2443  14.2443  14.3622  14.3622
    14.7626  14.7626  15.1637  15.1637  15.6465  15.6465  16.0783  16.0783
    16.5893  16.5893  16.9813  16.9813  17.2050  17.2050  17.4750  17.4750
    17.9754  17.9754  18.0872  18.0872  18.2759  18.2759  18.6327  18.6327
    19.6792  19.6792  20.0417  20.0418

     occupation numbers 
     1.0000   1.0000   1.0000   1.0000   1.0000   1.0000   1.0000   1.0000
     1.0000   1.0000   1.0000   1.0000   1.0000   1.0000   1.0000   1.0000
     1.0000   1.0000   1.0000   1.0000   1.0000   1.0000   1.0000   1.0000
     1.0000   1.0000   1.0000   1.0000   1.0000   1.0000   1.0000   1.0000
     1.0000   1.0000   1.0000   1.0000   1.0000   1.0000   1.0000   1.0000
     1.0000   1.0000   1.0000   1.0000   1.0000   1.0000   1.0000   1.0000
     1.0000   1.0000   1.0000   1.0000   1.0000   1.0000   1.0000   1.0000
     1.0000   1.0000   1.0000   1.0000   1.0000   1.0000   1.0000   1.0000
     1.0000   1.0000   1.0000   1.0000   1.0000   1.0000   1.0000   1.0000
     1.0000   1.0000   1.0000   1.0000   0.9050   0.9050  -0.0242  -0.0242
    -0.0000  -0.0000  -0.0000  -0.0000  -0.0000  -0.0000  -0.0000  -0.0000
    -0.0000  -0.0000  -0.0000  -0.0000  -0.0000  -0.0000  -0.0000  -0.0000
    -0.0000  -0.0000  -0.0000  -0.0000  -0.0000  -0.0000  -0.0000  -0.0000
    -0.0000  -0.0000  -0.0000  -0.0000  -0.0000  -0.0000  -0.0000  -0.0000
    -0.0000  -0.0000  -0.0000  -0.0000  -0.0000  -0.0000  -0.0000  -0.0000
    -0.0000  -0.0000  -0.0000  -0.0000

          k =-0.5020 1.9440-1.1776 ( 11888 PWs)   bands (ev):

   -28.7946 -28.7946 -28.7932 -28.7932 -28.7907 -28.7907 -28.7901 -28.7901
   -28.5549 -28.5549 -28.5259 -28.5259 -27.3295 -27.3295 -27.3290 -27.3290
   -27.3280 -27.3280 -27.3263 -27.3263 -27.3243 -27.3243 -27.3240 -27.3240
   -27.0916 -27.0916 -27.0798 -27.0798 -27.0540 -27.0540 -15.8361 -15.8361
   -15.8359 -15.8359 -15.8275 -15.8275 -15.8269 -15.8269 -12.8561 -12.8561
   -12.8549 -12.8549 -12.8455 -12.8455 -12.8453 -12.8453 -12.8406 -12.8406
   -12.8394 -12.8394  -3.8914  -3.8914  -3.6202  -3.6202  -1.9524  -1.9524
    -0.7527  -0.7527   0.4596   0.4596   5.2381   5.2381   5.7210   5.7210
     6.0490   6.0490   6.6921   6.6921   6.8819   6.8819   7.1038   7.1038
     7.6509   7.6509   7.8400   7.8400   8.4679   8.4679   8.8884   8.8884
     9.9521   9.9522  10.1934  10.1934  10.9267  10.9267  11.5410  11.5410
    11.7653  11.7653  13.4784  13.4784  14.0168  14.0168  14.2829  14.2829
    14.9756  14.9756  15.1140  15.1140  15.6928  15.6928  16.0906  16.0906
    16.3973  16.3973  16.5133  16.5133  16.8712  16.8712  17.7691  17.7691
    17.7994  17.7994  18.1605  18.1605  18.4487  18.4487  19.2219  19.2219
    19.7141  19.7141  19.9135  19.9137

     occupation numbers 
     1.0000   1.0000   1.0000   1.0000   1.0000   1.0000   1.0000   1.0000
     1.0000   1.0000   1.0000   1.0000   1.0000   1.0000   1.0000   1.0000
     1.0000   1.0000   1.0000   1.0000   1.0000   1.0000   1.0000   1.0000
     1.0000   1.0000   1.0000   1.0000   1.0000   1.0000   1.0000   1.0000
     1.0000   1.0000   1.0000   1.0000   1.0000   1.0000   1.0000   1.0000
     1.0000   1.0000   1.0000   1.0000   1.0000   1.0000   1.0000   1.0000
     1.0000   1.0000   1.0000   1.0000   1.0000   1.0000   1.0000   1.0000
     1.0000   1.0000   1.0000   1.0000   1.0000   1.0000   1.0000   1.0000
     1.0000   1.0000   1.0000   1.0000   1.0000   1.0000   1.0000   1.0000
     1.0000   1.0000   1.0000   1.0000   1.0287   1.0287  -0.0067  -0.0067
    -0.0000  -0.0000  -0.0000  -0.0000  -0.0000  -0.0000  -0.0000  -0.0000
    -0.0000  -0.0000  -0.0000  -0.0000  -0.0000  -0.0000  -0.0000  -0.0000
    -0.0000  -0.0000  -0.0000  -0.0000  -0.0000  -0.0000  -0.0000  -0.0000
    -0.0000  -0.0000  -0.0000  -0.0000  -0.0000  -0.0000  -0.0000  -0.0000
    -0.0000  -0.0000  -0.0000  -0.0000  -0.0000  -0.0000  -0.0000  -0.0000
    -0.0000  -0.0000  -0.0000  -0.0000

          k =-0.5025 1.9439-0.7108 ( 11900 PWs)   bands (ev):

   -28.7944 -28.7944 -28.7934 -28.7934 -28.7905 -28.7905 -28.7901 -28.7901
   -28.5549 -28.5549 -28.5258 -28.5258 -27.3295 -27.3295 -27.3290 -27.3290
   -27.3277 -27.3277 -27.3264 -27.3264 -27.3241 -27.3241 -27.3238 -27.3238
   -27.0916 -27.0916 -27.0798 -27.0798 -27.0538 -27.0538 -15.8355 -15.8355
   -15.8349 -15.8349 -15.8277 -15.8277 -15.8271 -15.8271 -12.8555 -12.8554
   -12.8538 -12.8538 -12.8467 -12.8467 -12.8463 -12.8462 -12.8393 -12.8393
   -12.8383 -12.8383  -3.4543  -3.4543  -3.2279  -3.2279  -1.7899  -1.7899
    -0.9420  -0.9420  -0.2059  -0.2059   4.5761   4.5761   4.9524   4.9524
     5.4221   5.4221   6.1256   6.1256   6.3251   6.3251   7.1132   7.1132
     7.3078   7.3078   7.6138   7.6138   7.7431   7.7431   9.9180   9.9181
     9.9974   9.9974  11.0075  11.0075  11.3128  11.3128  11.7286  11.7286
    12.1369  12.1369  13.5039  13.5039  13.6080  13.6080  13.8653  13.8653
    14.5577  14.5577  16.5241  16.5241  16.8562  16.8562  17.2523  17.2523
    17.4904  17.4904  17.7340  17.7340  18.0591  18.0591  18.4152  18.4152
    18.5487  18.5487  18.6196  18.6196  19.0485  19.0485  19.3974  19.3974
    19.8931  19.8931  20.2545  20.2545

     occupation numbers 
     1.0000   1.0000   1.0000   1.0000   1.0000   1.0000   1.0000   1.0000
     1.0000   1.0000   1.0000   1.0000   1.0000   1.0000   1.0000   1.0000
     1.0000   1.0000   1.0000   1.0000   1.0000   1.0000   1.0000   1.0000
     1.0000   1.0000   1.0000   1.0000   1.0000   1.0000   1.0000   1.0000
     1.0000   1.0000   1.0000   1.0000   1.0000   1.0000   1.0000   1.0000
     1.0000   1.0000   1.0000   1.0000   1.0000   1.0000   1.0000   1.0000
     1.0000   1.0000   1.0000   1.0000   1.0000   1.0000   1.0000   1.0000
     1.0000   1.0000   1.0000   1.0000   1.0000   1.0000   1.0000   1.0000
     1.0000   1.0000   1.0000   1.0000   1.0000   1.0000   1.0000   1.0000
     1.0000   1.0000   1.0000   1.0000   1.0000   1.0000  -0.0000  -0.0000
    -0.0000  -0.0000  -0.0000  -0.0000  -0.0000  -0.0000  -0.0000  -0.0000
    -0.0000  -0.0000  -0.0000  -0.0000  -0.0000  -0.0000  -0.0000  -0.0000
    -0.0000  -0.0000  -0.0000  -0.0000  -0.0000  -0.0000  -0.0000  -0.0000
    -0.0000  -0.0000  -0.0000  -0.0000  -0.0000  -0.0000  -0.0000  -0.0000
    -0.0000  -0.0000  -0.0000  -0.0000  -0.0000  -0.0000  -0.0000  -0.0000
    -0.0000  -0.0000  -0.0000  -0.0000

          k =-0.5029 1.9438-0.2440 ( 11915 PWs)   bands (ev):

   -28.7941 -28.7941 -28.7936 -28.7936 -28.7903 -28.7903 -28.7901 -28.7901
   -28.5548 -28.5548 -28.5257 -28.5257 -27.3295 -27.3295 -27.3288 -27.3288
   -27.3275 -27.3275 -27.3266 -27.3266 -27.3238 -27.3238 -27.3237 -27.3237
   -27.0915 -27.0915 -27.0799 -27.0799 -27.0536 -27.0536 -15.8350 -15.8350
   -15.8339 -15.8339 -15.8278 -15.8278 -15.8273 -15.8273 -12.8553 -12.8553
   -12.8536 -12.8535 -12.8474 -12.8474 -12.8466 -12.8466 -12.8378 -12.8378
   -12.8370 -12.8370  -2.7117  -2.7117  -2.5203  -2.5203  -1.8763  -1.8763
    -1.3000  -1.3000  -1.1032  -1.1032   4.2156   4.2156   4.7078   4.7078
     4.8313   4.8313   5.1531   5.1531   5.7735   5.7735   6.2437   6.2437
     7.6044   7.6044   7.8637   7.8637   8.0938   8.0938   9.3481   9.3481
    10.0177  10.0177  10.4394  10.4394  11.7562  11.7562  12.3719  12.3719
    12.8348  12.8348  13.2832  13.2832  14.1745  14.1745  14.9967  14.9967
    15.8459  15.8459  16.2108  16.2108  16.9283  16.9283  17.8334  17.8334
    17.9915  17.9915  18.2871  18.2871  18.8459  18.8459  19.0331  19.0331
    19.4103  19.4103  19.8501  19.8501  19.9763  19.9763  20.3854  20.3854
    20.6451  20.6451  20.9447  20.9447

     occupation numbers 
     1.0000   1.0000   1.0000   1.0000   1.0000   1.0000   1.0000   1.0000
     1.0000   1.0000   1.0000   1.0000   1.0000   1.0000   1.0000   1.0000
     1.0000   1.0000   1.0000   1.0000   1.0000   1.0000   1.0000   1.0000
     1.0000   1.0000   1.0000   1.0000   1.0000   1.0000   1.0000   1.0000
     1.0000   1.0000   1.0000   1.0000   1.0000   1.0000   1.0000   1.0000
     1.0000   1.0000   1.0000   1.0000   1.0000   1.0000   1.0000   1.0000
     1.0000   1.0000   1.0000   1.0000   1.0000   1.0000   1.0000   1.0000
     1.0000   1.0000   1.0000   1.0000   1.0000   1.0000   1.0000   1.0000
     1.0000   1.0000   1.0000   1.0000   1.0000   1.0000   1.0000   1.0000
     1.0000   1.0000   1.0000   1.0000   1.0000   1.0000  -0.0000  -0.0000
    -0.0000  -0.0000  -0.0000  -0.0000  -0.0000  -0.0000  -0.0000  -0.0000
    -0.0000  -0.0000  -0.0000  -0.0000  -0.0000  -0.0000  -0.0000  -0.0000
    -0.0000  -0.0000  -0.0000  -0.0000  -0.0000  -0.0000  -0.0000  -0.0000
    -0.0000  -0.0000  -0.0000  -0.0000  -0.0000  -0.0000  -0.0000  -0.0000
    -0.0000  -0.0000  -0.0000  -0.0000  -0.0000  -0.0000  -0.0000  -0.0000
    -0.0000  -0.0000  -0.0000  -0.0000

          k =-0.5011-0.1073 1.3367 ( 11906 PWs)   bands (ev):

   -28.7941 -28.7941 -28.7936 -28.7936 -28.7903 -28.7903 -28.7901 -28.7901
   -28.5548 -28.5548 -28.5257 -28.5257 -27.3294 -27.3294 -27.3289 -27.3289
   -27.3274 -27.3274 -27.3267 -27.3267 -27.3237 -27.3237 -27.3237 -27.3237
   -27.0915 -27.0915 -27.0799 -27.0799 -27.0536 -27.0536 -15.8346 -15.8346
   -15.8345 -15.8345 -15.8276 -15.8276 -15.8274 -15.8274 -12.8563 -12.8563
   -12.8556 -12.8556 -12.8463 -12.8463 -12.8458 -12.8458 -12.8375 -12.8375
   -12.8361 -12.8361  -2.5515  -2.5515  -2.5408  -2.5408  -2.0293  -2.0293
    -1.5507  -1.5507  -0.8555  -0.8555   4.0104   4.0104   4.5876   4.5876
     4.8504   4.8504   5.7396   5.7396   6.0196   6.0196   6.6999   6.6999
     7.1448   7.1448   7.4154   7.4154   7.8887   7.8887   9.4793   9.4793
    10.1743  10.1743  10.6676  10.6676  10.9456  10.9456  11.9873  11.9873
    12.1220  12.1220  13.5381  13.5381  14.5159  14.5159  14.8225  14.8225
    17.1401  17.1401  17.1651  17.1651  17.8150  17.8150  17.9006  17.9006
    18.2357  18.2357  18.4248  18.4248  19.1974  19.1974  19.3304  19.3304
    19.3843  19.3843  19.5205  19.5205  19.7156  19.7156  19.8106  19.8106
    20.3788  20.3788  20.8263  20.8263

     occupation numbers 
     1.0000   1.0000   1.0000   1.0000   1.0000   1.0000   1.0000   1.0000
     1.0000   1.0000   1.0000   1.0000   1.0000   1.0000   1.0000   1.0000
     1.0000   1.0000   1.0000   1.0000   1.0000   1.0000   1.0000   1.0000
     1.0000   1.0000   1.0000   1.0000   1.0000   1.0000   1.0000   1.0000
     1.0000   1.0000   1.0000   1.0000   1.0000   1.0000   1.0000   1.0000
     1.0000   1.0000   1.0000   1.0000   1.0000   1.0000   1.0000   1.0000
     1.0000   1.0000   1.0000   1.0000   1.0000   1.0000   1.0000   1.0000
     1.0000   1.0000   1.0000   1.0000   1.0000   1.0000   1.0000   1.0000
     1.0000   1.0000   1.0000   1.0000   1.0000   1.0000   1.0000   1.0000
     1.0000   1.0000   1.0000   1.0000   1.0000   1.0000  -0.0000  -0.0000
    -0.0000  -0.0000  -0.0000  -0.0000  -0.0000  -0.0000  -0.0000  -0.0000
    -0.0000  -0.0000  -0.0000  -0.0000  -0.0000  -0.0000  -0.0000  -0.0000
    -0.0000  -0.0000  -0.0000  -0.0000  -0.0000  -0.0000  -0.0000  -0.0000
    -0.0000  -0.0000  -0.0000  -0.0000  -0.0000  -0.0000  -0.0000  -0.0000
    -0.0000  -0.0000  -0.0000  -0.0000  -0.0000  -0.0000  -0.0000  -0.0000
    -0.0000  -0.0000  -0.0000  -0.0000

          k =-0.5016-0.1074 1.8035 ( 11898 PWs)   bands (ev):

   -28.7943 -28.7943 -28.7935 -28.7935 -28.7904 -28.7904 -28.7901 -28.7901
   -28.5548 -28.5548 -28.5258 -28.5258 -27.3294 -27.3294 -27.3290 -27.3290
   -27.3276 -27.3276 -27.3265 -27.3265 -27.3240 -27.3240 -27.3238 -27.3238
   -27.0915 -27.0915 -27.0799 -27.0799 -27.0537 -27.0537 -15.8351 -15.8351
   -15.8349 -15.8349 -15.8276 -15.8276 -15.8272 -15.8272 -12.8557 -12.8557
   -12.8546 -12.8546 -12.8465 -12.8465 -12.8461 -12.8461 -12.8386 -12.8386
   -12.8374 -12.8374  -3.2839  -3.2839  -2.9962  -2.9962  -1.8747  -1.8747
    -0.9037  -0.9037  -0.5354  -0.5354   4.1769   4.1769   5.0207   5.0207
     5.4723   5.4723   5.9951   5.9951   6.1103   6.1103   6.7977   6.7977
     7.2320   7.2320   7.5594   7.5594   7.8471   7.8471   9.5228   9.5228
    10.4797  10.4797  10.6582  10.6582  10.9762  10.9762  11.9378  11.9378
    12.5224  12.5224  12.7400  12.7400  13.9197  13.9197  15.4471  15.4471
    15.7730  15.7730  16.2625  16.2625  16.3816  16.3816  16.7445  16.7445
    16.8000  16.8000  17.5169  17.5169  18.4751  18.4751  18.9771  18.9771
    19.4892  19.4892  19.5473  19.5473  19.8427  19.8427  20.3118  20.3118
    20.6091  20.6091  21.3308  21.3310

     occupation numbers 
     1.0000   1.0000   1.0000   1.0000   1.0000   1.0000   1.0000   1.0000
     1.0000   1.0000   1.0000   1.0000   1.0000   1.0000   1.0000   1.0000
     1.0000   1.0000   1.0000   1.0000   1.0000   1.0000   1.0000   1.0000
     1.0000   1.0000   1.0000   1.0000   1.0000   1.0000   1.0000   1.0000
     1.0000   1.0000   1.0000   1.0000   1.0000   1.0000   1.0000   1.0000
     1.0000   1.0000   1.0000   1.0000   1.0000   1.0000   1.0000   1.0000
     1.0000   1.0000   1.0000   1.0000   1.0000   1.0000   1.0000   1.0000
     1.0000   1.0000   1.0000   1.0000   1.0000   1.0000   1.0000   1.0000
     1.0000   1.0000   1.0000   1.0000   1.0000   1.0000   1.0000   1.0000
     1.0000   1.0000   1.0000   1.0000   1.0000   1.0000  -0.0000  -0.0000
    -0.0000  -0.0000  -0.0000  -0.0000  -0.0000  -0.0000  -0.0000  -0.0000
    -0.0000  -0.0000  -0.0000  -0.0000  -0.0000  -0.0000  -0.0000  -0.0000
    -0.0000  -0.0000  -0.0000  -0.0000  -0.0000  -0.0000  -0.0000  -0.0000
    -0.0000  -0.0000  -0.0000  -0.0000  -0.0000  -0.0000  -0.0000  -0.0000
    -0.0000  -0.0000  -0.0000  -0.0000  -0.0000  -0.0000  -0.0000  -0.0000
    -0.0000  -0.0000  -0.0000  -0.0000

          k =-0.5020-0.1075 2.2703 ( 11888 PWs)   bands (ev):

   -28.7946 -28.7946 -28.7932 -28.7932 -28.7907 -28.7907 -28.7901 -28.7901
   -28.5549 -28.5549 -28.5259 -28.5259 -27.3295 -27.3295 -27.3290 -27.3290
   -27.3280 -27.3280 -27.3263 -27.3263 -27.3243 -27.3243 -27.3240 -27.3240
   -27.0916 -27.0916 -27.0798 -27.0798 -27.0540 -27.0540 -15.8361 -15.8361
   -15.8359 -15.8359 -15.8275 -15.8275 -15.8269 -15.8269 -12.8561 -12.8561
   -12.8549 -12.8549 -12.8455 -12.8455 -12.8453 -12.8453 -12.8406 -12.8406
   -12.8394 -12.8394  -3.8914  -3.8914  -3.6202  -3.6202  -1.9524  -1.9524
    -0.7527  -0.7527   0.4596   0.4596   5.2381   5.2381   5.7210   5.7210
     6.0490   6.0490   6.6921   6.6921   6.8819   6.8819   7.1038   7.1038
     7.6509   7.6509   7.8400   7.8400   8.4679   8.4679   8.8884   8.8884
     9.9521   9.9522  10.1934  10.1934  10.9267  10.9267  11.5410  11.5410
    11.7653  11.7653  13.4784  13.4784  14.0168  14.0168  14.2829  14.2829
    14.9756  14.9756  15.1140  15.1140  15.6928  15.6928  16.0906  16.0906
    16.3973  16.3973  16.5133  16.5133  16.8712  16.8712  17.7691  17.7691
    17.7994  17.7994  18.1605  18.1605  18.4487  18.4487  19.2219  19.2219
    19.7141  19.7141  19.9136  19.9139

     occupation numbers 
     1.0000   1.0000   1.0000   1.0000   1.0000   1.0000   1.0000   1.0000
     1.0000   1.0000   1.0000   1.0000   1.0000   1.0000   1.0000   1.0000
     1.0000   1.0000   1.0000   1.0000   1.0000   1.0000   1.0000   1.0000
     1.0000   1.0000   1.0000   1.0000   1.0000   1.0000   1.0000   1.0000
     1.0000   1.0000   1.0000   1.0000   1.0000   1.0000   1.0000   1.0000
     1.0000   1.0000   1.0000   1.0000   1.0000   1.0000   1.0000   1.0000
     1.0000   1.0000   1.0000   1.0000   1.0000   1.0000   1.0000   1.0000
     1.0000   1.0000   1.0000   1.0000   1.0000   1.0000   1.0000   1.0000
     1.0000   1.0000   1.0000   1.0000   1.0000   1.0000   1.0000   1.0000
     1.0000   1.0000   1.0000   1.0000   1.0287   1.0287  -0.0067  -0.0067
    -0.0000  -0.0000  -0.0000  -0.0000  -0.0000  -0.0000  -0.0000  -0.0000
    -0.0000  -0.0000  -0.0000  -0.0000  -0.0000  -0.0000  -0.0000  -0.0000
    -0.0000  -0.0000  -0.0000  -0.0000  -0.0000  -0.0000  -0.0000  -0.0000
    -0.0000  -0.0000  -0.0000  -0.0000  -0.0000  -0.0000  -0.0000  -0.0000
    -0.0000  -0.0000  -0.0000  -0.0000  -0.0000  -0.0000  -0.0000  -0.0000
    -0.0000  -0.0000  -0.0000  -0.0000

          k =-0.4998-0.1070-0.0636 ( 11950 PWs)   bands (ev):

   -28.7947 -28.7947 -28.7932 -28.7932 -28.7908 -28.7908 -28.7902 -28.7902
   -28.5549 -28.5549 -28.5260 -28.5260 -27.3296 -27.3296 -27.3289 -27.3289
   -27.3283 -27.3283 -27.3262 -27.3262 -27.3244 -27.3244 -27.3241 -27.3241
   -27.0917 -27.0917 -27.0798 -27.0798 -27.0541 -27.0541 -15.8367 -15.8367
   -15.8364 -15.8364 -15.8273 -15.8273 -15.8269 -15.8269 -12.8571 -12.8571
   -12.8559 -12.8559 -12.8445 -12.8445 -12.8441 -12.8441 -12.8415 -12.8415
   -12.8402 -12.8402  -4.1086  -4.1086  -3.8424  -3.8424  -2.0439  -2.0439
    -0.7340  -0.7340   0.8853   0.8853   5.6627   5.6627   6.5024   6.5024
     6.7721   6.7721   7.0248   7.0248   7.4014   7.4014   7.6527   7.6527
     7.7480   7.7480   7.9612   7.9612   8.4022   8.4022   8.7101   8.7101
     9.2092   9.2092   9.9890   9.9890  10.4035  10.4035  10.9474  10.9474
    11.0420  11.0420  13.6524  13.6524  14.4242  14.4242  14.4875  14.4875
    14.6333  14.6333  15.3288  15.3288  16.0685  16.0685  16.3164  16.3164
    16.3588  16.3588  16.5834  16.5834  16.5890  16.5890  16.6389  16.6389
    16.9233  16.9233  17.3319  17.3319  17.3663  17.3663  17.4021  17.4021
    17.4789  17.4789  19.9279  19.9279

     occupation numbers 
     1.0000   1.0000   1.0000   1.0000   1.0000   1.0000   1.0000   1.0000
     1.0000   1.0000   1.0000   1.0000   1.0000   1.0000   1.0000   1.0000
     1.0000   1.0000   1.0000   1.0000   1.0000   1.0000   1.0000   1.0000
     1.0000   1.0000   1.0000   1.0000   1.0000   1.0000   1.0000   1.0000
     1.0000   1.0000   1.0000   1.0000   1.0000   1.0000   1.0000   1.0000
     1.0000   1.0000   1.0000   1.0000   1.0000   1.0000   1.0000   1.0000
     1.0000   1.0000   1.0000   1.0000   1.0000   1.0000   1.0000   1.0000
     1.0000   1.0000   1.0000   1.0000   1.0000   1.0000   1.0000   1.0000
     1.0000   1.0000   1.0000   1.0000   1.0000   1.0000   1.0000   1.0000
     1.0000   1.0000   1.0000   1.0000   1.0267   1.0267   0.0264   0.0264
    -0.0000  -0.0000  -0.0000  -0.0000  -0.0000  -0.0000  -0.0000  -0.0000
    -0.0000  -0.0000  -0.0000  -0.0000  -0.0000  -0.0000  -0.0000  -0.0000
    -0.0000  -0.0000  -0.0000  -0.0000  -0.0000  -0.0000  -0.0000  -0.0000
    -0.0000  -0.0000  -0.0000  -0.0000  -0.0000  -0.0000  -0.0000  -0.0000
    -0.0000  -0.0000  -0.0000  -0.0000  -0.0000  -0.0000  -0.0000  -0.0000
    -0.0000  -0.0000  -0.0000  -0.0000

          k =-0.5002-0.1071 0.4031 ( 11888 PWs)   bands (ev):

   -28.7946 -28.7946 -28.7932 -28.7932 -28.7907 -28.7907 -28.7901 -28.7901
   -28.5549 -28.5549 -28.5259 -28.5259 -27.3295 -27.3295 -27.3290 -27.3290
   -27.3280 -27.3280 -27.3263 -27.3263 -27.3243 -27.3243 -27.3240 -27.3240
   -27.0916 -27.0916 -27.0798 -27.0798 -27.0540 -27.0540 -15.8361 -15.8361
   -15.8359 -15.8359 -15.8275 -15.8275 -15.8269 -15.8269 -12.8561 -12.8561
   -12.8549 -12.8549 -12.8455 -12.8455 -12.8453 -12.8453 -12.8406 -12.8406
   -12.8394 -12.8394  -3.8914  -3.8914  -3.6202  -3.6202  -1.9524  -1.9524
    -0.7527  -0.7527   0.4596   0.4596   5.2381   5.2381   5.7210   5.7210
     6.0490   6.0490   6.6921   6.6921   6.8819   6.8819   7.1038   7.1038
     7.6509   7.6509   7.8400   7.8400   8.4679   8.4679   8.8884   8.8884
     9.9521   9.9522  10.1934  10.1934  10.9267  10.9267  11.5410  11.5410
    11.7653  11.7653  13.4784  13.4784  14.0168  14.0168  14.2829  14.2829
    14.9756  14.9756  15.1140  15.1140  15.6928  15.6928  16.0906  16.0906
    16.3973  16.3973  16.5133  16.5133  16.8712  16.8712  17.7691  17.7691
    17.7994  17.7994  18.1605  18.1605  18.4487  18.4487  19.2219  19.2219
    19.7141  19.7141  19.9136  19.9137

     occupation numbers 
     1.0000   1.0000   1.0000   1.0000   1.0000   1.0000   1.0000   1.0000
     1.0000   1.0000   1.0000   1.0000   1.0000   1.0000   1.0000   1.0000
     1.0000   1.0000   1.0000   1.0000   1.0000   1.0000   1.0000   1.0000
     1.0000   1.0000   1.0000   1.0000   1.0000   1.0000   1.0000   1.0000
     1.0000   1.0000   1.0000   1.0000   1.0000   1.0000   1.0000   1.0000
     1.0000   1.0000   1.0000   1.0000   1.0000   1.0000   1.0000   1.0000
     1.0000   1.0000   1.0000   1.0000   1.0000   1.0000   1.0000   1.0000
     1.0000   1.0000   1.0000   1.0000   1.0000   1.0000   1.0000   1.0000
     1.0000   1.0000   1.0000   1.0000   1.0000   1.0000   1.0000   1.0000
     1.0000   1.0000   1.0000   1.0000   1.0287   1.0287  -0.0067  -0.0067
    -0.0000  -0.0000  -0.0000  -0.0000  -0.0000  -0.0000  -0.0000  -0.0000
    -0.0000  -0.0000  -0.0000  -0.0000  -0.0000  -0.0000  -0.0000  -0.0000
    -0.0000  -0.0000  -0.0000  -0.0000  -0.0000  -0.0000  -0.0000  -0.0000
    -0.0000  -0.0000  -0.0000  -0.0000  -0.0000  -0.0000  -0.0000  -0.0000
    -0.0000  -0.0000  -0.0000  -0.0000  -0.0000  -0.0000  -0.0000  -0.0000
    -0.0000  -0.0000  -0.0000  -0.0000

          k =-0.5007-0.1072 0.8699 ( 11898 PWs)   bands (ev):

   -28.7943 -28.7943 -28.7935 -28.7935 -28.7904 -28.7904 -28.7901 -28.7901
   -28.5548 -28.5548 -28.5258 -28.5258 -27.3294 -27.3294 -27.3290 -27.3290
   -27.3276 -27.3276 -27.3265 -27.3265 -27.3240 -27.3240 -27.3238 -27.3238
   -27.0915 -27.0915 -27.0799 -27.0799 -27.0537 -27.0537 -15.8351 -15.8351
   -15.8349 -15.8349 -15.8276 -15.8276 -15.8272 -15.8272 -12.8557 -12.8557
   -12.8546 -12.8546 -12.8465 -12.8465 -12.8461 -12.8461 -12.8386 -12.8386
   -12.8374 -12.8374  -3.2839  -3.2839  -2.9962  -2.9962  -1.8747  -1.8747
    -0.9037  -0.9037  -0.5354  -0.5354   4.1769   4.1769   5.0207   5.0207
     5.4723   5.4723   5.9951   5.9951   6.1103   6.1103   6.7977   6.7977
     7.2320   7.2320   7.5594   7.5594   7.8471   7.8471   9.5228   9.5228
    10.4797  10.4797  10.6582  10.6582  10.9762  10.9762  11.9378  11.9378
    12.5224  12.5224  12.7400  12.7400  13.9197  13.9197  15.4471  15.4471
    15.7730  15.7730  16.2625  16.2625  16.3816  16.3816  16.7445  16.7445
    16.8000  16.8000  17.5169  17.5169  18.4751  18.4751  18.9771  18.9771
    19.4892  19.4892  19.5473  19.5473  19.8427  19.8427  20.3118  20.3118
    20.6091  20.6091  21.3318  21.3326

     occupation numbers 
     1.0000   1.0000   1.0000   1.0000   1.0000   1.0000   1.0000   1.0000
     1.0000   1.0000   1.0000   1.0000   1.0000   1.0000   1.0000   1.0000
     1.0000   1.0000   1.0000   1.0000   1.0000   1.0000   1.0000   1.0000
     1.0000   1.0000   1.0000   1.0000   1.0000   1.0000   1.0000   1.0000
     1.0000   1.0000   1.0000   1.0000   1.0000   1.0000   1.0000   1.0000
     1.0000   1.0000   1.0000   1.0000   1.0000   1.0000   1.0000   1.0000
     1.0000   1.0000   1.0000   1.0000   1.0000   1.0000   1.0000   1.0000
     1.0000   1.0000   1.0000   1.0000   1.0000   1.0000   1.0000   1.0000
     1.0000   1.0000   1.0000   1.0000   1.0000   1.0000   1.0000   1.0000
     1.0000   1.0000   1.0000   1.0000   1.0000   1.0000  -0.0000  -0.0000
    -0.0000  -0.0000  -0.0000  -0.0000  -0.0000  -0.0000  -0.0000  -0.0000
    -0.0000  -0.0000  -0.0000  -0.0000  -0.0000  -0.0000  -0.0000  -0.0000
    -0.0000  -0.0000  -0.0000  -0.0000  -0.0000  -0.0000  -0.0000  -0.0000
    -0.0000  -0.0000  -0.0000  -0.0000  -0.0000  -0.0000  -0.0000  -0.0000
    -0.0000  -0.0000  -0.0000  -0.0000  -0.0000  -0.0000  -0.0000  -0.0000
    -0.0000  -0.0000  -0.0000  -0.0000

          k =-0.5016 0.3029 1.1139 ( 11912 PWs)   bands (ev):

   -28.7941 -28.7941 -28.7936 -28.7936 -28.7903 -28.7903 -28.7901 -28.7901
   -28.5548 -28.5548 -28.5257 -28.5257 -27.3295 -27.3295 -27.3288 -27.3288
   -27.3275 -27.3275 -27.3266 -27.3266 -27.3238 -27.3238 -27.3237 -27.3237
   -27.0915 -27.0915 -27.0799 -27.0799 -27.0536 -27.0536 -15.8350 -15.8350
   -15.8339 -15.8339 -15.8278 -15.8278 -15.8273 -15.8273 -12.8553 -12.8553
   -12.8536 -12.8535 -12.8474 -12.8474 -12.8466 -12.8466 -12.8378 -12.8378
   -12.8370 -12.8370  -2.7472  -2.7472  -2.4602  -2.4602  -1.9000  -1.9000
    -1.3341  -1.3341  -1.0700  -1.0700   4.0687   4.0687   4.8250   4.8250
     4.9753   4.9753   5.2862   5.2862   5.6896   5.6897   6.0365   6.0365
     7.3851   7.3851   8.0374   8.0374   8.1984   8.1984   9.3408   9.3408
     9.8541   9.8541  10.6260  10.6260  11.7991  11.7991  12.4753  12.4753
    12.8251  12.8251  13.0277  13.0277  14.6071  14.6071  15.1859  15.1859
    15.4426  15.4426  15.8227  15.8227  16.8108  16.8108  17.8186  17.8186
    17.9188  17.9188  18.1994  18.1994  18.8971  18.8971  19.3413  19.3413
    19.3879  19.3879  19.8042  19.8042  20.1510  20.1510  20.6683  20.6683
    20.7744  20.7744  21.1398  21.1399

     occupation numbers 
     1.0000   1.0000   1.0000   1.0000   1.0000   1.0000   1.0000   1.0000
     1.0000   1.0000   1.0000   1.0000   1.0000   1.0000   1.0000   1.0000
     1.0000   1.0000   1.0000   1.0000   1.0000   1.0000   1.0000   1.0000
     1.0000   1.0000   1.0000   1.0000   1.0000   1.0000   1.0000   1.0000
     1.0000   1.0000   1.0000   1.0000   1.0000   1.0000   1.0000   1.0000
     1.0000   1.0000   1.0000   1.0000   1.0000   1.0000   1.0000   1.0000
     1.0000   1.0000   1.0000   1.0000   1.0000   1.0000   1.0000   1.0000
     1.0000   1.0000   1.0000   1.0000   1.0000   1.0000   1.0000   1.0000
     1.0000   1.0000   1.0000   1.0000   1.0000   1.0000   1.0000   1.0000
     1.0000   1.0000   1.0000   1.0000   1.0001   1.0001  -0.0000  -0.0000
    -0.0000  -0.0000  -0.0000  -0.0000  -0.0000  -0.0000  -0.0000  -0.0000
    -0.0000  -0.0000  -0.0000  -0.0000  -0.0000  -0.0000  -0.0000  -0.0000
    -0.0000  -0.0000  -0.0000  -0.0000  -0.0000  -0.0000  -0.0000  -0.0000
    -0.0000  -0.0000  -0.0000  -0.0000  -0.0000  -0.0000  -0.0000  -0.0000
    -0.0000  -0.0000  -0.0000  -0.0000  -0.0000  -0.0000  -0.0000  -0.0000
    -0.0000  -0.0000  -0.0000  -0.0000

          k =-0.5020 0.3028 1.5807 ( 11915 PWs)   bands (ev):

   -28.7941 -28.7941 -28.7936 -28.7936 -28.7903 -28.7903 -28.7901 -28.7901
   -28.5548 -28.5548 -28.5257 -28.5257 -27.3295 -27.3295 -27.3288 -27.3288
   -27.3275 -27.3275 -27.3266 -27.3266 -27.3238 -27.3238 -27.3237 -27.3237
   -27.0915 -27.0915 -27.0799 -27.0799 -27.0536 -27.0536 -15.8350 -15.8350
   -15.8339 -15.8339 -15.8278 -15.8278 -15.8273 -15.8273 -12.8553 -12.8553
   -12.8536 -12.8535 -12.8474 -12.8474 -12.8466 -12.8466 -12.8378 -12.8378
   -12.8370 -12.8370  -2.7117  -2.7117  -2.5203  -2.5203  -1.8763  -1.8763
    -1.3000  -1.3000  -1.1032  -1.1032   4.2156   4.2156   4.7078   4.7078
     4.8313   4.8313   5.1531   5.1531   5.7735   5.7735   6.2437   6.2437
     7.6044   7.6044   7.8637   7.8637   8.0938   8.0938   9.3481   9.3481
    10.0177  10.0177  10.4394  10.4394  11.7562  11.7562  12.3719  12.3719
    12.8348  12.8348  13.2832  13.2832  14.1745  14.1745  14.9967  14.9967
    15.8459  15.8459  16.2108  16.2108  16.9283  16.9283  17.8334  17.8334
    17.9915  17.9915  18.2871  18.2871  18.8459  18.8459  19.0331  19.0331
    19.4103  19.4103  19.8501  19.8501  19.9763  19.9763  20.3854  20.3854
    20.6451  20.6451  20.9447  20.9448

     occupation numbers 
     1.0000   1.0000   1.0000   1.0000   1.0000   1.0000   1.0000   1.0000
     1.0000   1.0000   1.0000   1.0000   1.0000   1.0000   1.0000   1.0000
     1.0000   1.0000   1.0000   1.0000   1.0000   1.0000   1.0000   1.0000
     1.0000   1.0000   1.0000   1.0000   1.0000   1.0000   1.0000   1.0000
     1.0000   1.0000   1.0000   1.0000   1.0000   1.0000   1.0000   1.0000
     1.0000   1.0000   1.0000   1.0000   1.0000   1.0000   1.0000   1.0000
     1.0000   1.0000   1.0000   1.0000   1.0000   1.0000   1.0000   1.0000
     1.0000   1.0000   1.0000   1.0000   1.0000   1.0000   1.0000   1.0000
     1.0000   1.0000   1.0000   1.0000   1.0000   1.0000   1.0000   1.0000
     1.0000   1.0000   1.0000   1.0000   1.0000   1.0000  -0.0000  -0.0000
    -0.0000  -0.0000  -0.0000  -0.0000  -0.0000  -0.0000  -0.0000  -0.0000
    -0.0000  -0.0000  -0.0000  -0.0000  -0.0000  -0.0000  -0.0000  -0.0000
    -0.0000  -0.0000  -0.0000  -0.0000  -0.0000  -0.0000  -0.0000  -0.0000
    -0.0000  -0.0000  -0.0000  -0.0000  -0.0000  -0.0000  -0.0000  -0.0000
    -0.0000  -0.0000  -0.0000  -0.0000  -0.0000  -0.0000  -0.0000  -0.0000
    -0.0000  -0.0000  -0.0000  -0.0000

          k =-0.5025 0.3027 2.0475 ( 11900 PWs)   bands (ev):

   -28.7944 -28.7944 -28.7934 -28.7934 -28.7905 -28.7905 -28.7901 -28.7901
   -28.5549 -28.5549 -28.5258 -28.5258 -27.3295 -27.3295 -27.3290 -27.3290
   -27.3277 -27.3277 -27.3264 -27.3264 -27.3241 -27.3241 -27.3238 -27.3238
   -27.0916 -27.0916 -27.0798 -27.0798 -27.0538 -27.0538 -15.8355 -15.8355
   -15.8349 -15.8349 -15.8277 -15.8277 -15.8271 -15.8271 -12.8555 -12.8554
   -12.8538 -12.8538 -12.8467 -12.8467 -12.8463 -12.8462 -12.8393 -12.8393
   -12.8383 -12.8383  -3.4543  -3.4543  -3.2279  -3.2279  -1.7899  -1.7899
    -0.9420  -0.9420  -0.2059  -0.2059   4.5761   4.5761   4.9524   4.9524
     5.4221   5.4221   6.1256   6.1256   6.3251   6.3251   7.1132   7.1132
     7.3078   7.3078   7.6138   7.6138   7.7431   7.7431   9.9180   9.9181
     9.9974   9.9974  11.0075  11.0075  11.3128  11.3128  11.7286  11.7286
    12.1369  12.1369  13.5039  13.5039  13.6080  13.6080  13.8653  13.8653
    14.5577  14.5577  16.5241  16.5241  16.8562  16.8562  17.2523  17.2523
    17.4904  17.4904  17.7340  17.7340  18.0591  18.0591  18.4152  18.4152
    18.5487  18.5487  18.6196  18.6196  19.0485  19.0485  19.3974  19.3974
    19.8931  19.8931  20.2545  20.2545

     occupation numbers 
     1.0000   1.0000   1.0000   1.0000   1.0000   1.0000   1.0000   1.0000
     1.0000   1.0000   1.0000   1.0000   1.0000   1.0000   1.0000   1.0000
     1.0000   1.0000   1.0000   1.0000   1.0000   1.0000   1.0000   1.0000
     1.0000   1.0000   1.0000   1.0000   1.0000   1.0000   1.0000   1.0000
     1.0000   1.0000   1.0000   1.0000   1.0000   1.0000   1.0000   1.0000
     1.0000   1.0000   1.0000   1.0000   1.0000   1.0000   1.0000   1.0000
     1.0000   1.0000   1.0000   1.0000   1.0000   1.0000   1.0000   1.0000
     1.0000   1.0000   1.0000   1.0000   1.0000   1.0000   1.0000   1.0000
     1.0000   1.0000   1.0000   1.0000   1.0000   1.0000   1.0000   1.0000
     1.0000   1.0000   1.0000   1.0000   1.0000   1.0000  -0.0000  -0.0000
    -0.0000  -0.0000  -0.0000  -0.0000  -0.0000  -0.0000  -0.0000  -0.0000
    -0.0000  -0.0000  -0.0000  -0.0000  -0.0000  -0.0000  -0.0000  -0.0000
    -0.0000  -0.0000  -0.0000  -0.0000  -0.0000  -0.0000  -0.0000  -0.0000
    -0.0000  -0.0000  -0.0000  -0.0000  -0.0000  -0.0000  -0.0000  -0.0000
    -0.0000  -0.0000  -0.0000  -0.0000  -0.0000  -0.0000  -0.0000  -0.0000
    -0.0000  -0.0000  -0.0000  -0.0000

          k =-0.5002 0.3032-0.2864 ( 11888 PWs)   bands (ev):

   -28.7946 -28.7946 -28.7932 -28.7932 -28.7907 -28.7907 -28.7901 -28.7901
   -28.5549 -28.5549 -28.5259 -28.5259 -27.3295 -27.3295 -27.3290 -27.3290
   -27.3280 -27.3280 -27.3263 -27.3263 -27.3243 -27.3243 -27.3240 -27.3240
   -27.0916 -27.0916 -27.0798 -27.0798 -27.0540 -27.0540 -15.8361 -15.8361
   -15.8359 -15.8359 -15.8275 -15.8275 -15.8269 -15.8269 -12.8561 -12.8561
   -12.8549 -12.8549 -12.8455 -12.8455 -12.8453 -12.8453 -12.8406 -12.8406
   -12.8394 -12.8394  -3.8914  -3.8914  -3.6202  -3.6202  -1.9524  -1.9524
    -0.7527  -0.7527   0.4596   0.4596   5.2381   5.2381   5.7210   5.7210
     6.0490   6.0490   6.6921   6.6921   6.8819   6.8819   7.1038   7.1038
     7.6509   7.6509   7.8400   7.8400   8.4679   8.4679   8.8884   8.8884
     9.9521   9.9522  10.1934  10.1934  10.9267  10.9267  11.5410  11.5410
    11.7653  11.7653  13.4784  13.4784  14.0168  14.0168  14.2829  14.2829
    14.9756  14.9756  15.1140  15.1140  15.6928  15.6928  16.0906  16.0906
    16.3973  16.3973  16.5133  16.5133  16.8712  16.8712  17.7691  17.7691
    17.7994  17.7994  18.1605  18.1605  18.4487  18.4487  19.2219  19.2219
    19.7141  19.7141  19.9135  19.9136

     occupation numbers 
     1.0000   1.0000   1.0000   1.0000   1.0000   1.0000   1.0000   1.0000
     1.0000   1.0000   1.0000   1.0000   1.0000   1.0000   1.0000   1.0000
     1.0000   1.0000   1.0000   1.0000   1.0000   1.0000   1.0000   1.0000
     1.0000   1.0000   1.0000   1.0000   1.0000   1.0000   1.0000   1.0000
     1.0000   1.0000   1.0000   1.0000   1.0000   1.0000   1.0000   1.0000
     1.0000   1.0000   1.0000   1.0000   1.0000   1.0000   1.0000   1.0000
     1.0000   1.0000   1.0000   1.0000   1.0000   1.0000   1.0000   1.0000
     1.0000   1.0000   1.0000   1.0000   1.0000   1.0000   1.0000   1.0000
     1.0000   1.0000   1.0000   1.0000   1.0000   1.0000   1.0000   1.0000
     1.0000   1.0000   1.0000   1.0000   1.0287   1.0287  -0.0067  -0.0067
    -0.0000  -0.0000  -0.0000  -0.0000  -0.0000  -0.0000  -0.0000  -0.0000
    -0.0000  -0.0000  -0.0000  -0.0000  -0.0000  -0.0000  -0.0000  -0.0000
    -0.0000  -0.0000  -0.0000  -0.0000  -0.0000  -0.0000  -0.0000  -0.0000
    -0.0000  -0.0000  -0.0000  -0.0000  -0.0000  -0.0000  -0.0000  -0.0000
    -0.0000  -0.0000  -0.0000  -0.0000  -0.0000  -0.0000  -0.0000  -0.0000
    -0.0000  -0.0000  -0.0000  -0.0000

          k =-0.5007 0.3031 0.1803 ( 11903 PWs)   bands (ev):

   -28.7946 -28.7946 -28.7932 -28.7932 -28.7907 -28.7907 -28.7901 -28.7901
   -28.5549 -28.5549 -28.5259 -28.5259 -27.3295 -27.3295 -27.3290 -27.3290
   -27.3280 -27.3280 -27.3263 -27.3263 -27.3243 -27.3243 -27.3240 -27.3240
   -27.0916 -27.0916 -27.0798 -27.0798 -27.0540 -27.0540 -15.8361 -15.8361
   -15.8359 -15.8359 -15.8275 -15.8275 -15.8269 -15.8269 -12.8561 -12.8561
   -12.8549 -12.8549 -12.8455 -12.8455 -12.8453 -12.8453 -12.8406 -12.8406
   -12.8394 -12.8394  -3.9043  -3.9043  -3.6002  -3.6002  -1.9727  -1.9727
    -0.7365  -0.7365   0.4613   0.4613   5.2419   5.2419   5.6177   5.6177
     6.1464   6.1464   6.6413   6.6413   6.8517   6.8517   7.1819   7.1819
     7.6179   7.6179   7.8944   7.8944   8.5319   8.5319   8.8236   8.8236
    10.0175  10.0175  10.2111  10.2111  10.9891  10.9891  11.3540  11.3540
    11.6771  11.6771  13.3216  13.3216  14.2443  14.2443  14.3622  14.3622
    14.7626  14.7626  15.1637  15.1637  15.6465  15.6465  16.0783  16.0783
    16.5893  16.5893  16.9813  16.9813  17.2050  17.2050  17.4750  17.4750
    17.9754  17.9754  18.0872  18.0872  18.2759  18.2759  18.6327  18.6327
    19.6792  19.6792  20.0417  20.0418

     occupation numbers 
     1.0000   1.0000   1.0000   1.0000   1.0000   1.0000   1.0000   1.0000
     1.0000   1.0000   1.0000   1.0000   1.0000   1.0000   1.0000   1.0000
     1.0000   1.0000   1.0000   1.0000   1.0000   1.0000   1.0000   1.0000
     1.0000   1.0000   1.0000   1.0000   1.0000   1.0000   1.0000   1.0000
     1.0000   1.0000   1.0000   1.0000   1.0000   1.0000   1.0000   1.0000
     1.0000   1.0000   1.0000   1.0000   1.0000   1.0000   1.0000   1.0000
     1.0000   1.0000   1.0000   1.0000   1.0000   1.0000   1.0000   1.0000
     1.0000   1.0000   1.0000   1.0000   1.0000   1.0000   1.0000   1.0000
     1.0000   1.0000   1.0000   1.0000   1.0000   1.0000   1.0000   1.0000
     1.0000   1.0000   1.0000   1.0000   0.9050   0.9050  -0.0242  -0.0242
    -0.0000  -0.0000  -0.0000  -0.0000  -0.0000  -0.0000  -0.0000  -0.0000
    -0.0000  -0.0000  -0.0000  -0.0000  -0.0000  -0.0000  -0.0000  -0.0000
    -0.0000  -0.0000  -0.0000  -0.0000  -0.0000  -0.0000  -0.0000  -0.0000
    -0.0000  -0.0000  -0.0000  -0.0000  -0.0000  -0.0000  -0.0000  -0.0000
    -0.0000  -0.0000  -0.0000  -0.0000  -0.0000  -0.0000  -0.0000  -0.0000
    -0.0000  -0.0000  -0.0000  -0.0000

          k =-0.5011 0.3030 0.6471 ( 11894 PWs)   bands (ev):

   -28.7944 -28.7944 -28.7934 -28.7934 -28.7905 -28.7905 -28.7901 -28.7901
   -28.5549 -28.5549 -28.5258 -28.5258 -27.3295 -27.3295 -27.3290 -27.3290
   -27.3277 -27.3277 -27.3264 -27.3264 -27.3241 -27.3241 -27.3238 -27.3238
   -27.0916 -27.0916 -27.0798 -27.0798 -27.0538 -27.0538 -15.8355 -15.8355
   -15.8349 -15.8349 -15.8277 -15.8277 -15.8271 -15.8271 -12.8555 -12.8554
   -12.8538 -12.8538 -12.8467 -12.8467 -12.8463 -12.8462 -12.8393 -12.8393
   -12.8383 -12.8383  -3.4912  -3.4912  -3.1692  -3.1692  -1.8558  -1.8558
    -0.8709  -0.8709  -0.2330  -0.2330   4.6095   4.6095   4.9951   4.9951
     5.3815   5.3815   5.9595   5.9595   6.4569   6.4569   6.8668   6.8668
     7.3114   7.3114   7.8102   7.8102   7.9431   7.9431   9.7519   9.7519
     9.8968   9.8968  10.8878  10.8878  11.3867  11.3867  11.8147  11.8147
    12.2711  12.2711  13.4014  13.4014  13.4267  13.4267  14.2107  14.2107
    14.7799  14.7799  16.4915  16.4915  16.7050  16.7050  16.8840  16.8840
    17.2695  17.2695  17.6380  17.6380  17.9519  17.9519  18.2796  18.2796
    18.6123  18.6123  18.7090  18.7090  18.9940  18.9940  19.7864  19.7864
    20.2255  20.2255  20.4687  20.4687

     occupation numbers 
     1.0000   1.0000   1.0000   1.0000   1.0000   1.0000   1.0000   1.0000
     1.0000   1.0000   1.0000   1.0000   1.0000   1.0000   1.0000   1.0000
     1.0000   1.0000   1.0000   1.0000   1.0000   1.0000   1.0000   1.0000
     1.0000   1.0000   1.0000   1.0000   1.0000   1.0000   1.0000   1.0000
     1.0000   1.0000   1.0000   1.0000   1.0000   1.0000   1.0000   1.0000
     1.0000   1.0000   1.0000   1.0000   1.0000   1.0000   1.0000   1.0000
     1.0000   1.0000   1.0000   1.0000   1.0000   1.0000   1.0000   1.0000
     1.0000   1.0000   1.0000   1.0000   1.0000   1.0000   1.0000   1.0000
     1.0000   1.0000   1.0000   1.0000   1.0000   1.0000   1.0000   1.0000
     1.0000   1.0000   1.0000   1.0000   1.0000   1.0000  -0.0000  -0.0000
    -0.0000  -0.0000  -0.0000  -0.0000  -0.0000  -0.0000  -0.0000  -0.0000
    -0.0000  -0.0000  -0.0000  -0.0000  -0.0000  -0.0000  -0.0000  -0.0000
    -0.0000  -0.0000  -0.0000  -0.0000  -0.0000  -0.0000  -0.0000  -0.0000
    -0.0000  -0.0000  -0.0000  -0.0000  -0.0000  -0.0000  -0.0000  -0.0000
    -0.0000  -0.0000  -0.0000  -0.0000  -0.0000  -0.0000  -0.0000  -0.0000
    -0.0000  -0.0000  -0.0000  -0.0000

          k =-0.5020 0.7131 0.8911 ( 11914 PWs)   bands (ev):

   -28.7941 -28.7941 -28.7936 -28.7936 -28.7903 -28.7903 -28.7901 -28.7901
   -28.5548 -28.5548 -28.5257 -28.5257 -27.3295 -27.3295 -27.3288 -27.3288
   -27.3275 -27.3275 -27.3266 -27.3266 -27.3238 -27.3238 -27.3237 -27.3237
   -27.0915 -27.0915 -27.0799 -27.0799 -27.0536 -27.0536 -15.8350 -15.8350
   -15.8339 -15.8339 -15.8278 -15.8278 -15.8273 -15.8273 -12.8553 -12.8553
   -12.8536 -12.8535 -12.8474 -12.8474 -12.8466 -12.8466 -12.8379 -12.8379
   -12.8370 -12.8370  -2.7220  -2.7220  -2.5211  -2.5211  -1.8036  -1.8036
    -1.4228  -1.4228  -1.0421  -1.0421   4.0308   4.0308   4.6405   4.6405
     4.9697   4.9697   5.2635   5.2635   6.2409   6.2409   6.6707   6.6707
     6.9977   6.9977   7.2552   7.2552   7.5478   7.5478  10.1563  10.1563
    10.4322  10.4322  10.9914  10.9914  11.4532  11.4532  12.0863  12.0863
    12.7548  12.7548  13.0942  13.0942  13.6315  13.6315  14.7597  14.7597
    16.6704  16.6704  16.7222  16.7222  17.1314  17.1314  17.7739  17.7739
    17.9589  17.9589  18.1976  18.1976  18.3619  18.3619  18.9656  18.9656
    19.3167  19.3167  19.3960  19.3960  19.6953  19.6953  19.9037  19.9037
    20.5195  20.5195  21.1759  21.1760

     occupation numbers 
     1.0000   1.0000   1.0000   1.0000   1.0000   1.0000   1.0000   1.0000
     1.0000   1.0000   1.0000   1.0000   1.0000   1.0000   1.0000   1.0000
     1.0000   1.0000   1.0000   1.0000   1.0000   1.0000   1.0000   1.0000
     1.0000   1.0000   1.0000   1.0000   1.0000   1.0000   1.0000   1.0000
     1.0000   1.0000   1.0000   1.0000   1.0000   1.0000   1.0000   1.0000
     1.0000   1.0000   1.0000   1.0000   1.0000   1.0000   1.0000   1.0000
     1.0000   1.0000   1.0000   1.0000   1.0000   1.0000   1.0000   1.0000
     1.0000   1.0000   1.0000   1.0000   1.0000   1.0000   1.0000   1.0000
     1.0000   1.0000   1.0000   1.0000   1.0000   1.0000   1.0000   1.0000
     1.0000   1.0000   1.0000   1.0000   1.0000   1.0000  -0.0000  -0.0000
    -0.0000  -0.0000  -0.0000  -0.0000  -0.0000  -0.0000  -0.0000  -0.0000
    -0.0000  -0.0000  -0.0000  -0.0000  -0.0000  -0.0000  -0.0000  -0.0000
    -0.0000  -0.0000  -0.0000  -0.0000  -0.0000  -0.0000  -0.0000  -0.0000
    -0.0000  -0.0000  -0.0000  -0.0000  -0.0000  -0.0000  -0.0000  -0.0000
    -0.0000  -0.0000  -0.0000  -0.0000  -0.0000  -0.0000  -0.0000  -0.0000
    -0.0000  -0.0000  -0.0000  -0.0000

          k =-0.5025 0.7130 1.3579 ( 11936 PWs)   bands (ev):

   -28.7940 -28.7939 -28.7938 -28.7938 -28.7901 -28.7901 -28.7901 -28.7901
   -28.5548 -28.5548 -28.5257 -28.5257 -27.3296 -27.3296 -27.3286 -27.3286
   -27.3276 -27.3275 -27.3266 -27.3266 -27.3238 -27.3238 -27.3237 -27.3236
   -27.0915 -27.0915 -27.0799 -27.0799 -27.0535 -27.0535 -15.8349 -15.8349
   -15.8332 -15.8332 -15.8281 -15.8281 -15.8273 -15.8273 -12.8534 -12.8534
   -12.8515 -12.8515 -12.8495 -12.8495 -12.8477 -12.8477 -12.8375 -12.8374
   -12.8374 -12.8374  -1.9560  -1.9560  -1.9407  -1.9407  -1.9110  -1.9110
    -1.8819  -1.8819  -1.7752  -1.7752   4.0985   4.0985   4.5319   4.5319
     4.6591   4.6591   5.0808   5.0808   5.5424   5.5424   6.2671   6.2671
     6.9657   6.9657   7.7016   7.7016   7.8886   7.8886   9.6145   9.6145
    10.4883  10.4883  11.1435  11.1435  12.0198  12.0198  12.5270  12.5270
    12.8971  12.8971  14.2688  14.2688  14.7129  14.7129  14.9199  14.9199
    15.0287  15.0287  15.4299  15.4299  16.4837  16.4837  17.3302  17.3302
    17.5002  17.5002  18.5056  18.5056  18.6024  18.6024  18.9392  18.9392
    19.1968  19.1968  19.8683  19.8683  20.1003  20.1003  21.0763  21.0763
    21.5587  21.5588  21.8310  21.8315

     occupation numbers 
     1.0000   1.0000   1.0000   1.0000   1.0000   1.0000   1.0000   1.0000
     1.0000   1.0000   1.0000   1.0000   1.0000   1.0000   1.0000   1.0000
     1.0000   1.0000   1.0000   1.0000   1.0000   1.0000   1.0000   1.0000
     1.0000   1.0000   1.0000   1.0000   1.0000   1.0000   1.0000   1.0000
     1.0000   1.0000   1.0000   1.0000   1.0000   1.0000   1.0000   1.0000
     1.0000   1.0000   1.0000   1.0000   1.0000   1.0000   1.0000   1.0000
     1.0000   1.0000   1.0000   1.0000   1.0000   1.0000   1.0000   1.0000
     1.0000   1.0000   1.0000   1.0000   1.0000   1.0000   1.0000   1.0000
     1.0000   1.0000   1.0000   1.0000   1.0000   1.0000   1.0000   1.0000
     1.0000   1.0000   1.0000   1.0000   1.0000   1.0000  -0.0000  -0.0000
    -0.0000  -0.0000  -0.0000  -0.0000  -0.0000  -0.0000  -0.0000  -0.0000
    -0.0000  -0.0000  -0.0000  -0.0000  -0.0000  -0.0000  -0.0000  -0.0000
    -0.0000  -0.0000  -0.0000  -0.0000  -0.0000  -0.0000  -0.0000  -0.0000
    -0.0000  -0.0000  -0.0000  -0.0000  -0.0000  -0.0000  -0.0000  -0.0000
    -0.0000  -0.0000  -0.0000  -0.0000  -0.0000  -0.0000  -0.0000  -0.0000
    -0.0000  -0.0000  -0.0000  -0.0000

          k =-0.5029 0.7129 1.8247 ( 11915 PWs)   bands (ev):

   -28.7941 -28.7941 -28.7936 -28.7936 -28.7903 -28.7903 -28.7901 -28.7901
   -28.5548 -28.5548 -28.5257 -28.5257 -27.3295 -27.3295 -27.3288 -27.3288
   -27.3275 -27.3275 -27.3266 -27.3266 -27.3238 -27.3238 -27.3237 -27.3237
   -27.0915 -27.0915 -27.0799 -27.0799 -27.0536 -27.0536 -15.8350 -15.8350
   -15.8339 -15.8339 -15.8278 -15.8278 -15.8273 -15.8273 -12.8553 -12.8553
   -12.8536 -12.8535 -12.8474 -12.8474 -12.8466 -12.8466 -12.8378 -12.8378
   -12.8370 -12.8370  -2.7117  -2.7117  -2.5203  -2.5203  -1.8763  -1.8763
    -1.3000  -1.3000  -1.1032  -1.1032   4.2156   4.2156   4.7078   4.7078
     4.8313   4.8313   5.1531   5.1531   5.7735   5.7735   6.2437   6.2437
     7.6044   7.6044   7.8637   7.8637   8.0938   8.0938   9.3481   9.3481
    10.0177  10.0177  10.4394  10.4394  11.7562  11.7562  12.3719  12.3719
    12.8348  12.8348  13.2832  13.2832  14.1745  14.1745  14.9967  14.9967
    15.8459  15.8459  16.2108  16.2108  16.9283  16.9283  17.8334  17.8334
    17.9915  17.9915  18.2871  18.2871  18.8459  18.8459  19.0331  19.0331
    19.4103  19.4103  19.8501  19.8501  19.9763  19.9763  20.3854  20.3854
    20.6451  20.6451  20.9448  20.9448

     occupation numbers 
     1.0000   1.0000   1.0000   1.0000   1.0000   1.0000   1.0000   1.0000
     1.0000   1.0000   1.0000   1.0000   1.0000   1.0000   1.0000   1.0000
     1.0000   1.0000   1.0000   1.0000   1.0000   1.0000   1.0000   1.0000
     1.0000   1.0000   1.0000   1.0000   1.0000   1.0000   1.0000   1.0000
     1.0000   1.0000   1.0000   1.0000   1.0000   1.0000   1.0000   1.0000
     1.0000   1.0000   1.0000   1.0000   1.0000   1.0000   1.0000   1.0000
     1.0000   1.0000   1.0000   1.0000   1.0000   1.0000   1.0000   1.0000
     1.0000   1.0000   1.0000   1.0000   1.0000   1.0000   1.0000   1.0000
     1.0000   1.0000   1.0000   1.0000   1.0000   1.0000   1.0000   1.0000
     1.0000   1.0000   1.0000   1.0000   1.0000   1.0000  -0.0000  -0.0000
    -0.0000  -0.0000  -0.0000  -0.0000  -0.0000  -0.0000  -0.0000  -0.0000
    -0.0000  -0.0000  -0.0000  -0.0000  -0.0000  -0.0000  -0.0000  -0.0000
    -0.0000  -0.0000  -0.0000  -0.0000  -0.0000  -0.0000  -0.0000  -0.0000
    -0.0000  -0.0000  -0.0000  -0.0000  -0.0000  -0.0000  -0.0000  -0.0000
    -0.0000  -0.0000  -0.0000  -0.0000  -0.0000  -0.0000  -0.0000  -0.0000
    -0.0000  -0.0000  -0.0000  -0.0000

          k =-0.5007 0.7134-0.5092 ( 11898 PWs)   bands (ev):

   -28.7943 -28.7943 -28.7935 -28.7935 -28.7904 -28.7904 -28.7901 -28.7901
   -28.5548 -28.5548 -28.5258 -28.5258 -27.3294 -27.3294 -27.3290 -27.3290
   -27.3276 -27.3276 -27.3265 -27.3265 -27.3240 -27.3240 -27.3238 -27.3238
   -27.0915 -27.0915 -27.0799 -27.0799 -27.0537 -27.0537 -15.8351 -15.8351
   -15.8349 -15.8349 -15.8276 -15.8276 -15.8272 -15.8272 -12.8557 -12.8557
   -12.8546 -12.8546 -12.8465 -12.8465 -12.8461 -12.8461 -12.8386 -12.8386
   -12.8374 -12.8374  -3.2839  -3.2839  -2.9962  -2.9962  -1.8747  -1.8747
    -0.9037  -0.9037  -0.5354  -0.5354   4.1769   4.1769   5.0207   5.0207
     5.4723   5.4723   5.9951   5.9951   6.1103   6.1103   6.7977   6.7977
     7.2320   7.2320   7.5594   7.5594   7.8471   7.8471   9.5228   9.5228
    10.4797  10.4797  10.6582  10.6582  10.9762  10.9762  11.9378  11.9378
    12.5224  12.5224  12.7400  12.7400  13.9197  13.9197  15.4471  15.4471
    15.7730  15.7730  16.2625  16.2625  16.3816  16.3816  16.7445  16.7445
    16.8000  16.8000  17.5169  17.5169  18.4751  18.4751  18.9771  18.9771
    19.4892  19.4892  19.5473  19.5473  19.8427  19.8427  20.3118  20.3118
    20.6091  20.6091  21.3308  21.3322

     occupation numbers 
     1.0000   1.0000   1.0000   1.0000   1.0000   1.0000   1.0000   1.0000
     1.0000   1.0000   1.0000   1.0000   1.0000   1.0000   1.0000   1.0000
     1.0000   1.0000   1.0000   1.0000   1.0000   1.0000   1.0000   1.0000
     1.0000   1.0000   1.0000   1.0000   1.0000   1.0000   1.0000   1.0000
     1.0000   1.0000   1.0000   1.0000   1.0000   1.0000   1.0000   1.0000
     1.0000   1.0000   1.0000   1.0000   1.0000   1.0000   1.0000   1.0000
     1.0000   1.0000   1.0000   1.0000   1.0000   1.0000   1.0000   1.0000
     1.0000   1.0000   1.0000   1.0000   1.0000   1.0000   1.0000   1.0000
     1.0000   1.0000   1.0000   1.0000   1.0000   1.0000   1.0000   1.0000
     1.0000   1.0000   1.0000   1.0000   1.0000   1.0000  -0.0000  -0.0000
    -0.0000  -0.0000  -0.0000  -0.0000  -0.0000  -0.0000  -0.0000  -0.0000
    -0.0000  -0.0000  -0.0000  -0.0000  -0.0000  -0.0000  -0.0000  -0.0000
    -0.0000  -0.0000  -0.0000  -0.0000  -0.0000  -0.0000  -0.0000  -0.0000
    -0.0000  -0.0000  -0.0000  -0.0000  -0.0000  -0.0000  -0.0000  -0.0000
    -0.0000  -0.0000  -0.0000  -0.0000  -0.0000  -0.0000  -0.0000  -0.0000
    -0.0000  -0.0000  -0.0000  -0.0000

          k =-0.5011 0.7133-0.0424 ( 11894 PWs)   bands (ev):

   -28.7944 -28.7944 -28.7934 -28.7934 -28.7905 -28.7905 -28.7901 -28.7901
   -28.5549 -28.5549 -28.5258 -28.5258 -27.3295 -27.3295 -27.3290 -27.3290
   -27.3277 -27.3277 -27.3264 -27.3264 -27.3241 -27.3241 -27.3238 -27.3238
   -27.0916 -27.0916 -27.0798 -27.0798 -27.0538 -27.0538 -15.8355 -15.8355
   -15.8349 -15.8349 -15.8277 -15.8277 -15.8271 -15.8271 -12.8555 -12.8554
   -12.8538 -12.8538 -12.8467 -12.8467 -12.8463 -12.8462 -12.8393 -12.8393
   -12.8383 -12.8383  -3.4912  -3.4912  -3.1692  -3.1692  -1.8558  -1.8558
    -0.8709  -0.8709  -0.2330  -0.2330   4.6095   4.6095   4.9951   4.9951
     5.3815   5.3815   5.9595   5.9595   6.4569   6.4569   6.8668   6.8668
     7.3114   7.3114   7.8102   7.8102   7.9431   7.9431   9.7519   9.7519
     9.8968   9.8968  10.8878  10.8878  11.3867  11.3867  11.8147  11.8147
    12.2711  12.2711  13.4014  13.4014  13.4267  13.4267  14.2107  14.2107
    14.7799  14.7799  16.4915  16.4915  16.7050  16.7050  16.8840  16.8840
    17.2695  17.2695  17.6380  17.6380  17.9519  17.9519  18.2796  18.2796
    18.6123  18.6123  18.7090  18.7090  18.9940  18.9940  19.7864  19.7864
    20.2255  20.2255  20.4687  20.4687

     occupation numbers 
     1.0000   1.0000   1.0000   1.0000   1.0000   1.0000   1.0000   1.0000
     1.0000   1.0000   1.0000   1.0000   1.0000   1.0000   1.0000   1.0000
     1.0000   1.0000   1.0000   1.0000   1.0000   1.0000   1.0000   1.0000
     1.0000   1.0000   1.0000   1.0000   1.0000   1.0000   1.0000   1.0000
     1.0000   1.0000   1.0000   1.0000   1.0000   1.0000   1.0000   1.0000
     1.0000   1.0000   1.0000   1.0000   1.0000   1.0000   1.0000   1.0000
     1.0000   1.0000   1.0000   1.0000   1.0000   1.0000   1.0000   1.0000
     1.0000   1.0000   1.0000   1.0000   1.0000   1.0000   1.0000   1.0000
     1.0000   1.0000   1.0000   1.0000   1.0000   1.0000   1.0000   1.0000
     1.0000   1.0000   1.0000   1.0000   1.0000   1.0000  -0.0000  -0.0000
    -0.0000  -0.0000  -0.0000  -0.0000  -0.0000  -0.0000  -0.0000  -0.0000
    -0.0000  -0.0000  -0.0000  -0.0000  -0.0000  -0.0000  -0.0000  -0.0000
    -0.0000  -0.0000  -0.0000  -0.0000  -0.0000  -0.0000  -0.0000  -0.0000
    -0.0000  -0.0000  -0.0000  -0.0000  -0.0000  -0.0000  -0.0000  -0.0000
    -0.0000  -0.0000  -0.0000  -0.0000  -0.0000  -0.0000  -0.0000  -0.0000
    -0.0000  -0.0000  -0.0000  -0.0000

          k =-0.5016 0.7132 0.4243 ( 11904 PWs)   bands (ev):

   -28.7943 -28.7943 -28.7935 -28.7935 -28.7904 -28.7904 -28.7901 -28.7901
   -28.5549 -28.5549 -28.5258 -28.5258 -27.3294 -27.3294 -27.3290 -27.3290
   -27.3276 -27.3276 -27.3265 -27.3265 -27.3240 -27.3240 -27.3238 -27.3238
   -27.0915 -27.0915 -27.0799 -27.0799 -27.0537 -27.0537 -15.8351 -15.8351
   -15.8349 -15.8349 -15.8276 -15.8276 -15.8272 -15.8272 -12.8557 -12.8557
   -12.8546 -12.8546 -12.8465 -12.8465 -12.8461 -12.8461 -12.8387 -12.8387
   -12.8374 -12.8374  -3.2924  -3.2924  -2.9918  -2.9918  -1.8071  -1.8071
    -1.0884  -1.0884  -0.4123  -0.4123   4.4195   4.4195   4.8318   4.8318
     5.3598   5.3598   5.7349   5.7349   6.2632   6.2632   6.4459   6.4459
     7.5047   7.5047   8.0204   8.0204   8.3676   8.3676   8.9727   8.9728
    10.0405  10.0405  10.3627  10.3627  11.0458  11.0458  12.1696  12.1696
    12.5478  12.5478  13.0457  13.0457  13.8799  13.8799  15.1414  15.1414
    16.1760  16.1760  16.3319  16.3319  16.6975  16.6975  16.8422  16.8422
    17.4408  17.4408  17.7546  17.7546  17.9745  17.9745  18.2801  18.2801
    18.8160  18.8160  19.1540  19.1540  19.6821  19.6821  20.0035  20.0035
    20.3165  20.3165  20.7336  20.7337

     occupation numbers 
     1.0000   1.0000   1.0000   1.0000   1.0000   1.0000   1.0000   1.0000
     1.0000   1.0000   1.0000   1.0000   1.0000   1.0000   1.0000   1.0000
     1.0000   1.0000   1.0000   1.0000   1.0000   1.0000   1.0000   1.0000
     1.0000   1.0000   1.0000   1.0000   1.0000   1.0000   1.0000   1.0000
     1.0000   1.0000   1.0000   1.0000   1.0000   1.0000   1.0000   1.0000
     1.0000   1.0000   1.0000   1.0000   1.0000   1.0000   1.0000   1.0000
     1.0000   1.0000   1.0000   1.0000   1.0000   1.0000   1.0000   1.0000
     1.0000   1.0000   1.0000   1.0000   1.0000   1.0000   1.0000   1.0000
     1.0000   1.0000   1.0000   1.0000   1.0000   1.0000   1.0000   1.0000
     1.0000   1.0000   1.0000   1.0000   1.0154   1.0154  -0.0005  -0.0005
    -0.0000  -0.0000  -0.0000  -0.0000  -0.0000  -0.0000  -0.0000  -0.0000
    -0.0000  -0.0000  -0.0000  -0.0000  -0.0000  -0.0000  -0.0000  -0.0000
    -0.0000  -0.0000  -0.0000  -0.0000  -0.0000  -0.0000  -0.0000  -0.0000
    -0.0000  -0.0000  -0.0000  -0.0000  -0.0000  -0.0000  -0.0000  -0.0000
    -0.0000  -0.0000  -0.0000  -0.0000  -0.0000  -0.0000  -0.0000  -0.0000
    -0.0000  -0.0000  -0.0000  -0.0000

          k =-0.3350 0.7489 0.4456 ( 11906 PWs)   bands (ev):

   -28.7943 -28.7943 -28.7935 -28.7935 -28.7904 -28.7904 -28.7901 -28.7901
   -28.5549 -28.5549 -28.5258 -28.5258 -27.3294 -27.3294 -27.3290 -27.3290
   -27.3276 -27.3276 -27.3266 -27.3266 -27.3240 -27.3240 -27.3238 -27.3238
   -27.0915 -27.0915 -27.0799 -27.0799 -27.0537 -27.0537 -15.8351 -15.8351
   -15.8349 -15.8349 -15.8276 -15.8276 -15.8272 -15.8272 -12.8558 -12.8557
   -12.8546 -12.8546 -12.8465 -12.8465 -12.8461 -12.8461 -12.8387 -12.8387
   -12.8374 -12.8374  -3.3373  -3.3373  -2.9040  -2.9040  -1.9055  -1.9055
    -1.0269  -1.0269  -0.4138  -0.4138   4.2611   4.2611   5.1097   5.1097
     5.2441   5.2441   5.9040   5.9040   6.1485   6.1485   6.6038   6.6038
     7.2694   7.2694   7.7630   7.7630   8.2416   8.2416   9.2111   9.2111
    10.2995  10.2995  10.5153  10.5153  11.0742  11.0742  12.0310  12.0310
    12.5228  12.5228  12.7850  12.7850  14.1366  14.1366  15.0324  15.0324
    16.2312  16.2312  16.3498  16.3498  16.6893  16.6893  16.9074  16.9074
    17.2889  17.2889  17.8622  17.8622  18.0984  18.0984  18.1644  18.1644
    18.4011  18.4011  18.6066  18.6066  19.3703  19.3703  20.5163  20.5163
    20.7393  20.7393  20.9302  20.9302

     occupation numbers 
     1.0000   1.0000   1.0000   1.0000   1.0000   1.0000   1.0000   1.0000
     1.0000   1.0000   1.0000   1.0000   1.0000   1.0000   1.0000   1.0000
     1.0000   1.0000   1.0000   1.0000   1.0000   1.0000   1.0000   1.0000
     1.0000   1.0000   1.0000   1.0000   1.0000   1.0000   1.0000   1.0000
     1.0000   1.0000   1.0000   1.0000   1.0000   1.0000   1.0000   1.0000
     1.0000   1.0000   1.0000   1.0000   1.0000   1.0000   1.0000   1.0000
     1.0000   1.0000   1.0000   1.0000   1.0000   1.0000   1.0000   1.0000
     1.0000   1.0000   1.0000   1.0000   1.0000   1.0000   1.0000   1.0000
     1.0000   1.0000   1.0000   1.0000   1.0000   1.0000   1.0000   1.0000
     1.0000   1.0000   1.0000   1.0000   1.0004   1.0004  -0.0000  -0.0000
    -0.0000  -0.0000  -0.0000  -0.0000  -0.0000  -0.0000  -0.0000  -0.0000
    -0.0000  -0.0000  -0.0000  -0.0000  -0.0000  -0.0000  -0.0000  -0.0000
    -0.0000  -0.0000  -0.0000  -0.0000  -0.0000  -0.0000  -0.0000  -0.0000
    -0.0000  -0.0000  -0.0000  -0.0000  -0.0000  -0.0000  -0.0000  -0.0000
    -0.0000  -0.0000  -0.0000  -0.0000  -0.0000  -0.0000  -0.0000  -0.0000
    -0.0000  -0.0000  -0.0000  -0.0000

          k =-0.3354 0.7488 0.9123 ( 11920 PWs)   bands (ev):

   -28.7941 -28.7941 -28.7936 -28.7936 -28.7903 -28.7903 -28.7901 -28.7901
   -28.5548 -28.5548 -28.5257 -28.5257 -27.3295 -27.3295 -27.3288 -27.3288
   -27.3275 -27.3275 -27.3266 -27.3266 -27.3238 -27.3238 -27.3237 -27.3237
   -27.0915 -27.0915 -27.0799 -27.0799 -27.0536 -27.0536 -15.8350 -15.8350
   -15.8339 -15.8339 -15.8278 -15.8278 -15.8273 -15.8273 -12.8553 -12.8553
   -12.8536 -12.8535 -12.8474 -12.8474 -12.8466 -12.8466 -12.8379 -12.8379
   -12.8370 -12.8370  -2.7551  -2.7551  -2.4656  -2.4656  -1.8255  -1.8255
    -1.4435  -1.4435  -1.0218  -1.0218   3.9448   3.9448   4.6863   4.6863
     5.0140   5.0140   5.5492   5.5492   6.1187   6.1187   6.3547   6.3547
     6.7908   6.7908   7.4961   7.4961   7.6660   7.6660  10.0764  10.0764
    10.3126  10.3126  11.2037  11.2037  11.6866  11.6866  12.1322  12.1322
    12.4755  12.4755  12.8839  12.8839  14.0514  14.0514  14.7639  14.7639
    16.1735  16.1735  16.7718  16.7718  17.1330  17.1330  17.3179  17.3179
    17.8477  17.8477  18.1124  18.1124  18.6530  18.6530  19.0934  19.0934
    19.3064  19.3064  19.7276  19.7276  20.0042  20.0042  20.2206  20.2206
    20.6043  20.6043  21.0207  21.0207

     occupation numbers 
     1.0000   1.0000   1.0000   1.0000   1.0000   1.0000   1.0000   1.0000
     1.0000   1.0000   1.0000   1.0000   1.0000   1.0000   1.0000   1.0000
     1.0000   1.0000   1.0000   1.0000   1.0000   1.0000   1.0000   1.0000
     1.0000   1.0000   1.0000   1.0000   1.0000   1.0000   1.0000   1.0000
     1.0000   1.0000   1.0000   1.0000   1.0000   1.0000   1.0000   1.0000
     1.0000   1.0000   1.0000   1.0000   1.0000   1.0000   1.0000   1.0000
     1.0000   1.0000   1.0000   1.0000   1.0000   1.0000   1.0000   1.0000
     1.0000   1.0000   1.0000   1.0000   1.0000   1.0000   1.0000   1.0000
     1.0000   1.0000   1.0000   1.0000   1.0000   1.0000   1.0000   1.0000
     1.0000   1.0000   1.0000   1.0000   1.0000   1.0000  -0.0000  -0.0000
    -0.0000  -0.0000  -0.0000  -0.0000  -0.0000  -0.0000  -0.0000  -0.0000
    -0.0000  -0.0000  -0.0000  -0.0000  -0.0000  -0.0000  -0.0000  -0.0000
    -0.0000  -0.0000  -0.0000  -0.0000  -0.0000  -0.0000  -0.0000  -0.0000
    -0.0000  -0.0000  -0.0000  -0.0000  -0.0000  -0.0000  -0.0000  -0.0000
    -0.0000  -0.0000  -0.0000  -0.0000  -0.0000  -0.0000  -0.0000  -0.0000
    -0.0000  -0.0000  -0.0000  -0.0000

          k =-0.3359 0.7487 1.3791 ( 11913 PWs)   bands (ev):

   -28.7939 -28.7939 -28.7938 -28.7938 -28.7901 -28.7901 -28.7901 -28.7901
   -28.5548 -28.5548 -28.5257 -28.5257 -27.3296 -27.3296 -27.3286 -27.3286
   -27.3275 -27.3275 -27.3266 -27.3266 -27.3238 -27.3238 -27.3236 -27.3236
   -27.0915 -27.0915 -27.0799 -27.0799 -27.0535 -27.0535 -15.8349 -15.8349
   -15.8332 -15.8332 -15.8281 -15.8281 -15.8273 -15.8273 -12.8534 -12.8534
   -12.8515 -12.8515 -12.8495 -12.8495 -12.8477 -12.8477 -12.8375 -12.8374
   -12.8374 -12.8374  -1.9560  -1.9560  -1.9407  -1.9407  -1.9110  -1.9110
    -1.8819  -1.8819  -1.7752  -1.7752   4.0996   4.0996   4.5031   4.5031
     4.7183   4.7183   5.0173   5.0173   5.6106   5.6106   6.1857   6.1857
     7.1265   7.1265   7.4481   7.4481   8.0443   8.0443   9.5607   9.5607
    10.6107  10.6107  11.0135  11.0135  12.1466  12.1466  12.4156  12.4156
    12.9254  12.9254  14.2693  14.2693  14.7646  14.7646  14.7997  14.7997
    15.1534  15.1534  15.3545  15.3545  16.6408  16.6408  16.9233  16.9233
    18.1155  18.1155  18.1750  18.1750  18.5330  18.5330  18.8437  18.8437
    19.2122  19.2122  19.9904  19.9904  20.5056  20.5056  20.8596  20.8597
    20.9054  20.9054  22.0802  22.0803

     occupation numbers 
     1.0000   1.0000   1.0000   1.0000   1.0000   1.0000   1.0000   1.0000
     1.0000   1.0000   1.0000   1.0000   1.0000   1.0000   1.0000   1.0000
     1.0000   1.0000   1.0000   1.0000   1.0000   1.0000   1.0000   1.0000
     1.0000   1.0000   1.0000   1.0000   1.0000   1.0000   1.0000   1.0000
     1.0000   1.0000   1.0000   1.0000   1.0000   1.0000   1.0000   1.0000
     1.0000   1.0000   1.0000   1.0000   1.0000   1.0000   1.0000   1.0000
     1.0000   1.0000   1.0000   1.0000   1.0000   1.0000   1.0000   1.0000
     1.0000   1.0000   1.0000   1.0000   1.0000   1.0000   1.0000   1.0000
     1.0000   1.0000   1.0000   1.0000   1.0000   1.0000   1.0000   1.0000
     1.0000   1.0000   1.0000   1.0000   1.0000   1.0000  -0.0000  -0.0000
    -0.0000  -0.0000  -0.0000  -0.0000  -0.0000  -0.0000  -0.0000  -0.0000
    -0.0000  -0.0000  -0.0000  -0.0000  -0.0000  -0.0000  -0.0000  -0.0000
    -0.0000  -0.0000  -0.0000  -0.0000  -0.0000  -0.0000  -0.0000  -0.0000
    -0.0000  -0.0000  -0.0000  -0.0000  -0.0000  -0.0000  -0.0000  -0.0000
    -0.0000  -0.0000  -0.0000  -0.0000  -0.0000  -0.0000  -0.0000  -0.0000
    -0.0000  -0.0000  -0.0000  -0.0000

          k =-0.3336 0.7492-0.9548 ( 11912 PWs)   bands (ev):

   -28.7941 -28.7941 -28.7936 -28.7936 -28.7903 -28.7903 -28.7901 -28.7901
   -28.5548 -28.5548 -28.5257 -28.5257 -27.3295 -27.3295 -27.3288 -27.3288
   -27.3275 -27.3275 -27.3266 -27.3266 -27.3238 -27.3238 -27.3237 -27.3237
   -27.0915 -27.0915 -27.0799 -27.0799 -27.0536 -27.0536 -15.8350 -15.8350
   -15.8339 -15.8339 -15.8278 -15.8278 -15.8273 -15.8273 -12.8553 -12.8553
   -12.8536 -12.8535 -12.8474 -12.8474 -12.8466 -12.8466 -12.8378 -12.8378
   -12.8370 -12.8370  -2.7472  -2.7472  -2.4602  -2.4602  -1.9000  -1.9000
    -1.3341  -1.3341  -1.0700  -1.0700   4.0687   4.0687   4.8250   4.8250
     4.9753   4.9753   5.2862   5.2862   5.6896   5.6897   6.0365   6.0365
     7.3851   7.3851   8.0374   8.0374   8.1984   8.1984   9.3408   9.3408
     9.8541   9.8541  10.6260  10.6260  11.7991  11.7991  12.4753  12.4753
    12.8251  12.8251  13.0277  13.0277  14.6071  14.6071  15.1859  15.1859
    15.4426  15.4426  15.8227  15.8227  16.8108  16.8108  17.8186  17.8186
    17.9188  17.9188  18.1994  18.1994  18.8971  18.8971  19.3413  19.3413
    19.3879  19.3879  19.8042  19.8042  20.1510  20.1510  20.6683  20.6683
    20.7744  20.7744  21.1398  21.1399

     occupation numbers 
     1.0000   1.0000   1.0000   1.0000   1.0000   1.0000   1.0000   1.0000
     1.0000   1.0000   1.0000   1.0000   1.0000   1.0000   1.0000   1.0000
     1.0000   1.0000   1.0000   1.0000   1.0000   1.0000   1.0000   1.0000
     1.0000   1.0000   1.0000   1.0000   1.0000   1.0000   1.0000   1.0000
     1.0000   1.0000   1.0000   1.0000   1.0000   1.0000   1.0000   1.0000
     1.0000   1.0000   1.0000   1.0000   1.0000   1.0000   1.0000   1.0000
     1.0000   1.0000   1.0000   1.0000   1.0000   1.0000   1.0000   1.0000
     1.0000   1.0000   1.0000   1.0000   1.0000   1.0000   1.0000   1.0000
     1.0000   1.0000   1.0000   1.0000   1.0000   1.0000   1.0000   1.0000
     1.0000   1.0000   1.0000   1.0000   1.0001   1.0001  -0.0000  -0.0000
    -0.0000  -0.0000  -0.0000  -0.0000  -0.0000  -0.0000  -0.0000  -0.0000
    -0.0000  -0.0000  -0.0000  -0.0000  -0.0000  -0.0000  -0.0000  -0.0000
    -0.0000  -0.0000  -0.0000  -0.0000  -0.0000  -0.0000  -0.0000  -0.0000
    -0.0000  -0.0000  -0.0000  -0.0000  -0.0000  -0.0000  -0.0000  -0.0000
    -0.0000  -0.0000  -0.0000  -0.0000  -0.0000  -0.0000  -0.0000  -0.0000
    -0.0000  -0.0000  -0.0000  -0.0000

          k =-0.3341 0.7491-0.4880 ( 11884 PWs)   bands (ev):

   -28.7943 -28.7943 -28.7935 -28.7935 -28.7904 -28.7904 -28.7901 -28.7901
   -28.5548 -28.5548 -28.5258 -28.5258 -27.3294 -27.3294 -27.3290 -27.3290
   -27.3276 -27.3276 -27.3265 -27.3265 -27.3240 -27.3240 -27.3238 -27.3238
   -27.0915 -27.0915 -27.0799 -27.0799 -27.0537 -27.0537 -15.8351 -15.8351
   -15.8349 -15.8349 -15.8276 -15.8276 -15.8272 -15.8272 -12.8558 -12.8557
   -12.8546 -12.8546 -12.8465 -12.8465 -12.8461 -12.8461 -12.8387 -12.8386
   -12.8374 -12.8374  -3.3312  -3.3312  -2.9049  -2.9049  -1.9626  -1.9626
    -0.8401  -0.8401  -0.5507  -0.5507   4.1016   4.1016   5.0398   5.0398
     5.6559   5.6559   5.9863   5.9863   6.2657   6.2657   6.6341   6.6341
     7.2269   7.2269   7.3956   7.3956   7.6350   7.6350   9.7567   9.7567
    10.4638  10.4638  10.8540  10.8540  11.2887  11.2887  11.8346  11.8346
    12.3035  12.3035  12.3978  12.3978  14.4034  14.4034  15.3303  15.3303
    15.4567  15.4567  16.1569  16.1569  16.2834  16.2834  16.9954  16.9954
    17.1944  17.1944  17.6858  17.6858  17.8887  17.8887  18.6867  18.6867
    18.9986  18.9986  19.2961  19.2961  19.7606  19.7606  20.8616  20.8616
    21.0250  21.0251  21.5449  21.5450

     occupation numbers 
     1.0000   1.0000   1.0000   1.0000   1.0000   1.0000   1.0000   1.0000
     1.0000   1.0000   1.0000   1.0000   1.0000   1.0000   1.0000   1.0000
     1.0000   1.0000   1.0000   1.0000   1.0000   1.0000   1.0000   1.0000
     1.0000   1.0000   1.0000   1.0000   1.0000   1.0000   1.0000   1.0000
     1.0000   1.0000   1.0000   1.0000   1.0000   1.0000   1.0000   1.0000
     1.0000   1.0000   1.0000   1.0000   1.0000   1.0000   1.0000   1.0000
     1.0000   1.0000   1.0000   1.0000   1.0000   1.0000   1.0000   1.0000
     1.0000   1.0000   1.0000   1.0000   1.0000   1.0000   1.0000   1.0000
     1.0000   1.0000   1.0000   1.0000   1.0000   1.0000   1.0000   1.0000
     1.0000   1.0000   1.0000   1.0000   1.0000   1.0000  -0.0000  -0.0000
    -0.0000  -0.0000  -0.0000  -0.0000  -0.0000  -0.0000  -0.0000  -0.0000
    -0.0000  -0.0000  -0.0000  -0.0000  -0.0000  -0.0000  -0.0000  -0.0000
    -0.0000  -0.0000  -0.0000  -0.0000  -0.0000  -0.0000  -0.0000  -0.0000
    -0.0000  -0.0000  -0.0000  -0.0000  -0.0000  -0.0000  -0.0000  -0.0000
    -0.0000  -0.0000  -0.0000  -0.0000  -0.0000  -0.0000  -0.0000  -0.0000
    -0.0000  -0.0000  -0.0000  -0.0000

          k =-0.3345 0.7490-0.0212 ( 11897 PWs)   bands (ev):

   -28.7944 -28.7944 -28.7934 -28.7934 -28.7905 -28.7905 -28.7901 -28.7901
   -28.5549 -28.5549 -28.5258 -28.5258 -27.3295 -27.3295 -27.3290 -27.3290
   -27.3277 -27.3277 -27.3264 -27.3264 -27.3241 -27.3241 -27.3238 -27.3238
   -27.0916 -27.0916 -27.0799 -27.0799 -27.0538 -27.0538 -15.8355 -15.8355
   -15.8349 -15.8349 -15.8277 -15.8277 -15.8271 -15.8271 -12.8555 -12.8555
   -12.8538 -12.8538 -12.8467 -12.8467 -12.8463 -12.8462 -12.8393 -12.8393
   -12.8383 -12.8383  -3.5405  -3.5405  -3.0707  -3.0707  -1.9774  -1.9774
    -0.7274  -0.7274  -0.3040  -0.3040   4.6983   4.6983   5.0674   5.0674
     5.3065   5.3065   5.7882   5.7882   6.4361   6.4361   6.6351   6.6351
     7.4676   7.4676   8.0769   8.0769   8.1836   8.1836   9.4658   9.4658
     9.7496   9.7497  10.5984  10.5984  11.4781  11.4781  12.0616  12.0616
    12.4593  12.4593  13.2274  13.2274  13.3250  13.3250  14.7813  14.7813
    15.3005  15.3005  16.2031  16.2031  16.3479  16.3479  16.4807  16.4807
    16.9649  16.9649  17.2266  17.2266  17.4272  17.4272  18.1219  18.1219
    18.7522  18.7522  19.1214  19.1214  19.5838  19.5838  20.1692  20.1692
    20.4436  20.4436  20.8013  20.8015

     occupation numbers 
     1.0000   1.0000   1.0000   1.0000   1.0000   1.0000   1.0000   1.0000
     1.0000   1.0000   1.0000   1.0000   1.0000   1.0000   1.0000   1.0000
     1.0000   1.0000   1.0000   1.0000   1.0000   1.0000   1.0000   1.0000
     1.0000   1.0000   1.0000   1.0000   1.0000   1.0000   1.0000   1.0000
     1.0000   1.0000   1.0000   1.0000   1.0000   1.0000   1.0000   1.0000
     1.0000   1.0000   1.0000   1.0000   1.0000   1.0000   1.0000   1.0000
     1.0000   1.0000   1.0000   1.0000   1.0000   1.0000   1.0000   1.0000
     1.0000   1.0000   1.0000   1.0000   1.0000   1.0000   1.0000   1.0000
     1.0000   1.0000   1.0000   1.0000   1.0000   1.0000   1.0000   1.0000
     1.0000   1.0000   1.0000   1.0000   1.0000   1.0000  -0.0000  -0.0000
    -0.0000  -0.0000  -0.0000  -0.0000  -0.0000  -0.0000  -0.0000  -0.0000
    -0.0000  -0.0000  -0.0000  -0.0000  -0.0000  -0.0000  -0.0000  -0.0000
    -0.0000  -0.0000  -0.0000  -0.0000  -0.0000  -0.0000  -0.0000  -0.0000
    -0.0000  -0.0000  -0.0000  -0.0000  -0.0000  -0.0000  -0.0000  -0.0000
    -0.0000  -0.0000  -0.0000  -0.0000  -0.0000  -0.0000  -0.0000  -0.0000
    -0.0000  -0.0000  -0.0000  -0.0000

          k =-0.3354 1.1590 0.2228 ( 11920 PWs)   bands (ev):

   -28.7941 -28.7941 -28.7936 -28.7936 -28.7903 -28.7903 -28.7901 -28.7901
   -28.5548 -28.5548 -28.5257 -28.5257 -27.3295 -27.3295 -27.3288 -27.3288
   -27.3275 -27.3275 -27.3266 -27.3266 -27.3238 -27.3238 -27.3237 -27.3237
   -27.0915 -27.0915 -27.0799 -27.0799 -27.0536 -27.0536 -15.8350 -15.8350
   -15.8339 -15.8339 -15.8278 -15.8278 -15.8273 -15.8273 -12.8553 -12.8553
   -12.8536 -12.8535 -12.8474 -12.8474 -12.8466 -12.8466 -12.8379 -12.8379
   -12.8370 -12.8370  -2.7551  -2.7551  -2.4656  -2.4656  -1.8255  -1.8255
    -1.4435  -1.4435  -1.0218  -1.0218   3.9448   3.9448   4.6863   4.6863
     5.0140   5.0140   5.5492   5.5492   6.1187   6.1187   6.3547   6.3547
     6.7908   6.7908   7.4961   7.4961   7.6660   7.6660  10.0764  10.0764
    10.3126  10.3126  11.2037  11.2037  11.6866  11.6866  12.1322  12.1322
    12.4755  12.4755  12.8839  12.8839  14.0514  14.0514  14.7639  14.7639
    16.1735  16.1735  16.7718  16.7718  17.1330  17.1330  17.3179  17.3179
    17.8477  17.8477  18.1124  18.1124  18.6530  18.6530  19.0934  19.0934
    19.3064  19.3064  19.7276  19.7276  20.0042  20.0042  20.2206  20.2206
    20.6043  20.6043  21.0207  21.0207

     occupation numbers 
     1.0000   1.0000   1.0000   1.0000   1.0000   1.0000   1.0000   1.0000
     1.0000   1.0000   1.0000   1.0000   1.0000   1.0000   1.0000   1.0000
     1.0000   1.0000   1.0000   1.0000   1.0000   1.0000   1.0000   1.0000
     1.0000   1.0000   1.0000   1.0000   1.0000   1.0000   1.0000   1.0000
     1.0000   1.0000   1.0000   1.0000   1.0000   1.0000   1.0000   1.0000
     1.0000   1.0000   1.0000   1.0000   1.0000   1.0000   1.0000   1.0000
     1.0000   1.0000   1.0000   1.0000   1.0000   1.0000   1.0000   1.0000
     1.0000   1.0000   1.0000   1.0000   1.0000   1.0000   1.0000   1.0000
     1.0000   1.0000   1.0000   1.0000   1.0000   1.0000   1.0000   1.0000
     1.0000   1.0000   1.0000   1.0000   1.0000   1.0000  -0.0000  -0.0000
    -0.0000  -0.0000  -0.0000  -0.0000  -0.0000  -0.0000  -0.0000  -0.0000
    -0.0000  -0.0000  -0.0000  -0.0000  -0.0000  -0.0000  -0.0000  -0.0000
    -0.0000  -0.0000  -0.0000  -0.0000  -0.0000  -0.0000  -0.0000  -0.0000
    -0.0000  -0.0000  -0.0000  -0.0000  -0.0000  -0.0000  -0.0000  -0.0000
    -0.0000  -0.0000  -0.0000  -0.0000  -0.0000  -0.0000  -0.0000  -0.0000
    -0.0000  -0.0000  -0.0000  -0.0000

          k =-0.3359 1.1590 0.6896 ( 11935 PWs)   bands (ev):

   -28.7941 -28.7941 -28.7936 -28.7936 -28.7903 -28.7903 -28.7901 -28.7901
   -28.5548 -28.5548 -28.5257 -28.5257 -27.3294 -27.3294 -27.3289 -27.3289
   -27.3274 -27.3274 -27.3267 -27.3267 -27.3238 -27.3238 -27.3237 -27.3237
   -27.0915 -27.0915 -27.0799 -27.0799 -27.0536 -27.0536 -15.8346 -15.8346
   -15.8345 -15.8345 -15.8276 -15.8276 -15.8274 -15.8274 -12.8563 -12.8563
   -12.8556 -12.8556 -12.8464 -12.8464 -12.8458 -12.8458 -12.8375 -12.8375
   -12.8361 -12.8361  -2.5508  -2.5508  -2.5239  -2.5239  -2.1145  -2.1145
    -1.3928  -1.3928  -0.9527  -0.9527   3.7607   3.7607   4.9869   4.9869
     5.1810   5.1810   5.6357   5.6357   5.8995   5.8995   6.3794   6.3794
     6.7623   6.7623   7.6693   7.6693   8.0801   8.0801   9.2184   9.2184
    10.3670  10.3670  10.7731  10.7731  11.1281  11.1281  12.0134  12.0134
    12.4521  12.4521  12.8292  12.8292  13.8356  13.8356  16.3509  16.3509
    17.0614  17.0614  17.2942  17.2942  17.5110  17.5110  17.8302  17.8302
    18.1657  18.1657  18.3053  18.3053  18.9363  18.9363  19.0087  19.0087
    19.0911  19.0911  19.5511  19.5511  19.6696  19.6696  20.1499  20.1499
    20.2597  20.2597  20.7519  20.7522

     occupation numbers 
     1.0000   1.0000   1.0000   1.0000   1.0000   1.0000   1.0000   1.0000
     1.0000   1.0000   1.0000   1.0000   1.0000   1.0000   1.0000   1.0000
     1.0000   1.0000   1.0000   1.0000   1.0000   1.0000   1.0000   1.0000
     1.0000   1.0000   1.0000   1.0000   1.0000   1.0000   1.0000   1.0000
     1.0000   1.0000   1.0000   1.0000   1.0000   1.0000   1.0000   1.0000
     1.0000   1.0000   1.0000   1.0000   1.0000   1.0000   1.0000   1.0000
     1.0000   1.0000   1.0000   1.0000   1.0000   1.0000   1.0000   1.0000
     1.0000   1.0000   1.0000   1.0000   1.0000   1.0000   1.0000   1.0000
     1.0000   1.0000   1.0000   1.0000   1.0000   1.0000   1.0000   1.0000
     1.0000   1.0000   1.0000   1.0000   1.0000   1.0000  -0.0000  -0.0000
    -0.0000  -0.0000  -0.0000  -0.0000  -0.0000  -0.0000  -0.0000  -0.0000
    -0.0000  -0.0000  -0.0000  -0.0000  -0.0000  -0.0000  -0.0000  -0.0000
    -0.0000  -0.0000  -0.0000  -0.0000  -0.0000  -0.0000  -0.0000  -0.0000
    -0.0000  -0.0000  -0.0000  -0.0000  -0.0000  -0.0000  -0.0000  -0.0000
    -0.0000  -0.0000  -0.0000  -0.0000  -0.0000  -0.0000  -0.0000  -0.0000
    -0.0000  -0.0000  -0.0000  -0.0000

          k =-0.3364 1.1589 1.1563 ( 11918 PWs)   bands (ev):

   -28.7941 -28.7941 -28.7936 -28.7936 -28.7903 -28.7903 -28.7901 -28.7901
   -28.5548 -28.5548 -28.5257 -28.5257 -27.3295 -27.3295 -27.3288 -27.3288
   -27.3275 -27.3275 -27.3266 -27.3266 -27.3238 -27.3238 -27.3237 -27.3237
   -27.0915 -27.0915 -27.0799 -27.0799 -27.0536 -27.0536 -15.8350 -15.8350
   -15.8339 -15.8339 -15.8278 -15.8278 -15.8273 -15.8273 -12.8553 -12.8553
   -12.8536 -12.8535 -12.8474 -12.8474 -12.8466 -12.8466 -12.8379 -12.8379
   -12.8370 -12.8370  -2.6908  -2.6908  -2.5576  -2.5576  -1.8328  -1.8328
    -1.3486  -1.3486  -1.0818  -1.0818   4.1779   4.1779   4.6719   4.6719
     4.8396   4.8396   5.0870   5.0870   6.0372   6.0372   6.5574   6.5574
     7.2968   7.2968   7.5101   7.5101   7.8450   7.8450   9.6841   9.6841
    10.3260  10.3260  10.6886  10.6886  11.5674  11.5674  12.1590  12.1590
    12.9183  12.9183  13.2538  13.2538  13.7364  13.7364  14.8310  14.8310
    16.2055  16.2055  16.8654  16.8654  17.1129  17.1129  17.7852  17.7852
    17.9819  17.9819  18.2055  18.2055  18.6554  18.6554  18.7993  18.7993
    19.3075  19.3075  19.6576  19.6576  19.8438  19.8438  19.9980  19.9980
    20.3874  20.3874  21.0897  21.0902

     occupation numbers 
     1.0000   1.0000   1.0000   1.0000   1.0000   1.0000   1.0000   1.0000
     1.0000   1.0000   1.0000   1.0000   1.0000   1.0000   1.0000   1.0000
     1.0000   1.0000   1.0000   1.0000   1.0000   1.0000   1.0000   1.0000
     1.0000   1.0000   1.0000   1.0000   1.0000   1.0000   1.0000   1.0000
     1.0000   1.0000   1.0000   1.0000   1.0000   1.0000   1.0000   1.0000
     1.0000   1.0000   1.0000   1.0000   1.0000   1.0000   1.0000   1.0000
     1.0000   1.0000   1.0000   1.0000   1.0000   1.0000   1.0000   1.0000
     1.0000   1.0000   1.0000   1.0000   1.0000   1.0000   1.0000   1.0000
     1.0000   1.0000   1.0000   1.0000   1.0000   1.0000   1.0000   1.0000
     1.0000   1.0000   1.0000   1.0000   1.0000   1.0000  -0.0000  -0.0000
    -0.0000  -0.0000  -0.0000  -0.0000  -0.0000  -0.0000  -0.0000  -0.0000
    -0.0000  -0.0000  -0.0000  -0.0000  -0.0000  -0.0000  -0.0000  -0.0000
    -0.0000  -0.0000  -0.0000  -0.0000  -0.0000  -0.0000  -0.0000  -0.0000
    -0.0000  -0.0000  -0.0000  -0.0000  -0.0000  -0.0000  -0.0000  -0.0000
    -0.0000  -0.0000  -0.0000  -0.0000  -0.0000  -0.0000  -0.0000  -0.0000
    -0.0000  -0.0000  -0.0000  -0.0000

          k =-0.3341 1.1593-1.1776 ( 11915 PWs)   bands (ev):

   -28.7941 -28.7941 -28.7936 -28.7936 -28.7903 -28.7903 -28.7901 -28.7901
   -28.5548 -28.5548 -28.5257 -28.5257 -27.3295 -27.3295 -27.3288 -27.3288
   -27.3275 -27.3275 -27.3266 -27.3266 -27.3238 -27.3238 -27.3237 -27.3237
   -27.0915 -27.0915 -27.0799 -27.0799 -27.0536 -27.0536 -15.8350 -15.8350
   -15.8339 -15.8339 -15.8278 -15.8278 -15.8273 -15.8273 -12.8553 -12.8553
   -12.8536 -12.8535 -12.8474 -12.8474 -12.8466 -12.8466 -12.8378 -12.8378
   -12.8370 -12.8370  -2.7117  -2.7117  -2.5203  -2.5203  -1.8763  -1.8763
    -1.3000  -1.3000  -1.1032  -1.1032   4.2156   4.2156   4.7078   4.7078
     4.8313   4.8313   5.1531   5.1531   5.7735   5.7735   6.2437   6.2437
     7.6044   7.6044   7.8637   7.8637   8.0938   8.0938   9.3481   9.3481
    10.0177  10.0177  10.4394  10.4394  11.7562  11.7562  12.3719  12.3719
    12.8348  12.8348  13.2832  13.2832  14.1745  14.1745  14.9967  14.9967
    15.8459  15.8459  16.2108  16.2108  16.9283  16.9283  17.8334  17.8334
    17.9915  17.9915  18.2871  18.2871  18.8459  18.8459  19.0331  19.0331
    19.4103  19.4103  19.8501  19.8501  19.9763  19.9763  20.3854  20.3854
    20.6451  20.6451  20.9447  20.9448

     occupation numbers 
     1.0000   1.0000   1.0000   1.0000   1.0000   1.0000   1.0000   1.0000
     1.0000   1.0000   1.0000   1.0000   1.0000   1.0000   1.0000   1.0000
     1.0000   1.0000   1.0000   1.0000   1.0000   1.0000   1.0000   1.0000
     1.0000   1.0000   1.0000   1.0000   1.0000   1.0000   1.0000   1.0000
     1.0000   1.0000   1.0000   1.0000   1.0000   1.0000   1.0000   1.0000
     1.0000   1.0000   1.0000   1.0000   1.0000   1.0000   1.0000   1.0000
     1.0000   1.0000   1.0000   1.0000   1.0000   1.0000   1.0000   1.0000
     1.0000   1.0000   1.0000   1.0000   1.0000   1.0000   1.0000   1.0000
     1.0000   1.0000   1.0000   1.0000   1.0000   1.0000   1.0000   1.0000
     1.0000   1.0000   1.0000   1.0000   1.0000   1.0000  -0.0000  -0.0000
    -0.0000  -0.0000  -0.0000  -0.0000  -0.0000  -0.0000  -0.0000  -0.0000
    -0.0000  -0.0000  -0.0000  -0.0000  -0.0000  -0.0000  -0.0000  -0.0000
    -0.0000  -0.0000  -0.0000  -0.0000  -0.0000  -0.0000  -0.0000  -0.0000
    -0.0000  -0.0000  -0.0000  -0.0000  -0.0000  -0.0000  -0.0000  -0.0000
    -0.0000  -0.0000  -0.0000  -0.0000  -0.0000  -0.0000  -0.0000  -0.0000
    -0.0000  -0.0000  -0.0000  -0.0000

          k =-0.3345 1.1592-0.7108 ( 11906 PWs)   bands (ev):

   -28.7941 -28.7941 -28.7936 -28.7936 -28.7903 -28.7903 -28.7901 -28.7901
   -28.5548 -28.5548 -28.5257 -28.5257 -27.3294 -27.3294 -27.3289 -27.3289
   -27.3274 -27.3274 -27.3267 -27.3267 -27.3237 -27.3237 -27.3237 -27.3237
   -27.0915 -27.0915 -27.0799 -27.0799 -27.0536 -27.0536 -15.8346 -15.8346
   -15.8345 -15.8345 -15.8276 -15.8276 -15.8274 -15.8274 -12.8563 -12.8563
   -12.8556 -12.8556 -12.8464 -12.8464 -12.8458 -12.8458 -12.8375 -12.8375
   -12.8361 -12.8361  -2.5515  -2.5515  -2.5352  -2.5352  -2.0607  -2.0607
    -1.4991  -1.4991  -0.8836  -0.8836   3.9006   3.9006   4.7604   4.7604
     4.9228   4.9228   5.7696   5.7696   5.8929   5.8929   6.6247   6.6247
     7.0208   7.0208   7.6671   7.6671   7.7413   7.7413   9.4934   9.4934
    10.2533  10.2533  10.6794  10.6794  10.9175  10.9175  11.9158  11.9158
    12.3693  12.3693  13.3168  13.3168  14.0617  14.0617  15.4898  15.4898
    17.1186  17.1186  17.2061  17.2061  17.7718  17.7718  17.8240  17.8240
    18.2283  18.2283  18.3838  18.3838  19.0793  19.0793  19.1324  19.1324
    19.3130  19.3130  19.6213  19.6213  19.8226  19.8226  19.9937  19.9937
    20.3539  20.3540  20.8052  20.8052

     occupation numbers 
     1.0000   1.0000   1.0000   1.0000   1.0000   1.0000   1.0000   1.0000
     1.0000   1.0000   1.0000   1.0000   1.0000   1.0000   1.0000   1.0000
     1.0000   1.0000   1.0000   1.0000   1.0000   1.0000   1.0000   1.0000
     1.0000   1.0000   1.0000   1.0000   1.0000   1.0000   1.0000   1.0000
     1.0000   1.0000   1.0000   1.0000   1.0000   1.0000   1.0000   1.0000
     1.0000   1.0000   1.0000   1.0000   1.0000   1.0000   1.0000   1.0000
     1.0000   1.0000   1.0000   1.0000   1.0000   1.0000   1.0000   1.0000
     1.0000   1.0000   1.0000   1.0000   1.0000   1.0000   1.0000   1.0000
     1.0000   1.0000   1.0000   1.0000   1.0000   1.0000   1.0000   1.0000
     1.0000   1.0000   1.0000   1.0000   1.0000   1.0000  -0.0000  -0.0000
    -0.0000  -0.0000  -0.0000  -0.0000  -0.0000  -0.0000  -0.0000  -0.0000
    -0.0000  -0.0000  -0.0000  -0.0000  -0.0000  -0.0000  -0.0000  -0.0000
    -0.0000  -0.0000  -0.0000  -0.0000  -0.0000  -0.0000  -0.0000  -0.0000
    -0.0000  -0.0000  -0.0000  -0.0000  -0.0000  -0.0000  -0.0000  -0.0000
    -0.0000  -0.0000  -0.0000  -0.0000  -0.0000  -0.0000  -0.0000  -0.0000
    -0.0000  -0.0000  -0.0000  -0.0000

          k =-0.3350 1.1591-0.2440 ( 11915 PWs)   bands (ev):

   -28.7941 -28.7941 -28.7936 -28.7936 -28.7903 -28.7903 -28.7901 -28.7901
   -28.5548 -28.5548 -28.5257 -28.5257 -27.3295 -27.3295 -27.3288 -27.3288
   -27.3275 -27.3275 -27.3266 -27.3266 -27.3238 -27.3238 -27.3237 -27.3237
   -27.0915 -27.0915 -27.0799 -27.0799 -27.0536 -27.0536 -15.8350 -15.8350
   -15.8339 -15.8339 -15.8278 -15.8278 -15.8273 -15.8273 -12.8553 -12.8553
   -12.8536 -12.8535 -12.8474 -12.8474 -12.8466 -12.8466 -12.8379 -12.8379
   -12.8370 -12.8370  -2.7643  -2.7643  -2.4370  -2.4370  -1.8783  -1.8783
    -1.3996  -1.3996  -1.0322  -1.0322   3.9578   3.9578   4.7870   4.7870
     5.0429   5.0429   5.5101   5.5101   5.8489   5.8489   6.0819   6.0819
     6.9446   6.9446   7.8661   7.8661   7.9943   7.9943   9.6500   9.6500
    10.0218  10.0218  11.1305  11.1305  11.6969  11.6969  12.3545  12.3545
    12.6556  12.6556  12.8228  12.8228  14.6435  14.6435  14.7853  14.7853
    15.6865  15.6865  16.1409  16.1409  16.8825  16.8825  17.7748  17.7748
    17.8375  17.8375  18.0599  18.0599  18.5921  18.5921  19.3198  19.3198
    19.3735  19.3735  19.8652  19.8652  20.4272  20.4272  20.6799  20.6799
    20.9284  20.9284  21.1373  21.1373

     occupation numbers 
     1.0000   1.0000   1.0000   1.0000   1.0000   1.0000   1.0000   1.0000
     1.0000   1.0000   1.0000   1.0000   1.0000   1.0000   1.0000   1.0000
     1.0000   1.0000   1.0000   1.0000   1.0000   1.0000   1.0000   1.0000
     1.0000   1.0000   1.0000   1.0000   1.0000   1.0000   1.0000   1.0000
     1.0000   1.0000   1.0000   1.0000   1.0000   1.0000   1.0000   1.0000
     1.0000   1.0000   1.0000   1.0000   1.0000   1.0000   1.0000   1.0000
     1.0000   1.0000   1.0000   1.0000   1.0000   1.0000   1.0000   1.0000
     1.0000   1.0000   1.0000   1.0000   1.0000   1.0000   1.0000   1.0000
     1.0000   1.0000   1.0000   1.0000   1.0000   1.0000   1.0000   1.0000
     1.0000   1.0000   1.0000   1.0000   1.0000   1.0000  -0.0000  -0.0000
    -0.0000  -0.0000  -0.0000  -0.0000  -0.0000  -0.0000  -0.0000  -0.0000
    -0.0000  -0.0000  -0.0000  -0.0000  -0.0000  -0.0000  -0.0000  -0.0000
    -0.0000  -0.0000  -0.0000  -0.0000  -0.0000  -0.0000  -0.0000  -0.0000
    -0.0000  -0.0000  -0.0000  -0.0000  -0.0000  -0.0000  -0.0000  -0.0000
    -0.0000  -0.0000  -0.0000  -0.0000  -0.0000  -0.0000  -0.0000  -0.0000
    -0.0000  -0.0000  -0.0000  -0.0000

          k =-0.3359 1.5692 0.0000 ( 11913 PWs)   bands (ev):

   -28.7939 -28.7939 -28.7938 -28.7938 -28.7901 -28.7901 -28.7901 -28.7901
   -28.5548 -28.5548 -28.5257 -28.5257 -27.3296 -27.3296 -27.3286 -27.3286
   -27.3275 -27.3275 -27.3266 -27.3266 -27.3238 -27.3238 -27.3236 -27.3236
   -27.0915 -27.0915 -27.0799 -27.0799 -27.0535 -27.0535 -15.8349 -15.8349
   -15.8332 -15.8332 -15.8281 -15.8281 -15.8273 -15.8273 -12.8534 -12.8534
   -12.8515 -12.8515 -12.8495 -12.8495 -12.8477 -12.8477 -12.8375 -12.8374
   -12.8374 -12.8374  -1.9560  -1.9560  -1.9407  -1.9407  -1.9110  -1.9110
    -1.8819  -1.8819  -1.7752  -1.7752   4.0996   4.0996   4.5031   4.5031
     4.7183   4.7183   5.0173   5.0173   5.6106   5.6106   6.1857   6.1857
     7.1265   7.1265   7.4481   7.4481   8.0443   8.0443   9.5607   9.5607
    10.6107  10.6107  11.0135  11.0135  12.1466  12.1466  12.4156  12.4156
    12.9254  12.9254  14.2693  14.2693  14.7646  14.7646  14.7997  14.7997
    15.1534  15.1534  15.3545  15.3545  16.6408  16.6408  16.9233  16.9233
    18.1155  18.1155  18.1750  18.1750  18.5330  18.5330  18.8437  18.8437
    19.2122  19.2122  19.9904  19.9904  20.5056  20.5056  20.8596  20.8597
    20.9054  20.9054  22.0802  22.0802

     occupation numbers 
     1.0000   1.0000   1.0000   1.0000   1.0000   1.0000   1.0000   1.0000
     1.0000   1.0000   1.0000   1.0000   1.0000   1.0000   1.0000   1.0000
     1.0000   1.0000   1.0000   1.0000   1.0000   1.0000   1.0000   1.0000
     1.0000   1.0000   1.0000   1.0000   1.0000   1.0000   1.0000   1.0000
     1.0000   1.0000   1.0000   1.0000   1.0000   1.0000   1.0000   1.0000
     1.0000   1.0000   1.0000   1.0000   1.0000   1.0000   1.0000   1.0000
     1.0000   1.0000   1.0000   1.0000   1.0000   1.0000   1.0000   1.0000
     1.0000   1.0000   1.0000   1.0000   1.0000   1.0000   1.0000   1.0000
     1.0000   1.0000   1.0000   1.0000   1.0000   1.0000   1.0000   1.0000
     1.0000   1.0000   1.0000   1.0000   1.0000   1.0000  -0.0000  -0.0000
    -0.0000  -0.0000  -0.0000  -0.0000  -0.0000  -0.0000  -0.0000  -0.0000
    -0.0000  -0.0000  -0.0000  -0.0000  -0.0000  -0.0000  -0.0000  -0.0000
    -0.0000  -0.0000  -0.0000  -0.0000  -0.0000  -0.0000  -0.0000  -0.0000
    -0.0000  -0.0000  -0.0000  -0.0000  -0.0000  -0.0000  -0.0000  -0.0000
    -0.0000  -0.0000  -0.0000  -0.0000  -0.0000  -0.0000  -0.0000  -0.0000
    -0.0000  -0.0000  -0.0000  -0.0000

          k =-0.3364 1.5691 0.4668 ( 11918 PWs)   bands (ev):

   -28.7941 -28.7941 -28.7936 -28.7936 -28.7903 -28.7903 -28.7901 -28.7901
   -28.5548 -28.5548 -28.5257 -28.5257 -27.3295 -27.3295 -27.3288 -27.3288
   -27.3275 -27.3275 -27.3266 -27.3266 -27.3238 -27.3238 -27.3237 -27.3237
   -27.0915 -27.0915 -27.0799 -27.0799 -27.0536 -27.0536 -15.8350 -15.8350
   -15.8339 -15.8339 -15.8278 -15.8278 -15.8273 -15.8273 -12.8553 -12.8553
   -12.8536 -12.8535 -12.8474 -12.8474 -12.8466 -12.8466 -12.8379 -12.8379
   -12.8370 -12.8370  -2.6908  -2.6908  -2.5576  -2.5576  -1.8328  -1.8328
    -1.3486  -1.3486  -1.0818  -1.0818   4.1779   4.1779   4.6719   4.6719
     4.8396   4.8396   5.0870   5.0870   6.0372   6.0372   6.5574   6.5574
     7.2968   7.2968   7.5101   7.5101   7.8450   7.8450   9.6841   9.6841
    10.3260  10.3260  10.6886  10.6886  11.5674  11.5674  12.1590  12.1590
    12.9183  12.9183  13.2538  13.2538  13.7364  13.7364  14.8310  14.8310
    16.2055  16.2055  16.8654  16.8654  17.1129  17.1129  17.7852  17.7852
    17.9819  17.9819  18.2055  18.2055  18.6554  18.6554  18.7993  18.7993
    19.3075  19.3075  19.6576  19.6576  19.8438  19.8438  19.9980  19.9980
    20.3874  20.3874  21.0900  21.0901

     occupation numbers 
     1.0000   1.0000   1.0000   1.0000   1.0000   1.0000   1.0000   1.0000
     1.0000   1.0000   1.0000   1.0000   1.0000   1.0000   1.0000   1.0000
     1.0000   1.0000   1.0000   1.0000   1.0000   1.0000   1.0000   1.0000
     1.0000   1.0000   1.0000   1.0000   1.0000   1.0000   1.0000   1.0000
     1.0000   1.0000   1.0000   1.0000   1.0000   1.0000   1.0000   1.0000
     1.0000   1.0000   1.0000   1.0000   1.0000   1.0000   1.0000   1.0000
     1.0000   1.0000   1.0000   1.0000   1.0000   1.0000   1.0000   1.0000
     1.0000   1.0000   1.0000   1.0000   1.0000   1.0000   1.0000   1.0000
     1.0000   1.0000   1.0000   1.0000   1.0000   1.0000   1.0000   1.0000
     1.0000   1.0000   1.0000   1.0000   1.0000   1.0000  -0.0000  -0.0000
    -0.0000  -0.0000  -0.0000  -0.0000  -0.0000  -0.0000  -0.0000  -0.0000
    -0.0000  -0.0000  -0.0000  -0.0000  -0.0000  -0.0000  -0.0000  -0.0000
    -0.0000  -0.0000  -0.0000  -0.0000  -0.0000  -0.0000  -0.0000  -0.0000
    -0.0000  -0.0000  -0.0000  -0.0000  -0.0000  -0.0000  -0.0000  -0.0000
    -0.0000  -0.0000  -0.0000  -0.0000  -0.0000  -0.0000  -0.0000  -0.0000
    -0.0000  -0.0000  -0.0000  -0.0000

          k =-0.3368 1.5690 0.9336 ( 11918 PWs)   bands (ev):

   -28.7943 -28.7943 -28.7935 -28.7935 -28.7904 -28.7904 -28.7901 -28.7901
   -28.5549 -28.5549 -28.5258 -28.5258 -27.3294 -27.3294 -27.3290 -27.3290
   -27.3276 -27.3276 -27.3265 -27.3265 -27.3240 -27.3240 -27.3238 -27.3238
   -27.0915 -27.0915 -27.0799 -27.0799 -27.0537 -27.0537 -15.8351 -15.8351
   -15.8349 -15.8349 -15.8276 -15.8276 -15.8272 -15.8272 -12.8557 -12.8557
   -12.8546 -12.8546 -12.8465 -12.8465 -12.8461 -12.8461 -12.8387 -12.8386
   -12.8374 -12.8374  -3.2536  -3.2536  -3.0480  -3.0480  -1.7956  -1.7956
    -1.0357  -1.0357  -0.4623  -0.4623   4.3424   4.3424   4.8780   4.8780
     5.3953   5.3953   5.8066   5.8066   6.1628   6.1628   6.6148   6.6148
     7.4145   7.4145   7.9653   7.9653   8.1427   8.1427   9.1505   9.1505
    10.1090  10.1090  10.4886  10.4886  10.9842  10.9842  12.1126  12.1126
    12.5992  12.5992  13.0176  13.0176  13.7629  13.7629  15.3318  15.3318
    15.8379  15.8379  16.4607  16.4607  16.5553  16.5553  16.6158  16.6158
    17.2116  17.2116  17.5287  17.5287  18.5448  18.5448  18.7812  18.7812
    19.1344  19.1344  19.5113  19.5113  19.7993  19.7993  19.8679  19.8679
    20.3443  20.3443  20.9901  20.9907

     occupation numbers 
     1.0000   1.0000   1.0000   1.0000   1.0000   1.0000   1.0000   1.0000
     1.0000   1.0000   1.0000   1.0000   1.0000   1.0000   1.0000   1.0000
     1.0000   1.0000   1.0000   1.0000   1.0000   1.0000   1.0000   1.0000
     1.0000   1.0000   1.0000   1.0000   1.0000   1.0000   1.0000   1.0000
     1.0000   1.0000   1.0000   1.0000   1.0000   1.0000   1.0000   1.0000
     1.0000   1.0000   1.0000   1.0000   1.0000   1.0000   1.0000   1.0000
     1.0000   1.0000   1.0000   1.0000   1.0000   1.0000   1.0000   1.0000
     1.0000   1.0000   1.0000   1.0000   1.0000   1.0000   1.0000   1.0000
     1.0000   1.0000   1.0000   1.0000   1.0000   1.0000   1.0000   1.0000
     1.0000   1.0000   1.0000   1.0000   1.0000   1.0000  -0.0000  -0.0000
    -0.0000  -0.0000  -0.0000  -0.0000  -0.0000  -0.0000  -0.0000  -0.0000
    -0.0000  -0.0000  -0.0000  -0.0000  -0.0000  -0.0000  -0.0000  -0.0000
    -0.0000  -0.0000  -0.0000  -0.0000  -0.0000  -0.0000  -0.0000  -0.0000
    -0.0000  -0.0000  -0.0000  -0.0000  -0.0000  -0.0000  -0.0000  -0.0000
    -0.0000  -0.0000  -0.0000  -0.0000  -0.0000  -0.0000  -0.0000  -0.0000
    -0.0000  -0.0000  -0.0000  -0.0000

          k =-0.3345 1.5695-1.4003 ( 11900 PWs)   bands (ev):

   -28.7944 -28.7944 -28.7934 -28.7934 -28.7905 -28.7905 -28.7901 -28.7901
   -28.5549 -28.5549 -28.5258 -28.5258 -27.3295 -27.3295 -27.3290 -27.3290
   -27.3277 -27.3277 -27.3264 -27.3264 -27.3241 -27.3241 -27.3238 -27.3238
   -27.0916 -27.0916 -27.0798 -27.0798 -27.0538 -27.0538 -15.8355 -15.8355
   -15.8349 -15.8349 -15.8277 -15.8277 -15.8271 -15.8271 -12.8555 -12.8554
   -12.8538 -12.8538 -12.8467 -12.8467 -12.8463 -12.8462 -12.8393 -12.8393
   -12.8383 -12.8383  -3.4543  -3.4543  -3.2279  -3.2279  -1.7899  -1.7899
    -0.9420  -0.9420  -0.2059  -0.2059   4.5761   4.5761   4.9524   4.9524
     5.4221   5.4221   6.1256   6.1256   6.3251   6.3251   7.1132   7.1132
     7.3078   7.3078   7.6138   7.6138   7.7431   7.7431   9.9180   9.9181
     9.9974   9.9974  11.0075  11.0075  11.3128  11.3128  11.7286  11.7286
    12.1369  12.1369  13.5039  13.5039  13.6080  13.6080  13.8653  13.8653
    14.5577  14.5577  16.5241  16.5241  16.8562  16.8562  17.2523  17.2523
    17.4904  17.4904  17.7340  17.7341  18.0591  18.0591  18.4152  18.4152
    18.5487  18.5487  18.6196  18.6196  19.0485  19.0485  19.3974  19.3974
    19.8931  19.8931  20.2545  20.2545

     occupation numbers 
     1.0000   1.0000   1.0000   1.0000   1.0000   1.0000   1.0000   1.0000
     1.0000   1.0000   1.0000   1.0000   1.0000   1.0000   1.0000   1.0000
     1.0000   1.0000   1.0000   1.0000   1.0000   1.0000   1.0000   1.0000
     1.0000   1.0000   1.0000   1.0000   1.0000   1.0000   1.0000   1.0000
     1.0000   1.0000   1.0000   1.0000   1.0000   1.0000   1.0000   1.0000
     1.0000   1.0000   1.0000   1.0000   1.0000   1.0000   1.0000   1.0000
     1.0000   1.0000   1.0000   1.0000   1.0000   1.0000   1.0000   1.0000
     1.0000   1.0000   1.0000   1.0000   1.0000   1.0000   1.0000   1.0000
     1.0000   1.0000   1.0000   1.0000   1.0000   1.0000   1.0000   1.0000
     1.0000   1.0000   1.0000   1.0000   1.0000   1.0000  -0.0000  -0.0000
    -0.0000  -0.0000  -0.0000  -0.0000  -0.0000  -0.0000  -0.0000  -0.0000
    -0.0000  -0.0000  -0.0000  -0.0000  -0.0000  -0.0000  -0.0000  -0.0000
    -0.0000  -0.0000  -0.0000  -0.0000  -0.0000  -0.0000  -0.0000  -0.0000
    -0.0000  -0.0000  -0.0000  -0.0000  -0.0000  -0.0000  -0.0000  -0.0000
    -0.0000  -0.0000  -0.0000  -0.0000  -0.0000  -0.0000  -0.0000  -0.0000
    -0.0000  -0.0000  -0.0000  -0.0000

          k =-0.3350 1.5694-0.9336 ( 11918 PWs)   bands (ev):

   -28.7943 -28.7943 -28.7935 -28.7935 -28.7904 -28.7904 -28.7901 -28.7901
   -28.5549 -28.5549 -28.5258 -28.5258 -27.3294 -27.3294 -27.3290 -27.3290
   -27.3276 -27.3276 -27.3265 -27.3265 -27.3240 -27.3240 -27.3238 -27.3238
   -27.0915 -27.0915 -27.0799 -27.0799 -27.0537 -27.0537 -15.8351 -15.8351
   -15.8349 -15.8349 -15.8276 -15.8276 -15.8272 -15.8272 -12.8557 -12.8557
   -12.8546 -12.8546 -12.8465 -12.8465 -12.8461 -12.8461 -12.8387 -12.8386
   -12.8374 -12.8374  -3.2536  -3.2536  -3.0480  -3.0480  -1.7956  -1.7956
    -1.0357  -1.0357  -0.4623  -0.4623   4.3424   4.3424   4.8780   4.8780
     5.3953   5.3953   5.8066   5.8066   6.1628   6.1628   6.6148   6.6148
     7.4145   7.4145   7.9653   7.9653   8.1427   8.1427   9.1505   9.1505
    10.1090  10.1090  10.4886  10.4886  10.9842  10.9842  12.1126  12.1126
    12.5992  12.5992  13.0176  13.0176  13.7629  13.7629  15.3318  15.3318
    15.8379  15.8379  16.4607  16.4607  16.5553  16.5553  16.6158  16.6158
    17.2116  17.2116  17.5288  17.5288  18.5447  18.5447  18.7812  18.7812
    19.1344  19.1344  19.5113  19.5113  19.7993  19.7993  19.8679  19.8679
    20.3443  20.3443  20.9902  20.9904

     occupation numbers 
     1.0000   1.0000   1.0000   1.0000   1.0000   1.0000   1.0000   1.0000
     1.0000   1.0000   1.0000   1.0000   1.0000   1.0000   1.0000   1.0000
     1.0000   1.0000   1.0000   1.0000   1.0000   1.0000   1.0000   1.0000
     1.0000   1.0000   1.0000   1.0000   1.0000   1.0000   1.0000   1.0000
     1.0000   1.0000   1.0000   1.0000   1.0000   1.0000   1.0000   1.0000
     1.0000   1.0000   1.0000   1.0000   1.0000   1.0000   1.0000   1.0000
     1.0000   1.0000   1.0000   1.0000   1.0000   1.0000   1.0000   1.0000
     1.0000   1.0000   1.0000   1.0000   1.0000   1.0000   1.0000   1.0000
     1.0000   1.0000   1.0000   1.0000   1.0000   1.0000   1.0000   1.0000
     1.0000   1.0000   1.0000   1.0000   1.0000   1.0000  -0.0000  -0.0000
    -0.0000  -0.0000  -0.0000  -0.0000  -0.0000  -0.0000  -0.0000  -0.0000
    -0.0000  -0.0000  -0.0000  -0.0000  -0.0000  -0.0000  -0.0000  -0.0000
    -0.0000  -0.0000  -0.0000  -0.0000  -0.0000  -0.0000  -0.0000  -0.0000
    -0.0000  -0.0000  -0.0000  -0.0000  -0.0000  -0.0000  -0.0000  -0.0000
    -0.0000  -0.0000  -0.0000  -0.0000  -0.0000  -0.0000  -0.0000  -0.0000
    -0.0000  -0.0000  -0.0000  -0.0000

          k =-0.3354 1.5693-0.4668 ( 11918 PWs)   bands (ev):

   -28.7941 -28.7941 -28.7936 -28.7936 -28.7903 -28.7903 -28.7901 -28.7901
   -28.5548 -28.5548 -28.5257 -28.5257 -27.3295 -27.3295 -27.3288 -27.3288
   -27.3275 -27.3275 -27.3266 -27.3266 -27.3238 -27.3238 -27.3237 -27.3237
   -27.0915 -27.0915 -27.0799 -27.0799 -27.0536 -27.0536 -15.8350 -15.8350
   -15.8339 -15.8339 -15.8278 -15.8278 -15.8273 -15.8273 -12.8553 -12.8553
   -12.8536 -12.8535 -12.8474 -12.8474 -12.8466 -12.8466 -12.8379 -12.8379
   -12.8370 -12.8370  -2.6908  -2.6908  -2.5576  -2.5576  -1.8328  -1.8328
    -1.3486  -1.3486  -1.0818  -1.0818   4.1779   4.1779   4.6719   4.6719
     4.8396   4.8396   5.0870   5.0870   6.0372   6.0372   6.5574   6.5574
     7.2968   7.2968   7.5101   7.5101   7.8450   7.8450   9.6841   9.6841
    10.3260  10.3260  10.6886  10.6886  11.5674  11.5674  12.1590  12.1590
    12.9183  12.9183  13.2538  13.2538  13.7364  13.7364  14.8310  14.8310
    16.2055  16.2055  16.8654  16.8654  17.1129  17.1129  17.7852  17.7852
    17.9819  17.9819  18.2055  18.2055  18.6554  18.6554  18.7993  18.7993
    19.3075  19.3075  19.6576  19.6576  19.8438  19.8438  19.9980  19.9980
    20.3874  20.3874  21.0897  21.0897

     occupation numbers 
     1.0000   1.0000   1.0000   1.0000   1.0000   1.0000   1.0000   1.0000
     1.0000   1.0000   1.0000   1.0000   1.0000   1.0000   1.0000   1.0000
     1.0000   1.0000   1.0000   1.0000   1.0000   1.0000   1.0000   1.0000
     1.0000   1.0000   1.0000   1.0000   1.0000   1.0000   1.0000   1.0000
     1.0000   1.0000   1.0000   1.0000   1.0000   1.0000   1.0000   1.0000
     1.0000   1.0000   1.0000   1.0000   1.0000   1.0000   1.0000   1.0000
     1.0000   1.0000   1.0000   1.0000   1.0000   1.0000   1.0000   1.0000
     1.0000   1.0000   1.0000   1.0000   1.0000   1.0000   1.0000   1.0000
     1.0000   1.0000   1.0000   1.0000   1.0000   1.0000   1.0000   1.0000
     1.0000   1.0000   1.0000   1.0000   1.0000   1.0000  -0.0000  -0.0000
    -0.0000  -0.0000  -0.0000  -0.0000  -0.0000  -0.0000  -0.0000  -0.0000
    -0.0000  -0.0000  -0.0000  -0.0000  -0.0000  -0.0000  -0.0000  -0.0000
    -0.0000  -0.0000  -0.0000  -0.0000  -0.0000  -0.0000  -0.0000  -0.0000
    -0.0000  -0.0000  -0.0000  -0.0000  -0.0000  -0.0000  -0.0000  -0.0000
    -0.0000  -0.0000  -0.0000  -0.0000  -0.0000  -0.0000  -0.0000  -0.0000
    -0.0000  -0.0000  -0.0000  -0.0000

          k =-0.3336-0.4817 1.1139 ( 11912 PWs)   bands (ev):

   -28.7941 -28.7941 -28.7936 -28.7936 -28.7903 -28.7903 -28.7901 -28.7901
   -28.5548 -28.5548 -28.5257 -28.5257 -27.3295 -27.3295 -27.3288 -27.3288
   -27.3275 -27.3275 -27.3266 -27.3266 -27.3238 -27.3238 -27.3237 -27.3237
   -27.0915 -27.0915 -27.0799 -27.0799 -27.0536 -27.0536 -15.8350 -15.8350
   -15.8339 -15.8339 -15.8278 -15.8278 -15.8273 -15.8273 -12.8553 -12.8553
   -12.8536 -12.8535 -12.8474 -12.8474 -12.8466 -12.8466 -12.8378 -12.8378
   -12.8370 -12.8370  -2.7472  -2.7472  -2.4602  -2.4602  -1.9000  -1.9000
    -1.3341  -1.3341  -1.0700  -1.0700   4.0687   4.0687   4.8250   4.8250
     4.9753   4.9753   5.2862   5.2862   5.6896   5.6897   6.0365   6.0365
     7.3851   7.3851   8.0374   8.0374   8.1984   8.1984   9.3408   9.3408
     9.8541   9.8541  10.6260  10.6260  11.7991  11.7991  12.4753  12.4753
    12.8251  12.8251  13.0277  13.0277  14.6071  14.6071  15.1859  15.1859
    15.4426  15.4426  15.8227  15.8227  16.8108  16.8108  17.8186  17.8186
    17.9188  17.9188  18.1994  18.1994  18.8971  18.8971  19.3413  19.3413
    19.3879  19.3879  19.8042  19.8042  20.1510  20.1510  20.6683  20.6683
    20.7744  20.7744  21.1398  21.1399

     occupation numbers 
     1.0000   1.0000   1.0000   1.0000   1.0000   1.0000   1.0000   1.0000
     1.0000   1.0000   1.0000   1.0000   1.0000   1.0000   1.0000   1.0000
     1.0000   1.0000   1.0000   1.0000   1.0000   1.0000   1.0000   1.0000
     1.0000   1.0000   1.0000   1.0000   1.0000   1.0000   1.0000   1.0000
     1.0000   1.0000   1.0000   1.0000   1.0000   1.0000   1.0000   1.0000
     1.0000   1.0000   1.0000   1.0000   1.0000   1.0000   1.0000   1.0000
     1.0000   1.0000   1.0000   1.0000   1.0000   1.0000   1.0000   1.0000
     1.0000   1.0000   1.0000   1.0000   1.0000   1.0000   1.0000   1.0000
     1.0000   1.0000   1.0000   1.0000   1.0000   1.0000   1.0000   1.0000
     1.0000   1.0000   1.0000   1.0000   1.0001   1.0001  -0.0000  -0.0000
    -0.0000  -0.0000  -0.0000  -0.0000  -0.0000  -0.0000  -0.0000  -0.0000
    -0.0000  -0.0000  -0.0000  -0.0000  -0.0000  -0.0000  -0.0000  -0.0000
    -0.0000  -0.0000  -0.0000  -0.0000  -0.0000  -0.0000  -0.0000  -0.0000
    -0.0000  -0.0000  -0.0000  -0.0000  -0.0000  -0.0000  -0.0000  -0.0000
    -0.0000  -0.0000  -0.0000  -0.0000  -0.0000  -0.0000  -0.0000  -0.0000
    -0.0000  -0.0000  -0.0000  -0.0000

          k =-0.3341-0.4818 1.5807 ( 11915 PWs)   bands (ev):

   -28.7941 -28.7941 -28.7936 -28.7936 -28.7903 -28.7903 -28.7901 -28.7901
   -28.5548 -28.5548 -28.5257 -28.5257 -27.3295 -27.3295 -27.3288 -27.3288
   -27.3275 -27.3275 -27.3266 -27.3266 -27.3238 -27.3238 -27.3237 -27.3237
   -27.0915 -27.0915 -27.0799 -27.0799 -27.0536 -27.0536 -15.8350 -15.8350
   -15.8339 -15.8339 -15.8278 -15.8278 -15.8273 -15.8273 -12.8553 -12.8553
   -12.8536 -12.8535 -12.8474 -12.8474 -12.8466 -12.8466 -12.8378 -12.8378
   -12.8370 -12.8370  -2.7117  -2.7117  -2.5203  -2.5203  -1.8763  -1.8763
    -1.3000  -1.3000  -1.1032  -1.1032   4.2156   4.2156   4.7078   4.7078
     4.8313   4.8313   5.1531   5.1531   5.7735   5.7735   6.2437   6.2437
     7.6044   7.6044   7.8637   7.8637   8.0938   8.0938   9.3481   9.3481
    10.0177  10.0177  10.4394  10.4394  11.7562  11.7562  12.3719  12.3719
    12.8348  12.8348  13.2832  13.2832  14.1745  14.1745  14.9967  14.9967
    15.8459  15.8459  16.2108  16.2108  16.9283  16.9283  17.8334  17.8334
    17.9915  17.9915  18.2871  18.2871  18.8459  18.8459  19.0331  19.0331
    19.4103  19.4103  19.8501  19.8501  19.9763  19.9763  20.3854  20.3854
    20.6451  20.6451  20.9447  20.9448

     occupation numbers 
     1.0000   1.0000   1.0000   1.0000   1.0000   1.0000   1.0000   1.0000
     1.0000   1.0000   1.0000   1.0000   1.0000   1.0000   1.0000   1.0000
     1.0000   1.0000   1.0000   1.0000   1.0000   1.0000   1.0000   1.0000
     1.0000   1.0000   1.0000   1.0000   1.0000   1.0000   1.0000   1.0000
     1.0000   1.0000   1.0000   1.0000   1.0000   1.0000   1.0000   1.0000
     1.0000   1.0000   1.0000   1.0000   1.0000   1.0000   1.0000   1.0000
     1.0000   1.0000   1.0000   1.0000   1.0000   1.0000   1.0000   1.0000
     1.0000   1.0000   1.0000   1.0000   1.0000   1.0000   1.0000   1.0000
     1.0000   1.0000   1.0000   1.0000   1.0000   1.0000   1.0000   1.0000
     1.0000   1.0000   1.0000   1.0000   1.0000   1.0000  -0.0000  -0.0000
    -0.0000  -0.0000  -0.0000  -0.0000  -0.0000  -0.0000  -0.0000  -0.0000
    -0.0000  -0.0000  -0.0000  -0.0000  -0.0000  -0.0000  -0.0000  -0.0000
    -0.0000  -0.0000  -0.0000  -0.0000  -0.0000  -0.0000  -0.0000  -0.0000
    -0.0000  -0.0000  -0.0000  -0.0000  -0.0000  -0.0000  -0.0000  -0.0000
    -0.0000  -0.0000  -0.0000  -0.0000  -0.0000  -0.0000  -0.0000  -0.0000
    -0.0000  -0.0000  -0.0000  -0.0000

          k =-0.3345-0.4819 2.0475 ( 11900 PWs)   bands (ev):

   -28.7944 -28.7944 -28.7934 -28.7934 -28.7905 -28.7905 -28.7901 -28.7901
   -28.5549 -28.5549 -28.5258 -28.5258 -27.3295 -27.3295 -27.3290 -27.3290
   -27.3277 -27.3277 -27.3264 -27.3264 -27.3241 -27.3241 -27.3238 -27.3238
   -27.0916 -27.0916 -27.0798 -27.0798 -27.0538 -27.0538 -15.8355 -15.8355
   -15.8349 -15.8349 -15.8277 -15.8277 -15.8271 -15.8271 -12.8555 -12.8554
   -12.8538 -12.8538 -12.8467 -12.8467 -12.8463 -12.8462 -12.8393 -12.8393
   -12.8383 -12.8383  -3.4543  -3.4543  -3.2279  -3.2279  -1.7899  -1.7899
    -0.9420  -0.9420  -0.2059  -0.2059   4.5761   4.5761   4.9524   4.9524
     5.4221   5.4221   6.1256   6.1256   6.3251   6.3251   7.1132   7.1132
     7.3078   7.3078   7.6138   7.6138   7.7431   7.7431   9.9180   9.9181
     9.9974   9.9974  11.0075  11.0075  11.3128  11.3128  11.7286  11.7286
    12.1369  12.1369  13.5039  13.5039  13.6080  13.6080  13.8653  13.8653
    14.5577  14.5577  16.5241  16.5241  16.8562  16.8562  17.2523  17.2523
    17.4904  17.4904  17.7340  17.7341  18.0591  18.0591  18.4152  18.4152
    18.5487  18.5487  18.6196  18.6196  19.0485  19.0485  19.3974  19.3974
    19.8931  19.8931  20.2545  20.2545

     occupation numbers 
     1.0000   1.0000   1.0000   1.0000   1.0000   1.0000   1.0000   1.0000
     1.0000   1.0000   1.0000   1.0000   1.0000   1.0000   1.0000   1.0000
     1.0000   1.0000   1.0000   1.0000   1.0000   1.0000   1.0000   1.0000
     1.0000   1.0000   1.0000   1.0000   1.0000   1.0000   1.0000   1.0000
     1.0000   1.0000   1.0000   1.0000   1.0000   1.0000   1.0000   1.0000
     1.0000   1.0000   1.0000   1.0000   1.0000   1.0000   1.0000   1.0000
     1.0000   1.0000   1.0000   1.0000   1.0000   1.0000   1.0000   1.0000
     1.0000   1.0000   1.0000   1.0000   1.0000   1.0000   1.0000   1.0000
     1.0000   1.0000   1.0000   1.0000   1.0000   1.0000   1.0000   1.0000
     1.0000   1.0000   1.0000   1.0000   1.0000   1.0000  -0.0000  -0.0000
    -0.0000  -0.0000  -0.0000  -0.0000  -0.0000  -0.0000  -0.0000  -0.0000
    -0.0000  -0.0000  -0.0000  -0.0000  -0.0000  -0.0000  -0.0000  -0.0000
    -0.0000  -0.0000  -0.0000  -0.0000  -0.0000  -0.0000  -0.0000  -0.0000
    -0.0000  -0.0000  -0.0000  -0.0000  -0.0000  -0.0000  -0.0000  -0.0000
    -0.0000  -0.0000  -0.0000  -0.0000  -0.0000  -0.0000  -0.0000  -0.0000
    -0.0000  -0.0000  -0.0000  -0.0000

          k =-0.3323-0.4814-0.2864 ( 11888 PWs)   bands (ev):

   -28.7946 -28.7946 -28.7932 -28.7932 -28.7907 -28.7907 -28.7901 -28.7901
   -28.5549 -28.5549 -28.5259 -28.5259 -27.3295 -27.3295 -27.3290 -27.3290
   -27.3280 -27.3280 -27.3263 -27.3263 -27.3243 -27.3243 -27.3240 -27.3240
   -27.0916 -27.0916 -27.0798 -27.0798 -27.0540 -27.0540 -15.8361 -15.8361
   -15.8359 -15.8359 -15.8275 -15.8275 -15.8269 -15.8269 -12.8561 -12.8561
   -12.8549 -12.8549 -12.8455 -12.8455 -12.8453 -12.8453 -12.8406 -12.8406
   -12.8394 -12.8394  -3.8914  -3.8914  -3.6202  -3.6202  -1.9524  -1.9524
    -0.7527  -0.7527   0.4596   0.4596   5.2381   5.2381   5.7210   5.7210
     6.0490   6.0490   6.6921   6.6921   6.8819   6.8819   7.1038   7.1038
     7.6509   7.6509   7.8400   7.8400   8.4679   8.4679   8.8884   8.8884
     9.9521   9.9522  10.1933  10.1933  10.9267  10.9267  11.5410  11.5410
    11.7653  11.7653  13.4784  13.4784  14.0168  14.0168  14.2829  14.2829
    14.9756  14.9756  15.1140  15.1140  15.6928  15.6928  16.0906  16.0906
    16.3973  16.3973  16.5133  16.5133  16.8712  16.8712  17.7691  17.7691
    17.7993  17.7993  18.1605  18.1605  18.4487  18.4487  19.2219  19.2219
    19.7141  19.7141  19.9135  19.9137

     occupation numbers 
     1.0000   1.0000   1.0000   1.0000   1.0000   1.0000   1.0000   1.0000
     1.0000   1.0000   1.0000   1.0000   1.0000   1.0000   1.0000   1.0000
     1.0000   1.0000   1.0000   1.0000   1.0000   1.0000   1.0000   1.0000
     1.0000   1.0000   1.0000   1.0000   1.0000   1.0000   1.0000   1.0000
     1.0000   1.0000   1.0000   1.0000   1.0000   1.0000   1.0000   1.0000
     1.0000   1.0000   1.0000   1.0000   1.0000   1.0000   1.0000   1.0000
     1.0000   1.0000   1.0000   1.0000   1.0000   1.0000   1.0000   1.0000
     1.0000   1.0000   1.0000   1.0000   1.0000   1.0000   1.0000   1.0000
     1.0000   1.0000   1.0000   1.0000   1.0000   1.0000   1.0000   1.0000
     1.0000   1.0000   1.0000   1.0000   1.0287   1.0287  -0.0067  -0.0067
    -0.0000  -0.0000  -0.0000  -0.0000  -0.0000  -0.0000  -0.0000  -0.0000
    -0.0000  -0.0000  -0.0000  -0.0000  -0.0000  -0.0000  -0.0000  -0.0000
    -0.0000  -0.0000  -0.0000  -0.0000  -0.0000  -0.0000  -0.0000  -0.0000
    -0.0000  -0.0000  -0.0000  -0.0000  -0.0000  -0.0000  -0.0000  -0.0000
    -0.0000  -0.0000  -0.0000  -0.0000  -0.0000  -0.0000  -0.0000  -0.0000
    -0.0000  -0.0000  -0.0000  -0.0000

          k =-0.3327-0.4815 0.1803 ( 11903 PWs)   bands (ev):

   -28.7946 -28.7946 -28.7932 -28.7932 -28.7907 -28.7907 -28.7901 -28.7901
   -28.5549 -28.5549 -28.5259 -28.5259 -27.3295 -27.3295 -27.3290 -27.3290
   -27.3280 -27.3280 -27.3263 -27.3263 -27.3243 -27.3243 -27.3240 -27.3240
   -27.0916 -27.0916 -27.0798 -27.0798 -27.0540 -27.0540 -15.8361 -15.8361
   -15.8359 -15.8359 -15.8275 -15.8275 -15.8269 -15.8269 -12.8561 -12.8561
   -12.8549 -12.8549 -12.8455 -12.8455 -12.8453 -12.8453 -12.8406 -12.8406
   -12.8394 -12.8394  -3.9043  -3.9043  -3.6002  -3.6002  -1.9727  -1.9727
    -0.7365  -0.7365   0.4613   0.4613   5.2419   5.2419   5.6177   5.6177
     6.1464   6.1464   6.6413   6.6413   6.8517   6.8517   7.1819   7.1819
     7.6179   7.6179   7.8944   7.8944   8.5319   8.5319   8.8236   8.8236
    10.0175  10.0175  10.2111  10.2111  10.9891  10.9891  11.3540  11.3540
    11.6771  11.6771  13.3216  13.3216  14.2443  14.2443  14.3622  14.3622
    14.7626  14.7626  15.1637  15.1637  15.6465  15.6465  16.0783  16.0783
    16.5893  16.5893  16.9813  16.9813  17.2050  17.2050  17.4750  17.4750
    17.9754  17.9754  18.0872  18.0872  18.2759  18.2759  18.6327  18.6327
    19.6792  19.6792  20.0417  20.0417

     occupation numbers 
     1.0000   1.0000   1.0000   1.0000   1.0000   1.0000   1.0000   1.0000
     1.0000   1.0000   1.0000   1.0000   1.0000   1.0000   1.0000   1.0000
     1.0000   1.0000   1.0000   1.0000   1.0000   1.0000   1.0000   1.0000
     1.0000   1.0000   1.0000   1.0000   1.0000   1.0000   1.0000   1.0000
     1.0000   1.0000   1.0000   1.0000   1.0000   1.0000   1.0000   1.0000
     1.0000   1.0000   1.0000   1.0000   1.0000   1.0000   1.0000   1.0000
     1.0000   1.0000   1.0000   1.0000   1.0000   1.0000   1.0000   1.0000
     1.0000   1.0000   1.0000   1.0000   1.0000   1.0000   1.0000   1.0000
     1.0000   1.0000   1.0000   1.0000   1.0000   1.0000   1.0000   1.0000
     1.0000   1.0000   1.0000   1.0000   0.9050   0.9050  -0.0242  -0.0242
    -0.0000  -0.0000  -0.0000  -0.0000  -0.0000  -0.0000  -0.0000  -0.0000
    -0.0000  -0.0000  -0.0000  -0.0000  -0.0000  -0.0000  -0.0000  -0.0000
    -0.0000  -0.0000  -0.0000  -0.0000  -0.0000  -0.0000  -0.0000  -0.0000
    -0.0000  -0.0000  -0.0000  -0.0000  -0.0000  -0.0000  -0.0000  -0.0000
    -0.0000  -0.0000  -0.0000  -0.0000  -0.0000  -0.0000  -0.0000  -0.0000
    -0.0000  -0.0000  -0.0000  -0.0000

          k =-0.3332-0.4816 0.6471 ( 11894 PWs)   bands (ev):

   -28.7944 -28.7944 -28.7934 -28.7934 -28.7905 -28.7905 -28.7901 -28.7901
   -28.5549 -28.5549 -28.5258 -28.5258 -27.3295 -27.3295 -27.3290 -27.3290
   -27.3277 -27.3277 -27.3264 -27.3264 -27.3241 -27.3241 -27.3238 -27.3238
   -27.0916 -27.0916 -27.0798 -27.0798 -27.0538 -27.0538 -15.8355 -15.8355
   -15.8349 -15.8349 -15.8277 -15.8277 -15.8271 -15.8271 -12.8555 -12.8554
   -12.8538 -12.8538 -12.8467 -12.8467 -12.8463 -12.8462 -12.8393 -12.8393
   -12.8383 -12.8383  -3.4912  -3.4912  -3.1692  -3.1692  -1.8558  -1.8558
    -0.8709  -0.8709  -0.2330  -0.2330   4.6095   4.6095   4.9951   4.9951
     5.3815   5.3815   5.9595   5.9595   6.4569   6.4569   6.8668   6.8668
     7.3114   7.3114   7.8102   7.8102   7.9431   7.9431   9.7519   9.7519
     9.8968   9.8968  10.8878  10.8878  11.3867  11.3867  11.8147  11.8147
    12.2711  12.2711  13.4014  13.4014  13.4267  13.4267  14.2107  14.2107
    14.7799  14.7799  16.4915  16.4915  16.7050  16.7050  16.8840  16.8840
    17.2695  17.2695  17.6380  17.6380  17.9519  17.9519  18.2796  18.2796
    18.6123  18.6123  18.7090  18.7090  18.9940  18.9940  19.7864  19.7864
    20.2255  20.2255  20.4687  20.4687

     occupation numbers 
     1.0000   1.0000   1.0000   1.0000   1.0000   1.0000   1.0000   1.0000
     1.0000   1.0000   1.0000   1.0000   1.0000   1.0000   1.0000   1.0000
     1.0000   1.0000   1.0000   1.0000   1.0000   1.0000   1.0000   1.0000
     1.0000   1.0000   1.0000   1.0000   1.0000   1.0000   1.0000   1.0000
     1.0000   1.0000   1.0000   1.0000   1.0000   1.0000   1.0000   1.0000
     1.0000   1.0000   1.0000   1.0000   1.0000   1.0000   1.0000   1.0000
     1.0000   1.0000   1.0000   1.0000   1.0000   1.0000   1.0000   1.0000
     1.0000   1.0000   1.0000   1.0000   1.0000   1.0000   1.0000   1.0000
     1.0000   1.0000   1.0000   1.0000   1.0000   1.0000   1.0000   1.0000
     1.0000   1.0000   1.0000   1.0000   1.0000   1.0000  -0.0000  -0.0000
    -0.0000  -0.0000  -0.0000  -0.0000  -0.0000  -0.0000  -0.0000  -0.0000
    -0.0000  -0.0000  -0.0000  -0.0000  -0.0000  -0.0000  -0.0000  -0.0000
    -0.0000  -0.0000  -0.0000  -0.0000  -0.0000  -0.0000  -0.0000  -0.0000
    -0.0000  -0.0000  -0.0000  -0.0000  -0.0000  -0.0000  -0.0000  -0.0000
    -0.0000  -0.0000  -0.0000  -0.0000  -0.0000  -0.0000  -0.0000  -0.0000
    -0.0000  -0.0000  -0.0000  -0.0000

          k =-0.3341-0.0715 0.8911 ( 11884 PWs)   bands (ev):

   -28.7943 -28.7943 -28.7935 -28.7935 -28.7904 -28.7904 -28.7901 -28.7901
   -28.5548 -28.5548 -28.5258 -28.5258 -27.3294 -27.3294 -27.3290 -27.3290
   -27.3276 -27.3276 -27.3265 -27.3265 -27.3240 -27.3240 -27.3238 -27.3238
   -27.0915 -27.0915 -27.0799 -27.0799 -27.0537 -27.0537 -15.8351 -15.8351
   -15.8349 -15.8349 -15.8276 -15.8276 -15.8272 -15.8272 -12.8558 -12.8557
   -12.8546 -12.8546 -12.8465 -12.8465 -12.8461 -12.8461 -12.8387 -12.8386
   -12.8374 -12.8374  -3.3312  -3.3312  -2.9049  -2.9049  -1.9626  -1.9626
    -0.8401  -0.8401  -0.5507  -0.5507   4.1016   4.1016   5.0398   5.0398
     5.6559   5.6559   5.9863   5.9863   6.2657   6.2657   6.6341   6.6341
     7.2269   7.2269   7.3956   7.3956   7.6350   7.6350   9.7567   9.7567
    10.4638  10.4638  10.8540  10.8540  11.2887  11.2887  11.8346  11.8346
    12.3035  12.3035  12.3978  12.3978  14.4034  14.4034  15.3303  15.3303
    15.4567  15.4567  16.1569  16.1569  16.2834  16.2834  16.9954  16.9954
    17.1944  17.1944  17.6858  17.6858  17.8887  17.8887  18.6867  18.6867
    18.9986  18.9986  19.2961  19.2961  19.7606  19.7606  20.8616  20.8616
    21.0250  21.0251  21.5449  21.5450

     occupation numbers 
     1.0000   1.0000   1.0000   1.0000   1.0000   1.0000   1.0000   1.0000
     1.0000   1.0000   1.0000   1.0000   1.0000   1.0000   1.0000   1.0000
     1.0000   1.0000   1.0000   1.0000   1.0000   1.0000   1.0000   1.0000
     1.0000   1.0000   1.0000   1.0000   1.0000   1.0000   1.0000   1.0000
     1.0000   1.0000   1.0000   1.0000   1.0000   1.0000   1.0000   1.0000
     1.0000   1.0000   1.0000   1.0000   1.0000   1.0000   1.0000   1.0000
     1.0000   1.0000   1.0000   1.0000   1.0000   1.0000   1.0000   1.0000
     1.0000   1.0000   1.0000   1.0000   1.0000   1.0000   1.0000   1.0000
     1.0000   1.0000   1.0000   1.0000   1.0000   1.0000   1.0000   1.0000
     1.0000   1.0000   1.0000   1.0000   1.0000   1.0000  -0.0000  -0.0000
    -0.0000  -0.0000  -0.0000  -0.0000  -0.0000  -0.0000  -0.0000  -0.0000
    -0.0000  -0.0000  -0.0000  -0.0000  -0.0000  -0.0000  -0.0000  -0.0000
    -0.0000  -0.0000  -0.0000  -0.0000  -0.0000  -0.0000  -0.0000  -0.0000
    -0.0000  -0.0000  -0.0000  -0.0000  -0.0000  -0.0000  -0.0000  -0.0000
    -0.0000  -0.0000  -0.0000  -0.0000  -0.0000  -0.0000  -0.0000  -0.0000
    -0.0000  -0.0000  -0.0000  -0.0000

          k =-0.3345-0.0716 1.3579 ( 11906 PWs)   bands (ev):

   -28.7941 -28.7941 -28.7936 -28.7936 -28.7903 -28.7903 -28.7901 -28.7901
   -28.5548 -28.5548 -28.5257 -28.5257 -27.3294 -27.3294 -27.3289 -27.3289
   -27.3274 -27.3274 -27.3267 -27.3267 -27.3237 -27.3237 -27.3237 -27.3237
   -27.0915 -27.0915 -27.0799 -27.0799 -27.0536 -27.0536 -15.8346 -15.8346
   -15.8345 -15.8345 -15.8276 -15.8276 -15.8274 -15.8274 -12.8563 -12.8563
   -12.8556 -12.8556 -12.8464 -12.8464 -12.8458 -12.8458 -12.8375 -12.8375
   -12.8361 -12.8361  -2.5515  -2.5515  -2.5352  -2.5352  -2.0607  -2.0607
    -1.4991  -1.4991  -0.8836  -0.8836   3.9006   3.9006   4.7604   4.7604
     4.9228   4.9228   5.7696   5.7696   5.8929   5.8929   6.6247   6.6247
     7.0208   7.0208   7.6671   7.6671   7.7413   7.7413   9.4934   9.4934
    10.2533  10.2533  10.6794  10.6794  10.9175  10.9175  11.9158  11.9158
    12.3693  12.3693  13.3168  13.3168  14.0617  14.0617  15.4898  15.4898
    17.1186  17.1186  17.2061  17.2061  17.7718  17.7718  17.8240  17.8240
    18.2283  18.2283  18.3838  18.3838  19.0793  19.0793  19.1324  19.1324
    19.3130  19.3130  19.6213  19.6213  19.8226  19.8226  19.9937  19.9937
    20.3539  20.3540  20.8052  20.8052

     occupation numbers 
     1.0000   1.0000   1.0000   1.0000   1.0000   1.0000   1.0000   1.0000
     1.0000   1.0000   1.0000   1.0000   1.0000   1.0000   1.0000   1.0000
     1.0000   1.0000   1.0000   1.0000   1.0000   1.0000   1.0000   1.0000
     1.0000   1.0000   1.0000   1.0000   1.0000   1.0000   1.0000   1.0000
     1.0000   1.0000   1.0000   1.0000   1.0000   1.0000   1.0000   1.0000
     1.0000   1.0000   1.0000   1.0000   1.0000   1.0000   1.0000   1.0000
     1.0000   1.0000   1.0000   1.0000   1.0000   1.0000   1.0000   1.0000
     1.0000   1.0000   1.0000   1.0000   1.0000   1.0000   1.0000   1.0000
     1.0000   1.0000   1.0000   1.0000   1.0000   1.0000   1.0000   1.0000
     1.0000   1.0000   1.0000   1.0000   1.0000   1.0000  -0.0000  -0.0000
    -0.0000  -0.0000  -0.0000  -0.0000  -0.0000  -0.0000  -0.0000  -0.0000
    -0.0000  -0.0000  -0.0000  -0.0000  -0.0000  -0.0000  -0.0000  -0.0000
    -0.0000  -0.0000  -0.0000  -0.0000  -0.0000  -0.0000  -0.0000  -0.0000
    -0.0000  -0.0000  -0.0000  -0.0000  -0.0000  -0.0000  -0.0000  -0.0000
    -0.0000  -0.0000  -0.0000  -0.0000  -0.0000  -0.0000  -0.0000  -0.0000
    -0.0000  -0.0000  -0.0000  -0.0000

          k =-0.3350-0.0717 1.8247 ( 11918 PWs)   bands (ev):

   -28.7943 -28.7943 -28.7935 -28.7935 -28.7904 -28.7904 -28.7901 -28.7901
   -28.5549 -28.5549 -28.5258 -28.5258 -27.3294 -27.3294 -27.3290 -27.3290
   -27.3276 -27.3276 -27.3265 -27.3265 -27.3240 -27.3240 -27.3238 -27.3238
   -27.0915 -27.0915 -27.0799 -27.0799 -27.0537 -27.0537 -15.8351 -15.8351
   -15.8349 -15.8349 -15.8276 -15.8276 -15.8272 -15.8272 -12.8557 -12.8557
   -12.8546 -12.8546 -12.8465 -12.8465 -12.8461 -12.8461 -12.8387 -12.8386
   -12.8374 -12.8374  -3.2536  -3.2536  -3.0480  -3.0480  -1.7956  -1.7956
    -1.0357  -1.0357  -0.4623  -0.4623   4.3424   4.3424   4.8780   4.8780
     5.3953   5.3953   5.8066   5.8066   6.1628   6.1628   6.6148   6.6148
     7.4145   7.4145   7.9653   7.9653   8.1427   8.1427   9.1505   9.1505
    10.1090  10.1090  10.4886  10.4886  10.9842  10.9842  12.1126  12.1126
    12.5992  12.5992  13.0176  13.0176  13.7629  13.7629  15.3318  15.3318
    15.8379  15.8379  16.4607  16.4607  16.5553  16.5553  16.6158  16.6158
    17.2116  17.2116  17.5288  17.5288  18.5447  18.5447  18.7812  18.7812
    19.1344  19.1344  19.5113  19.5113  19.7993  19.7993  19.8679  19.8679
    20.3443  20.3443  20.9900  20.9901

     occupation numbers 
     1.0000   1.0000   1.0000   1.0000   1.0000   1.0000   1.0000   1.0000
     1.0000   1.0000   1.0000   1.0000   1.0000   1.0000   1.0000   1.0000
     1.0000   1.0000   1.0000   1.0000   1.0000   1.0000   1.0000   1.0000
     1.0000   1.0000   1.0000   1.0000   1.0000   1.0000   1.0000   1.0000
     1.0000   1.0000   1.0000   1.0000   1.0000   1.0000   1.0000   1.0000
     1.0000   1.0000   1.0000   1.0000   1.0000   1.0000   1.0000   1.0000
     1.0000   1.0000   1.0000   1.0000   1.0000   1.0000   1.0000   1.0000
     1.0000   1.0000   1.0000   1.0000   1.0000   1.0000   1.0000   1.0000
     1.0000   1.0000   1.0000   1.0000   1.0000   1.0000   1.0000   1.0000
     1.0000   1.0000   1.0000   1.0000   1.0000   1.0000  -0.0000  -0.0000
    -0.0000  -0.0000  -0.0000  -0.0000  -0.0000  -0.0000  -0.0000  -0.0000
    -0.0000  -0.0000  -0.0000  -0.0000  -0.0000  -0.0000  -0.0000  -0.0000
    -0.0000  -0.0000  -0.0000  -0.0000  -0.0000  -0.0000  -0.0000  -0.0000
    -0.0000  -0.0000  -0.0000  -0.0000  -0.0000  -0.0000  -0.0000  -0.0000
    -0.0000  -0.0000  -0.0000  -0.0000  -0.0000  -0.0000  -0.0000  -0.0000
    -0.0000  -0.0000  -0.0000  -0.0000

          k =-0.3327-0.0712-0.5092 ( 11903 PWs)   bands (ev):

   -28.7946 -28.7946 -28.7932 -28.7932 -28.7907 -28.7907 -28.7901 -28.7901
   -28.5549 -28.5549 -28.5259 -28.5259 -27.3295 -27.3295 -27.3290 -27.3290
   -27.3280 -27.3280 -27.3263 -27.3263 -27.3243 -27.3243 -27.3240 -27.3240
   -27.0916 -27.0916 -27.0798 -27.0798 -27.0540 -27.0540 -15.8361 -15.8361
   -15.8359 -15.8359 -15.8275 -15.8275 -15.8269 -15.8269 -12.8561 -12.8561
   -12.8549 -12.8549 -12.8455 -12.8455 -12.8453 -12.8453 -12.8406 -12.8406
   -12.8394 -12.8394  -3.9043  -3.9043  -3.6002  -3.6002  -1.9727  -1.9727
    -0.7365  -0.7365   0.4613   0.4613   5.2419   5.2419   5.6177   5.6177
     6.1464   6.1464   6.6413   6.6413   6.8517   6.8517   7.1819   7.1819
     7.6179   7.6179   7.8944   7.8944   8.5319   8.5319   8.8236   8.8236
    10.0175  10.0175  10.2111  10.2111  10.9891  10.9891  11.3540  11.3540
    11.6771  11.6771  13.3216  13.3216  14.2443  14.2443  14.3622  14.3622
    14.7626  14.7626  15.1637  15.1637  15.6465  15.6465  16.0783  16.0783
    16.5893  16.5893  16.9813  16.9813  17.2050  17.2050  17.4750  17.4750
    17.9754  17.9754  18.0872  18.0872  18.2759  18.2759  18.6327  18.6327
    19.6792  19.6792  20.0417  20.0418

     occupation numbers 
     1.0000   1.0000   1.0000   1.0000   1.0000   1.0000   1.0000   1.0000
     1.0000   1.0000   1.0000   1.0000   1.0000   1.0000   1.0000   1.0000
     1.0000   1.0000   1.0000   1.0000   1.0000   1.0000   1.0000   1.0000
     1.0000   1.0000   1.0000   1.0000   1.0000   1.0000   1.0000   1.0000
     1.0000   1.0000   1.0000   1.0000   1.0000   1.0000   1.0000   1.0000
     1.0000   1.0000   1.0000   1.0000   1.0000   1.0000   1.0000   1.0000
     1.0000   1.0000   1.0000   1.0000   1.0000   1.0000   1.0000   1.0000
     1.0000   1.0000   1.0000   1.0000   1.0000   1.0000   1.0000   1.0000
     1.0000   1.0000   1.0000   1.0000   1.0000   1.0000   1.0000   1.0000
     1.0000   1.0000   1.0000   1.0000   0.9050   0.9050  -0.0242  -0.0242
    -0.0000  -0.0000  -0.0000  -0.0000  -0.0000  -0.0000  -0.0000  -0.0000
    -0.0000  -0.0000  -0.0000  -0.0000  -0.0000  -0.0000  -0.0000  -0.0000
    -0.0000  -0.0000  -0.0000  -0.0000  -0.0000  -0.0000  -0.0000  -0.0000
    -0.0000  -0.0000  -0.0000  -0.0000  -0.0000  -0.0000  -0.0000  -0.0000
    -0.0000  -0.0000  -0.0000  -0.0000  -0.0000  -0.0000  -0.0000  -0.0000
    -0.0000  -0.0000  -0.0000  -0.0000

          k =-0.3332-0.0713-0.0424 ( 11956 PWs)   bands (ev):

   -28.7947 -28.7947 -28.7932 -28.7932 -28.7908 -28.7908 -28.7902 -28.7902
   -28.5549 -28.5549 -28.5260 -28.5260 -27.3296 -27.3296 -27.3289 -27.3289
   -27.3283 -27.3283 -27.3262 -27.3262 -27.3245 -27.3245 -27.3241 -27.3241
   -27.0917 -27.0917 -27.0798 -27.0798 -27.0542 -27.0542 -15.8367 -15.8367
   -15.8364 -15.8364 -15.8273 -15.8273 -15.8269 -15.8269 -12.8571 -12.8571
   -12.8560 -12.8560 -12.8445 -12.8445 -12.8441 -12.8441 -12.8415 -12.8415
   -12.8401 -12.8401  -4.1493  -4.1493  -3.7754  -3.7754  -2.1365  -2.1365
    -0.6013  -0.6013   0.8050   0.8050   5.7157   5.7157   6.4112   6.4112
     6.8273   6.8273   7.0680   7.0680   7.4130   7.4130   7.6182   7.6182
     7.6873   7.6873   8.0251   8.0251   8.3824   8.3824   8.6746   8.6746
     9.2905   9.2905   9.9066   9.9066  10.2946  10.2946  11.0135  11.0135
    11.1601  11.1601  13.6931  13.6931  14.4459  14.4459  14.4801  14.4801
    14.5435  14.5435  15.6379  15.6379  15.7719  15.7719  15.9256  15.9256
    15.9788  15.9788  16.4319  16.4319  16.6157  16.6157  16.6757  16.6757
    17.1414  17.1414  17.2604  17.2604  17.4756  17.4756  18.1298  18.1298
    18.2437  18.2437  18.9678  18.9678

     occupation numbers 
     1.0000   1.0000   1.0000   1.0000   1.0000   1.0000   1.0000   1.0000
     1.0000   1.0000   1.0000   1.0000   1.0000   1.0000   1.0000   1.0000
     1.0000   1.0000   1.0000   1.0000   1.0000   1.0000   1.0000   1.0000
     1.0000   1.0000   1.0000   1.0000   1.0000   1.0000   1.0000   1.0000
     1.0000   1.0000   1.0000   1.0000   1.0000   1.0000   1.0000   1.0000
     1.0000   1.0000   1.0000   1.0000   1.0000   1.0000   1.0000   1.0000
     1.0000   1.0000   1.0000   1.0000   1.0000   1.0000   1.0000   1.0000
     1.0000   1.0000   1.0000   1.0000   1.0000   1.0000   1.0000   1.0000
     1.0000   1.0000   1.0000   1.0000   1.0000   1.0000   1.0000   1.0000
     1.0000   1.0000   1.0000   1.0000   1.0200   1.0200   0.1407   0.1407
    -0.0000  -0.0000  -0.0000  -0.0000  -0.0000  -0.0000  -0.0000  -0.0000
    -0.0000  -0.0000  -0.0000  -0.0000  -0.0000  -0.0000  -0.0000  -0.0000
    -0.0000  -0.0000  -0.0000  -0.0000  -0.0000  -0.0000  -0.0000  -0.0000
    -0.0000  -0.0000  -0.0000  -0.0000  -0.0000  -0.0000  -0.0000  -0.0000
    -0.0000  -0.0000  -0.0000  -0.0000  -0.0000  -0.0000  -0.0000  -0.0000
    -0.0000  -0.0000  -0.0000  -0.0000

          k =-0.3336-0.0714 0.4243 ( 11898 PWs)   bands (ev):

   -28.7946 -28.7946 -28.7932 -28.7932 -28.7907 -28.7907 -28.7901 -28.7901
   -28.5549 -28.5549 -28.5259 -28.5259 -27.3295 -27.3295 -27.3290 -27.3290
   -27.3280 -27.3280 -27.3263 -27.3263 -27.3243 -27.3243 -27.3240 -27.3240
   -27.0916 -27.0916 -27.0798 -27.0798 -27.0540 -27.0540 -15.8361 -15.8361
   -15.8359 -15.8359 -15.8275 -15.8275 -15.8269 -15.8269 -12.8561 -12.8561
   -12.8549 -12.8549 -12.8455 -12.8455 -12.8453 -12.8453 -12.8406 -12.8406
   -12.8394 -12.8394  -3.9457  -3.9457  -3.5251  -3.5251  -2.0824  -2.0824
    -0.5674  -0.5674   0.3567   0.3567   5.2778   5.2778   5.7236   5.7236
     5.9775   5.9775   6.6650   6.6650   6.8496   6.8496   7.2053   7.2053
     7.6876   7.6876   7.9188   7.9188   8.2421   8.2421   9.1032   9.1032
     9.7390   9.7390  10.3114  10.3114  10.8404  10.8404  11.5754  11.5754
    11.8205  11.8205  13.4132  13.4132  13.9007  13.9007  14.4671  14.4671
    14.8723  14.8723  15.5321  15.5321  15.6839  15.6839  16.2565  16.2565
    16.2983  16.2983  16.4815  16.4815  16.6303  16.6303  17.2876  17.2876
    17.6542  17.6542  18.0715  18.0715  19.0559  19.0559  19.2520  19.2520
    19.5254  19.5254  19.8631  19.8632

     occupation numbers 
     1.0000   1.0000   1.0000   1.0000   1.0000   1.0000   1.0000   1.0000
     1.0000   1.0000   1.0000   1.0000   1.0000   1.0000   1.0000   1.0000
     1.0000   1.0000   1.0000   1.0000   1.0000   1.0000   1.0000   1.0000
     1.0000   1.0000   1.0000   1.0000   1.0000   1.0000   1.0000   1.0000
     1.0000   1.0000   1.0000   1.0000   1.0000   1.0000   1.0000   1.0000
     1.0000   1.0000   1.0000   1.0000   1.0000   1.0000   1.0000   1.0000
     1.0000   1.0000   1.0000   1.0000   1.0000   1.0000   1.0000   1.0000
     1.0000   1.0000   1.0000   1.0000   1.0000   1.0000   1.0000   1.0000
     1.0000   1.0000   1.0000   1.0000   1.0000   1.0000   1.0000   1.0000
     1.0000   1.0000   1.0000   1.0000   1.0005   1.0005  -0.0000  -0.0000
    -0.0000  -0.0000  -0.0000  -0.0000  -0.0000  -0.0000  -0.0000  -0.0000
    -0.0000  -0.0000  -0.0000  -0.0000  -0.0000  -0.0000  -0.0000  -0.0000
    -0.0000  -0.0000  -0.0000  -0.0000  -0.0000  -0.0000  -0.0000  -0.0000
    -0.0000  -0.0000  -0.0000  -0.0000  -0.0000  -0.0000  -0.0000  -0.0000
    -0.0000  -0.0000  -0.0000  -0.0000  -0.0000  -0.0000  -0.0000  -0.0000
    -0.0000  -0.0000  -0.0000  -0.0000

          k =-0.3345 0.3387 0.6683 ( 11897 PWs)   bands (ev):

   -28.7944 -28.7944 -28.7934 -28.7934 -28.7905 -28.7905 -28.7901 -28.7901
   -28.5549 -28.5549 -28.5258 -28.5258 -27.3295 -27.3295 -27.3290 -27.3290
   -27.3277 -27.3277 -27.3264 -27.3264 -27.3241 -27.3241 -27.3238 -27.3238
   -27.0916 -27.0916 -27.0799 -27.0799 -27.0538 -27.0538 -15.8355 -15.8355
   -15.8349 -15.8349 -15.8277 -15.8277 -15.8271 -15.8271 -12.8555 -12.8555
   -12.8538 -12.8538 -12.8467 -12.8467 -12.8463 -12.8462 -12.8393 -12.8393
   -12.8383 -12.8383  -3.5405  -3.5405  -3.0707  -3.0707  -1.9774  -1.9774
    -0.7274  -0.7274  -0.3040  -0.3040   4.6983   4.6983   5.0674   5.0674
     5.3065   5.3065   5.7882   5.7882   6.4361   6.4361   6.6351   6.6351
     7.4676   7.4676   8.0769   8.0769   8.1836   8.1836   9.4658   9.4658
     9.7496   9.7497  10.5984  10.5984  11.4781  11.4781  12.0616  12.0616
    12.4593  12.4593  13.2274  13.2274  13.3250  13.3250  14.7813  14.7813
    15.3005  15.3005  16.2031  16.2031  16.3479  16.3479  16.4807  16.4807
    16.9649  16.9649  17.2266  17.2266  17.4272  17.4272  18.1219  18.1219
    18.7522  18.7522  19.1214  19.1214  19.5838  19.5838  20.1692  20.1692
    20.4436  20.4436  20.8014  20.8014

     occupation numbers 
     1.0000   1.0000   1.0000   1.0000   1.0000   1.0000   1.0000   1.0000
     1.0000   1.0000   1.0000   1.0000   1.0000   1.0000   1.0000   1.0000
     1.0000   1.0000   1.0000   1.0000   1.0000   1.0000   1.0000   1.0000
     1.0000   1.0000   1.0000   1.0000   1.0000   1.0000   1.0000   1.0000
     1.0000   1.0000   1.0000   1.0000   1.0000   1.0000   1.0000   1.0000
     1.0000   1.0000   1.0000   1.0000   1.0000   1.0000   1.0000   1.0000
     1.0000   1.0000   1.0000   1.0000   1.0000   1.0000   1.0000   1.0000
     1.0000   1.0000   1.0000   1.0000   1.0000   1.0000   1.0000   1.0000
     1.0000   1.0000   1.0000   1.0000   1.0000   1.0000   1.0000   1.0000
     1.0000   1.0000   1.0000   1.0000   1.0000   1.0000  -0.0000  -0.0000
    -0.0000  -0.0000  -0.0000  -0.0000  -0.0000  -0.0000  -0.0000  -0.0000
    -0.0000  -0.0000  -0.0000  -0.0000  -0.0000  -0.0000  -0.0000  -0.0000
    -0.0000  -0.0000  -0.0000  -0.0000  -0.0000  -0.0000  -0.0000  -0.0000
    -0.0000  -0.0000  -0.0000  -0.0000  -0.0000  -0.0000  -0.0000  -0.0000
    -0.0000  -0.0000  -0.0000  -0.0000  -0.0000  -0.0000  -0.0000  -0.0000
    -0.0000  -0.0000  -0.0000  -0.0000

          k =-0.3350 0.3386 1.1351 ( 11915 PWs)   bands (ev):

   -28.7941 -28.7941 -28.7936 -28.7936 -28.7903 -28.7903 -28.7901 -28.7901
   -28.5548 -28.5548 -28.5257 -28.5257 -27.3295 -27.3295 -27.3288 -27.3288
   -27.3275 -27.3275 -27.3266 -27.3266 -27.3238 -27.3238 -27.3237 -27.3237
   -27.0915 -27.0915 -27.0799 -27.0799 -27.0536 -27.0536 -15.8350 -15.8350
   -15.8339 -15.8339 -15.8278 -15.8278 -15.8273 -15.8273 -12.8553 -12.8553
   -12.8536 -12.8535 -12.8474 -12.8474 -12.8466 -12.8466 -12.8379 -12.8379
   -12.8370 -12.8370  -2.7643  -2.7643  -2.4370  -2.4370  -1.8783  -1.8783
    -1.3996  -1.3996  -1.0322  -1.0322   3.9578   3.9578   4.7870   4.7870
     5.0429   5.0429   5.5101   5.5101   5.8489   5.8489   6.0819   6.0819
     6.9446   6.9446   7.8661   7.8661   7.9943   7.9943   9.6500   9.6500
    10.0218  10.0218  11.1304  11.1305  11.6969  11.6969  12.3545  12.3545
    12.6556  12.6556  12.8228  12.8228  14.6435  14.6435  14.7853  14.7853
    15.6865  15.6865  16.1409  16.1409  16.8825  16.8825  17.7748  17.7748
    17.8375  17.8375  18.0599  18.0599  18.5921  18.5921  19.3198  19.3198
    19.3735  19.3735  19.8652  19.8652  20.4272  20.4272  20.6799  20.6799
    20.9284  20.9284  21.1373  21.1373

     occupation numbers 
     1.0000   1.0000   1.0000   1.0000   1.0000   1.0000   1.0000   1.0000
     1.0000   1.0000   1.0000   1.0000   1.0000   1.0000   1.0000   1.0000
     1.0000   1.0000   1.0000   1.0000   1.0000   1.0000   1.0000   1.0000
     1.0000   1.0000   1.0000   1.0000   1.0000   1.0000   1.0000   1.0000
     1.0000   1.0000   1.0000   1.0000   1.0000   1.0000   1.0000   1.0000
     1.0000   1.0000   1.0000   1.0000   1.0000   1.0000   1.0000   1.0000
     1.0000   1.0000   1.0000   1.0000   1.0000   1.0000   1.0000   1.0000
     1.0000   1.0000   1.0000   1.0000   1.0000   1.0000   1.0000   1.0000
     1.0000   1.0000   1.0000   1.0000   1.0000   1.0000   1.0000   1.0000
     1.0000   1.0000   1.0000   1.0000   1.0000   1.0000  -0.0000  -0.0000
    -0.0000  -0.0000  -0.0000  -0.0000  -0.0000  -0.0000  -0.0000  -0.0000
    -0.0000  -0.0000  -0.0000  -0.0000  -0.0000  -0.0000  -0.0000  -0.0000
    -0.0000  -0.0000  -0.0000  -0.0000  -0.0000  -0.0000  -0.0000  -0.0000
    -0.0000  -0.0000  -0.0000  -0.0000  -0.0000  -0.0000  -0.0000  -0.0000
    -0.0000  -0.0000  -0.0000  -0.0000  -0.0000  -0.0000  -0.0000  -0.0000
    -0.0000  -0.0000  -0.0000  -0.0000

          k =-0.3354 0.3385 1.6019 ( 11918 PWs)   bands (ev):

   -28.7941 -28.7941 -28.7936 -28.7936 -28.7903 -28.7903 -28.7901 -28.7901
   -28.5548 -28.5548 -28.5257 -28.5257 -27.3295 -27.3295 -27.3288 -27.3288
   -27.3275 -27.3275 -27.3266 -27.3266 -27.3238 -27.3238 -27.3237 -27.3237
   -27.0915 -27.0915 -27.0799 -27.0799 -27.0536 -27.0536 -15.8350 -15.8350
   -15.8339 -15.8339 -15.8278 -15.8278 -15.8273 -15.8273 -12.8553 -12.8553
   -12.8536 -12.8535 -12.8474 -12.8474 -12.8466 -12.8466 -12.8379 -12.8379
   -12.8370 -12.8370  -2.6908  -2.6908  -2.5576  -2.5576  -1.8328  -1.8328
    -1.3486  -1.3486  -1.0818  -1.0818   4.1779   4.1779   4.6719   4.6719
     4.8396   4.8396   5.0870   5.0870   6.0372   6.0372   6.5574   6.5574
     7.2968   7.2968   7.5101   7.5101   7.8450   7.8450   9.6841   9.6841
    10.3260  10.3260  10.6886  10.6886  11.5674  11.5674  12.1590  12.1590
    12.9183  12.9183  13.2538  13.2538  13.7364  13.7364  14.8310  14.8310
    16.2055  16.2055  16.8654  16.8654  17.1129  17.1129  17.7852  17.7852
    17.9819  17.9819  18.2055  18.2055  18.6554  18.6554  18.7993  18.7993
    19.3075  19.3075  19.6576  19.6576  19.8438  19.8438  19.9980  19.9980
    20.3874  20.3874  21.0898  21.0900

     occupation numbers 
     1.0000   1.0000   1.0000   1.0000   1.0000   1.0000   1.0000   1.0000
     1.0000   1.0000   1.0000   1.0000   1.0000   1.0000   1.0000   1.0000
     1.0000   1.0000   1.0000   1.0000   1.0000   1.0000   1.0000   1.0000
     1.0000   1.0000   1.0000   1.0000   1.0000   1.0000   1.0000   1.0000
     1.0000   1.0000   1.0000   1.0000   1.0000   1.0000   1.0000   1.0000
     1.0000   1.0000   1.0000   1.0000   1.0000   1.0000   1.0000   1.0000
     1.0000   1.0000   1.0000   1.0000   1.0000   1.0000   1.0000   1.0000
     1.0000   1.0000   1.0000   1.0000   1.0000   1.0000   1.0000   1.0000
     1.0000   1.0000   1.0000   1.0000   1.0000   1.0000   1.0000   1.0000
     1.0000   1.0000   1.0000   1.0000   1.0000   1.0000  -0.0000  -0.0000
    -0.0000  -0.0000  -0.0000  -0.0000  -0.0000  -0.0000  -0.0000  -0.0000
    -0.0000  -0.0000  -0.0000  -0.0000  -0.0000  -0.0000  -0.0000  -0.0000
    -0.0000  -0.0000  -0.0000  -0.0000  -0.0000  -0.0000  -0.0000  -0.0000
    -0.0000  -0.0000  -0.0000  -0.0000  -0.0000  -0.0000  -0.0000  -0.0000
    -0.0000  -0.0000  -0.0000  -0.0000  -0.0000  -0.0000  -0.0000  -0.0000
    -0.0000  -0.0000  -0.0000  -0.0000

          k =-0.3332 0.3390-0.7320 ( 11894 PWs)   bands (ev):

   -28.7944 -28.7944 -28.7934 -28.7934 -28.7905 -28.7905 -28.7901 -28.7901
   -28.5549 -28.5549 -28.5258 -28.5258 -27.3295 -27.3295 -27.3290 -27.3290
   -27.3277 -27.3277 -27.3264 -27.3264 -27.3241 -27.3241 -27.3238 -27.3238
   -27.0916 -27.0916 -27.0798 -27.0798 -27.0538 -27.0538 -15.8355 -15.8355
   -15.8349 -15.8349 -15.8277 -15.8277 -15.8271 -15.8271 -12.8555 -12.8554
   -12.8538 -12.8538 -12.8467 -12.8467 -12.8463 -12.8462 -12.8393 -12.8393
   -12.8383 -12.8383  -3.4912  -3.4912  -3.1692  -3.1692  -1.8558  -1.8558
    -0.8709  -0.8709  -0.2330  -0.2330   4.6095   4.6095   4.9951   4.9951
     5.3815   5.3815   5.9595   5.9595   6.4569   6.4569   6.8668   6.8668
     7.3114   7.3114   7.8102   7.8102   7.9431   7.9431   9.7519   9.7519
     9.8968   9.8968  10.8878  10.8878  11.3867  11.3867  11.8147  11.8147
    12.2711  12.2711  13.4014  13.4014  13.4267  13.4267  14.2107  14.2107
    14.7799  14.7799  16.4915  16.4915  16.7050  16.7050  16.8840  16.8840
    17.2695  17.2695  17.6380  17.6380  17.9519  17.9519  18.2796  18.2796
    18.6123  18.6123  18.7090  18.7090  18.9940  18.9940  19.7864  19.7864
    20.2255  20.2255  20.4687  20.4687

     occupation numbers 
     1.0000   1.0000   1.0000   1.0000   1.0000   1.0000   1.0000   1.0000
     1.0000   1.0000   1.0000   1.0000   1.0000   1.0000   1.0000   1.0000
     1.0000   1.0000   1.0000   1.0000   1.0000   1.0000   1.0000   1.0000
     1.0000   1.0000   1.0000   1.0000   1.0000   1.0000   1.0000   1.0000
     1.0000   1.0000   1.0000   1.0000   1.0000   1.0000   1.0000   1.0000
     1.0000   1.0000   1.0000   1.0000   1.0000   1.0000   1.0000   1.0000
     1.0000   1.0000   1.0000   1.0000   1.0000   1.0000   1.0000   1.0000
     1.0000   1.0000   1.0000   1.0000   1.0000   1.0000   1.0000   1.0000
     1.0000   1.0000   1.0000   1.0000   1.0000   1.0000   1.0000   1.0000
     1.0000   1.0000   1.0000   1.0000   1.0000   1.0000  -0.0000  -0.0000
    -0.0000  -0.0000  -0.0000  -0.0000  -0.0000  -0.0000  -0.0000  -0.0000
    -0.0000  -0.0000  -0.0000  -0.0000  -0.0000  -0.0000  -0.0000  -0.0000
    -0.0000  -0.0000  -0.0000  -0.0000  -0.0000  -0.0000  -0.0000  -0.0000
    -0.0000  -0.0000  -0.0000  -0.0000  -0.0000  -0.0000  -0.0000  -0.0000
    -0.0000  -0.0000  -0.0000  -0.0000  -0.0000  -0.0000  -0.0000  -0.0000
    -0.0000  -0.0000  -0.0000  -0.0000

          k =-0.3336 0.3389-0.2652 ( 11898 PWs)   bands (ev):

   -28.7946 -28.7946 -28.7932 -28.7932 -28.7907 -28.7907 -28.7901 -28.7901
   -28.5549 -28.5549 -28.5259 -28.5259 -27.3295 -27.3295 -27.3290 -27.3290
   -27.3280 -27.3280 -27.3263 -27.3263 -27.3243 -27.3243 -27.3240 -27.3240
   -27.0916 -27.0916 -27.0798 -27.0798 -27.0540 -27.0540 -15.8361 -15.8361
   -15.8359 -15.8359 -15.8275 -15.8275 -15.8269 -15.8269 -12.8561 -12.8561
   -12.8549 -12.8549 -12.8455 -12.8455 -12.8453 -12.8453 -12.8406 -12.8406
   -12.8394 -12.8394  -3.9457  -3.9457  -3.5251  -3.5251  -2.0824  -2.0824
    -0.5674  -0.5674   0.3567   0.3567   5.2778   5.2778   5.7236   5.7236
     5.9775   5.9775   6.6650   6.6650   6.8496   6.8496   7.2053   7.2053
     7.6876   7.6876   7.9188   7.9188   8.2421   8.2421   9.1032   9.1032
     9.7390   9.7390  10.3114  10.3114  10.8404  10.8404  11.5754  11.5754
    11.8205  11.8205  13.4132  13.4132  13.9007  13.9007  14.4671  14.4671
    14.8723  14.8723  15.5321  15.5321  15.6839  15.6839  16.2565  16.2565
    16.2983  16.2983  16.4815  16.4815  16.6303  16.6303  17.2876  17.2876
    17.6542  17.6542  18.0715  18.0715  19.0559  19.0559  19.2520  19.2520
    19.5254  19.5254  19.8631  19.8632

     occupation numbers 
     1.0000   1.0000   1.0000   1.0000   1.0000   1.0000   1.0000   1.0000
     1.0000   1.0000   1.0000   1.0000   1.0000   1.0000   1.0000   1.0000
     1.0000   1.0000   1.0000   1.0000   1.0000   1.0000   1.0000   1.0000
     1.0000   1.0000   1.0000   1.0000   1.0000   1.0000   1.0000   1.0000
     1.0000   1.0000   1.0000   1.0000   1.0000   1.0000   1.0000   1.0000
     1.0000   1.0000   1.0000   1.0000   1.0000   1.0000   1.0000   1.0000
     1.0000   1.0000   1.0000   1.0000   1.0000   1.0000   1.0000   1.0000
     1.0000   1.0000   1.0000   1.0000   1.0000   1.0000   1.0000   1.0000
     1.0000   1.0000   1.0000   1.0000   1.0000   1.0000   1.0000   1.0000
     1.0000   1.0000   1.0000   1.0000   1.0005   1.0005  -0.0000  -0.0000
    -0.0000  -0.0000  -0.0000  -0.0000  -0.0000  -0.0000  -0.0000  -0.0000
    -0.0000  -0.0000  -0.0000  -0.0000  -0.0000  -0.0000  -0.0000  -0.0000
    -0.0000  -0.0000  -0.0000  -0.0000  -0.0000  -0.0000  -0.0000  -0.0000
    -0.0000  -0.0000  -0.0000  -0.0000  -0.0000  -0.0000  -0.0000  -0.0000
    -0.0000  -0.0000  -0.0000  -0.0000  -0.0000  -0.0000  -0.0000  -0.0000
    -0.0000  -0.0000  -0.0000  -0.0000

          k =-0.3341 0.3388 0.2016 ( 11906 PWs)   bands (ev):

   -28.7946 -28.7946 -28.7933 -28.7933 -28.7907 -28.7907 -28.7901 -28.7901
   -28.5549 -28.5549 -28.5259 -28.5259 -27.3295 -27.3295 -27.3290 -27.3290
   -27.3280 -27.3280 -27.3263 -27.3263 -27.3243 -27.3243 -27.3240 -27.3240
   -27.0916 -27.0916 -27.0798 -27.0798 -27.0540 -27.0540 -15.8361 -15.8361
   -15.8359 -15.8359 -15.8275 -15.8275 -15.8269 -15.8269 -12.8561 -12.8561
   -12.8549 -12.8549 -12.8455 -12.8455 -12.8453 -12.8453 -12.8406 -12.8406
   -12.8394 -12.8394  -3.9617  -3.9617  -3.4930  -3.4930  -2.1195  -2.1195
    -0.5389  -0.5389   0.3583   0.3583   5.3018   5.3018   5.5067   5.5067
     6.1681   6.1681   6.6048   6.6048   6.7748   6.7748   7.3011   7.3011
     7.7174   7.7174   7.9546   7.9546   8.3292   8.3292   8.9968   8.9968
     9.8698   9.8698  10.4049  10.4049  10.8911  10.8911  11.2706  11.2706
    11.6222  11.6222  13.1629  13.1629  14.1091  14.1091  14.6622  14.6622
    15.0537  15.0537  15.1993  15.1993  15.5457  15.5457  16.1658  16.1658
    16.5364  16.5364  17.1591  17.1591  17.5007  17.5007  17.6130  17.6130
    17.7540  17.7540  17.8598  17.8598  18.1629  18.1629  18.8660  18.8660
    19.0372  19.0373  19.5788  19.5788

     occupation numbers 
     1.0000   1.0000   1.0000   1.0000   1.0000   1.0000   1.0000   1.0000
     1.0000   1.0000   1.0000   1.0000   1.0000   1.0000   1.0000   1.0000
     1.0000   1.0000   1.0000   1.0000   1.0000   1.0000   1.0000   1.0000
     1.0000   1.0000   1.0000   1.0000   1.0000   1.0000   1.0000   1.0000
     1.0000   1.0000   1.0000   1.0000   1.0000   1.0000   1.0000   1.0000
     1.0000   1.0000   1.0000   1.0000   1.0000   1.0000   1.0000   1.0000
     1.0000   1.0000   1.0000   1.0000   1.0000   1.0000   1.0000   1.0000
     1.0000   1.0000   1.0000   1.0000   1.0000   1.0000   1.0000   1.0000
     1.0000   1.0000   1.0000   1.0000   1.0000   1.0000   1.0000   1.0000
     1.0000   1.0000   1.0000   1.0000   1.0066   1.0066  -0.0002  -0.0002
    -0.0000  -0.0000  -0.0000  -0.0000  -0.0000  -0.0000  -0.0000  -0.0000
    -0.0000  -0.0000  -0.0000  -0.0000  -0.0000  -0.0000  -0.0000  -0.0000
    -0.0000  -0.0000  -0.0000  -0.0000  -0.0000  -0.0000  -0.0000  -0.0000
    -0.0000  -0.0000  -0.0000  -0.0000  -0.0000  -0.0000  -0.0000  -0.0000
    -0.0000  -0.0000  -0.0000  -0.0000  -0.0000  -0.0000  -0.0000  -0.0000
    -0.0000  -0.0000  -0.0000  -0.0000

          k =-0.1675 0.3744 0.2228 ( 11897 PWs)   bands (ev):

   -28.7945 -28.7945 -28.7933 -28.7933 -28.7907 -28.7907 -28.7901 -28.7901
   -28.5549 -28.5549 -28.5259 -28.5259 -27.3295 -27.3295 -27.3290 -27.3290
   -27.3280 -27.3280 -27.3263 -27.3263 -27.3243 -27.3243 -27.3240 -27.3240
   -27.0916 -27.0916 -27.0798 -27.0798 -27.0540 -27.0540 -15.8361 -15.8361
   -15.8359 -15.8359 -15.8275 -15.8275 -15.8269 -15.8269 -12.8561 -12.8561
   -12.8549 -12.8549 -12.8455 -12.8455 -12.8454 -12.8453 -12.8406 -12.8406
   -12.8394 -12.8394  -3.9958  -3.9958  -3.4100  -3.4100  -2.2382  -2.2382
    -0.3222  -0.3222   0.2045   0.2045   5.3765   5.3765   5.4700   5.4700
     6.0625   6.0625   6.6613   6.6613   6.7609   6.7610   7.3505   7.3505
     7.7322   7.7322   8.0005   8.0005   8.2070   8.2070   9.1954   9.1954
     9.6226   9.6226  10.5580  10.5580  10.7661  10.7661  11.2746  11.2746
    11.7028  11.7028  13.1276  13.1276  13.9290  13.9290  14.9830  14.9830
    15.0790  15.0790  15.5270  15.5270  15.6446  15.6446  15.8586  15.8586
    16.2942  16.2942  17.0596  17.0596  17.1659  17.1659  17.6795  17.6795
    17.8972  17.8972  18.0848  18.0848  18.1386  18.1386  18.7463  18.7463
    18.8497  18.8497  19.2513  19.2513

     occupation numbers 
     1.0000   1.0000   1.0000   1.0000   1.0000   1.0000   1.0000   1.0000
     1.0000   1.0000   1.0000   1.0000   1.0000   1.0000   1.0000   1.0000
     1.0000   1.0000   1.0000   1.0000   1.0000   1.0000   1.0000   1.0000
     1.0000   1.0000   1.0000   1.0000   1.0000   1.0000   1.0000   1.0000
     1.0000   1.0000   1.0000   1.0000   1.0000   1.0000   1.0000   1.0000
     1.0000   1.0000   1.0000   1.0000   1.0000   1.0000   1.0000   1.0000
     1.0000   1.0000   1.0000   1.0000   1.0000   1.0000   1.0000   1.0000
     1.0000   1.0000   1.0000   1.0000   1.0000   1.0000   1.0000   1.0000
     1.0000   1.0000   1.0000   1.0000   1.0000   1.0000   1.0000   1.0000
     1.0000   1.0000   1.0000   1.0000   1.0001   1.0001  -0.0000  -0.0000
    -0.0000  -0.0000  -0.0000  -0.0000  -0.0000  -0.0000  -0.0000  -0.0000
    -0.0000  -0.0000  -0.0000  -0.0000  -0.0000  -0.0000  -0.0000  -0.0000
    -0.0000  -0.0000  -0.0000  -0.0000  -0.0000  -0.0000  -0.0000  -0.0000
    -0.0000  -0.0000  -0.0000  -0.0000  -0.0000  -0.0000  -0.0000  -0.0000
    -0.0000  -0.0000  -0.0000  -0.0000  -0.0000  -0.0000  -0.0000  -0.0000
    -0.0000  -0.0000  -0.0000  -0.0000

          k =-0.1679 0.3743 0.6896 ( 11899 PWs)   bands (ev):

   -28.7944 -28.7944 -28.7934 -28.7934 -28.7905 -28.7905 -28.7901 -28.7901
   -28.5549 -28.5549 -28.5258 -28.5258 -27.3295 -27.3294 -27.3290 -27.3290
   -27.3277 -27.3277 -27.3265 -27.3265 -27.3241 -27.3241 -27.3238 -27.3238
   -27.0916 -27.0916 -27.0799 -27.0799 -27.0538 -27.0538 -15.8355 -15.8355
   -15.8349 -15.8349 -15.8277 -15.8277 -15.8271 -15.8271 -12.8555 -12.8555
   -12.8538 -12.8538 -12.8467 -12.8467 -12.8463 -12.8462 -12.8393 -12.8393
   -12.8383 -12.8383  -3.5594  -3.5594  -3.0235  -3.0235  -2.0365  -2.0365
    -0.6413  -0.6413  -0.3591  -0.3591   4.7694   4.7694   5.0392   5.0392
     5.3449   5.3449   5.6756   5.6756   6.4353   6.4353   6.5089   6.5089
     7.6420   7.6420   8.1375   8.1375   8.2652   8.2652   9.3453   9.3453
     9.7224   9.7224  10.4126  10.4126  11.5262  11.5262  12.1754  12.1754
    12.5398  12.5398  13.1657  13.1657  13.2935  13.2935  15.3236  15.3236
    15.6279  15.6279  15.9351  15.9351  15.9980  15.9980  16.2106  16.2106
    16.8101  16.8101  17.0045  17.0045  17.4036  17.4036  17.8390  17.8390
    19.0239  19.0239  19.5518  19.5518  19.7564  19.7564  20.2034  20.2034
    20.4638  20.4638  20.6486  20.6486

     occupation numbers 
     1.0000   1.0000   1.0000   1.0000   1.0000   1.0000   1.0000   1.0000
     1.0000   1.0000   1.0000   1.0000   1.0000   1.0000   1.0000   1.0000
     1.0000   1.0000   1.0000   1.0000   1.0000   1.0000   1.0000   1.0000
     1.0000   1.0000   1.0000   1.0000   1.0000   1.0000   1.0000   1.0000
     1.0000   1.0000   1.0000   1.0000   1.0000   1.0000   1.0000   1.0000
     1.0000   1.0000   1.0000   1.0000   1.0000   1.0000   1.0000   1.0000
     1.0000   1.0000   1.0000   1.0000   1.0000   1.0000   1.0000   1.0000
     1.0000   1.0000   1.0000   1.0000   1.0000   1.0000   1.0000   1.0000
     1.0000   1.0000   1.0000   1.0000   1.0000   1.0000   1.0000   1.0000
     1.0000   1.0000   1.0000   1.0000   1.0010   1.0010  -0.0000  -0.0000
    -0.0000  -0.0000  -0.0000  -0.0000  -0.0000  -0.0000  -0.0000  -0.0000
    -0.0000  -0.0000  -0.0000  -0.0000  -0.0000  -0.0000  -0.0000  -0.0000
    -0.0000  -0.0000  -0.0000  -0.0000  -0.0000  -0.0000  -0.0000  -0.0000
    -0.0000  -0.0000  -0.0000  -0.0000  -0.0000  -0.0000  -0.0000  -0.0000
    -0.0000  -0.0000  -0.0000  -0.0000  -0.0000  -0.0000  -0.0000  -0.0000
    -0.0000  -0.0000  -0.0000  -0.0000

          k =-0.1684 0.3742 1.1563 ( 11920 PWs)   bands (ev):

   -28.7941 -28.7941 -28.7936 -28.7936 -28.7903 -28.7903 -28.7901 -28.7901
   -28.5548 -28.5548 -28.5257 -28.5257 -27.3295 -27.3295 -27.3288 -27.3288
   -27.3275 -27.3275 -27.3266 -27.3266 -27.3238 -27.3238 -27.3237 -27.3237
   -27.0915 -27.0915 -27.0799 -27.0799 -27.0536 -27.0536 -15.8350 -15.8350
   -15.8339 -15.8339 -15.8278 -15.8278 -15.8273 -15.8273 -12.8553 -12.8553
   -12.8536 -12.8535 -12.8474 -12.8474 -12.8466 -12.8466 -12.8379 -12.8379
   -12.8370 -12.8370  -2.7551  -2.7551  -2.4656  -2.4656  -1.8255  -1.8255
    -1.4435  -1.4435  -1.0218  -1.0218   3.9448   3.9448   4.6863   4.6863
     5.0140   5.0140   5.5492   5.5492   6.1187   6.1187   6.3547   6.3547
     6.7908   6.7908   7.4961   7.4961   7.6660   7.6660  10.0764  10.0764
    10.3126  10.3126  11.2037  11.2037  11.6866  11.6866  12.1322  12.1322
    12.4755  12.4755  12.8839  12.8839  14.0514  14.0514  14.7639  14.7639
    16.1735  16.1735  16.7718  16.7718  17.1330  17.1330  17.3179  17.3179
    17.8477  17.8477  18.1124  18.1124  18.6530  18.6530  19.0934  19.0934
    19.3064  19.3064  19.7276  19.7276  20.0042  20.0042  20.2206  20.2206
    20.6043  20.6043  21.0207  21.0207

     occupation numbers 
     1.0000   1.0000   1.0000   1.0000   1.0000   1.0000   1.0000   1.0000
     1.0000   1.0000   1.0000   1.0000   1.0000   1.0000   1.0000   1.0000
     1.0000   1.0000   1.0000   1.0000   1.0000   1.0000   1.0000   1.0000
     1.0000   1.0000   1.0000   1.0000   1.0000   1.0000   1.0000   1.0000
     1.0000   1.0000   1.0000   1.0000   1.0000   1.0000   1.0000   1.0000
     1.0000   1.0000   1.0000   1.0000   1.0000   1.0000   1.0000   1.0000
     1.0000   1.0000   1.0000   1.0000   1.0000   1.0000   1.0000   1.0000
     1.0000   1.0000   1.0000   1.0000   1.0000   1.0000   1.0000   1.0000
     1.0000   1.0000   1.0000   1.0000   1.0000   1.0000   1.0000   1.0000
     1.0000   1.0000   1.0000   1.0000   1.0000   1.0000  -0.0000  -0.0000
    -0.0000  -0.0000  -0.0000  -0.0000  -0.0000  -0.0000  -0.0000  -0.0000
    -0.0000  -0.0000  -0.0000  -0.0000  -0.0000  -0.0000  -0.0000  -0.0000
    -0.0000  -0.0000  -0.0000  -0.0000  -0.0000  -0.0000  -0.0000  -0.0000
    -0.0000  -0.0000  -0.0000  -0.0000  -0.0000  -0.0000  -0.0000  -0.0000
    -0.0000  -0.0000  -0.0000  -0.0000  -0.0000  -0.0000  -0.0000  -0.0000
    -0.0000  -0.0000  -0.0000  -0.0000

          k =-0.1661 0.3747-1.1776 ( 11914 PWs)   bands (ev):

   -28.7941 -28.7941 -28.7936 -28.7936 -28.7903 -28.7903 -28.7901 -28.7901
   -28.5548 -28.5548 -28.5257 -28.5257 -27.3295 -27.3295 -27.3288 -27.3288
   -27.3275 -27.3275 -27.3266 -27.3266 -27.3238 -27.3238 -27.3237 -27.3237
   -27.0915 -27.0915 -27.0799 -27.0799 -27.0536 -27.0536 -15.8350 -15.8350
   -15.8339 -15.8339 -15.8278 -15.8278 -15.8273 -15.8273 -12.8553 -12.8553
   -12.8536 -12.8535 -12.8474 -12.8474 -12.8466 -12.8466 -12.8379 -12.8379
   -12.8370 -12.8370  -2.7220  -2.7220  -2.5211  -2.5211  -1.8036  -1.8036
    -1.4228  -1.4228  -1.0421  -1.0421   4.0308   4.0308   4.6405   4.6405
     4.9697   4.9697   5.2635   5.2635   6.2409   6.2409   6.6707   6.6707
     6.9977   6.9977   7.2552   7.2552   7.5478   7.5478  10.1563  10.1563
    10.4322  10.4322  10.9914  10.9914  11.4532  11.4532  12.0863  12.0863
    12.7548  12.7548  13.0942  13.0942  13.6315  13.6315  14.7597  14.7597
    16.6704  16.6705  16.7222  16.7222  17.1314  17.1314  17.7739  17.7739
    17.9589  17.9589  18.1976  18.1976  18.3619  18.3619  18.9656  18.9656
    19.3167  19.3167  19.3960  19.3960  19.6953  19.6953  19.9037  19.9037
    20.5195  20.5195  21.1759  21.1760

     occupation numbers 
     1.0000   1.0000   1.0000   1.0000   1.0000   1.0000   1.0000   1.0000
     1.0000   1.0000   1.0000   1.0000   1.0000   1.0000   1.0000   1.0000
     1.0000   1.0000   1.0000   1.0000   1.0000   1.0000   1.0000   1.0000
     1.0000   1.0000   1.0000   1.0000   1.0000   1.0000   1.0000   1.0000
     1.0000   1.0000   1.0000   1.0000   1.0000   1.0000   1.0000   1.0000
     1.0000   1.0000   1.0000   1.0000   1.0000   1.0000   1.0000   1.0000
     1.0000   1.0000   1.0000   1.0000   1.0000   1.0000   1.0000   1.0000
     1.0000   1.0000   1.0000   1.0000   1.0000   1.0000   1.0000   1.0000
     1.0000   1.0000   1.0000   1.0000   1.0000   1.0000   1.0000   1.0000
     1.0000   1.0000   1.0000   1.0000   1.0000   1.0000  -0.0000  -0.0000
    -0.0000  -0.0000  -0.0000  -0.0000  -0.0000  -0.0000  -0.0000  -0.0000
    -0.0000  -0.0000  -0.0000  -0.0000  -0.0000  -0.0000  -0.0000  -0.0000
    -0.0000  -0.0000  -0.0000  -0.0000  -0.0000  -0.0000  -0.0000  -0.0000
    -0.0000  -0.0000  -0.0000  -0.0000  -0.0000  -0.0000  -0.0000  -0.0000
    -0.0000  -0.0000  -0.0000  -0.0000  -0.0000  -0.0000  -0.0000  -0.0000
    -0.0000  -0.0000  -0.0000  -0.0000

          k =-0.1666 0.3746-0.7108 ( 11897 PWs)   bands (ev):

   -28.7944 -28.7944 -28.7934 -28.7934 -28.7905 -28.7905 -28.7901 -28.7901
   -28.5549 -28.5549 -28.5258 -28.5258 -27.3295 -27.3295 -27.3290 -27.3290
   -27.3277 -27.3277 -27.3264 -27.3264 -27.3241 -27.3241 -27.3238 -27.3238
   -27.0916 -27.0916 -27.0799 -27.0799 -27.0538 -27.0538 -15.8355 -15.8355
   -15.8349 -15.8349 -15.8277 -15.8277 -15.8271 -15.8271 -12.8555 -12.8555
   -12.8538 -12.8538 -12.8467 -12.8467 -12.8463 -12.8462 -12.8393 -12.8393
   -12.8383 -12.8383  -3.5405  -3.5405  -3.0707  -3.0707  -1.9774  -1.9774
    -0.7274  -0.7274  -0.3040  -0.3040   4.6983   4.6983   5.0674   5.0674
     5.3065   5.3065   5.7882   5.7882   6.4361   6.4361   6.6351   6.6351
     7.4676   7.4676   8.0769   8.0769   8.1836   8.1836   9.4658   9.4658
     9.7496   9.7497  10.5984  10.5984  11.4781  11.4781  12.0616  12.0616
    12.4593  12.4593  13.2274  13.2274  13.3250  13.3250  14.7813  14.7813
    15.3005  15.3005  16.2031  16.2031  16.3479  16.3479  16.4807  16.4807
    16.9649  16.9649  17.2266  17.2266  17.4272  17.4272  18.1219  18.1219
    18.7522  18.7522  19.1214  19.1214  19.5838  19.5838  20.1692  20.1692
    20.4436  20.4436  20.8013  20.8014

     occupation numbers 
     1.0000   1.0000   1.0000   1.0000   1.0000   1.0000   1.0000   1.0000
     1.0000   1.0000   1.0000   1.0000   1.0000   1.0000   1.0000   1.0000
     1.0000   1.0000   1.0000   1.0000   1.0000   1.0000   1.0000   1.0000
     1.0000   1.0000   1.0000   1.0000   1.0000   1.0000   1.0000   1.0000
     1.0000   1.0000   1.0000   1.0000   1.0000   1.0000   1.0000   1.0000
     1.0000   1.0000   1.0000   1.0000   1.0000   1.0000   1.0000   1.0000
     1.0000   1.0000   1.0000   1.0000   1.0000   1.0000   1.0000   1.0000
     1.0000   1.0000   1.0000   1.0000   1.0000   1.0000   1.0000   1.0000
     1.0000   1.0000   1.0000   1.0000   1.0000   1.0000   1.0000   1.0000
     1.0000   1.0000   1.0000   1.0000   1.0000   1.0000  -0.0000  -0.0000
    -0.0000  -0.0000  -0.0000  -0.0000  -0.0000  -0.0000  -0.0000  -0.0000
    -0.0000  -0.0000  -0.0000  -0.0000  -0.0000  -0.0000  -0.0000  -0.0000
    -0.0000  -0.0000  -0.0000  -0.0000  -0.0000  -0.0000  -0.0000  -0.0000
    -0.0000  -0.0000  -0.0000  -0.0000  -0.0000  -0.0000  -0.0000  -0.0000
    -0.0000  -0.0000  -0.0000  -0.0000  -0.0000  -0.0000  -0.0000  -0.0000
    -0.0000  -0.0000  -0.0000  -0.0000

          k =-0.1670 0.3745-0.2440 ( 11889 PWs)   bands (ev):

   -28.7945 -28.7945 -28.7932 -28.7932 -28.7907 -28.7907 -28.7901 -28.7901
   -28.5549 -28.5549 -28.5259 -28.5259 -27.3295 -27.3295 -27.3290 -27.3290
   -27.3280 -27.3280 -27.3263 -27.3263 -27.3243 -27.3243 -27.3240 -27.3240
   -27.0916 -27.0916 -27.0798 -27.0798 -27.0540 -27.0540 -15.8361 -15.8361
   -15.8359 -15.8359 -15.8275 -15.8275 -15.8269 -15.8269 -12.8561 -12.8561
   -12.8549 -12.8549 -12.8455 -12.8455 -12.8454 -12.8453 -12.8406 -12.8406
   -12.8394 -12.8394  -3.9897  -3.9897  -3.4254  -3.4254  -2.2199  -2.2199
    -0.3377  -0.3377   0.2066   0.2066   5.3351   5.3351   5.6046   5.6046
     5.9751   5.9751   6.6487   6.6487   6.8496   6.8496   7.2791   7.2791
     7.7540   7.7540   7.9345   7.9345   8.1877   8.1877   9.3304   9.3304
     9.4735   9.4735  10.4847  10.4847  10.7642  10.7642  11.4263  11.4263
    11.8025  11.8025  13.2342  13.2342  13.8670  13.8670  14.8532  14.8532
    14.9305  14.9305  15.5200  15.5200  15.8760  15.8760  16.1348  16.1348
    16.1663  16.1663  16.7457  16.7457  16.8444  16.8444  17.2669  17.2669
    17.4561  17.4561  18.2451  18.2451  18.6619  18.6619  18.7628  18.7628
    19.3871  19.3871  19.7215  19.7216

     occupation numbers 
     1.0000   1.0000   1.0000   1.0000   1.0000   1.0000   1.0000   1.0000
     1.0000   1.0000   1.0000   1.0000   1.0000   1.0000   1.0000   1.0000
     1.0000   1.0000   1.0000   1.0000   1.0000   1.0000   1.0000   1.0000
     1.0000   1.0000   1.0000   1.0000   1.0000   1.0000   1.0000   1.0000
     1.0000   1.0000   1.0000   1.0000   1.0000   1.0000   1.0000   1.0000
     1.0000   1.0000   1.0000   1.0000   1.0000   1.0000   1.0000   1.0000
     1.0000   1.0000   1.0000   1.0000   1.0000   1.0000   1.0000   1.0000
     1.0000   1.0000   1.0000   1.0000   1.0000   1.0000   1.0000   1.0000
     1.0000   1.0000   1.0000   1.0000   1.0000   1.0000   1.0000   1.0000
     1.0000   1.0000   1.0000   1.0000   1.0001   1.0001  -0.0000  -0.0000
    -0.0000  -0.0000  -0.0000  -0.0000  -0.0000  -0.0000  -0.0000  -0.0000
    -0.0000  -0.0000  -0.0000  -0.0000  -0.0000  -0.0000  -0.0000  -0.0000
    -0.0000  -0.0000  -0.0000  -0.0000  -0.0000  -0.0000  -0.0000  -0.0000
    -0.0000  -0.0000  -0.0000  -0.0000  -0.0000  -0.0000  -0.0000  -0.0000
    -0.0000  -0.0000  -0.0000  -0.0000  -0.0000  -0.0000  -0.0000  -0.0000
    -0.0000  -0.0000  -0.0000  -0.0000

          k =-0.1679 0.7846 0.0000 ( 11899 PWs)   bands (ev):

   -28.7944 -28.7944 -28.7934 -28.7934 -28.7905 -28.7905 -28.7901 -28.7901
   -28.5549 -28.5549 -28.5258 -28.5258 -27.3295 -27.3294 -27.3290 -27.3290
   -27.3277 -27.3277 -27.3265 -27.3265 -27.3241 -27.3241 -27.3238 -27.3238
   -27.0916 -27.0916 -27.0799 -27.0799 -27.0538 -27.0538 -15.8355 -15.8355
   -15.8349 -15.8349 -15.8277 -15.8277 -15.8271 -15.8271 -12.8555 -12.8555
   -12.8538 -12.8538 -12.8467 -12.8467 -12.8463 -12.8462 -12.8393 -12.8393
   -12.8383 -12.8383  -3.5594  -3.5594  -3.0235  -3.0235  -2.0365  -2.0365
    -0.6413  -0.6413  -0.3591  -0.3591   4.7694   4.7694   5.0392   5.0392
     5.3449   5.3449   5.6756   5.6756   6.4353   6.4353   6.5089   6.5089
     7.6420   7.6420   8.1375   8.1375   8.2652   8.2652   9.3453   9.3453
     9.7224   9.7224  10.4126  10.4126  11.5262  11.5262  12.1754  12.1754
    12.5398  12.5398  13.1657  13.1657  13.2935  13.2935  15.3236  15.3236
    15.6279  15.6279  15.9351  15.9351  15.9980  15.9980  16.2106  16.2106
    16.8101  16.8101  17.0045  17.0045  17.4036  17.4036  17.8390  17.8390
    19.0239  19.0239  19.5518  19.5518  19.7564  19.7564  20.2034  20.2034
    20.4638  20.4638  20.6486  20.6486

     occupation numbers 
     1.0000   1.0000   1.0000   1.0000   1.0000   1.0000   1.0000   1.0000
     1.0000   1.0000   1.0000   1.0000   1.0000   1.0000   1.0000   1.0000
     1.0000   1.0000   1.0000   1.0000   1.0000   1.0000   1.0000   1.0000
     1.0000   1.0000   1.0000   1.0000   1.0000   1.0000   1.0000   1.0000
     1.0000   1.0000   1.0000   1.0000   1.0000   1.0000   1.0000   1.0000
     1.0000   1.0000   1.0000   1.0000   1.0000   1.0000   1.0000   1.0000
     1.0000   1.0000   1.0000   1.0000   1.0000   1.0000   1.0000   1.0000
     1.0000   1.0000   1.0000   1.0000   1.0000   1.0000   1.0000   1.0000
     1.0000   1.0000   1.0000   1.0000   1.0000   1.0000   1.0000   1.0000
     1.0000   1.0000   1.0000   1.0000   1.0010   1.0010  -0.0000  -0.0000
    -0.0000  -0.0000  -0.0000  -0.0000  -0.0000  -0.0000  -0.0000  -0.0000
    -0.0000  -0.0000  -0.0000  -0.0000  -0.0000  -0.0000  -0.0000  -0.0000
    -0.0000  -0.0000  -0.0000  -0.0000  -0.0000  -0.0000  -0.0000  -0.0000
    -0.0000  -0.0000  -0.0000  -0.0000  -0.0000  -0.0000  -0.0000  -0.0000
    -0.0000  -0.0000  -0.0000  -0.0000  -0.0000  -0.0000  -0.0000  -0.0000
    -0.0000  -0.0000  -0.0000  -0.0000

          k =-0.1684 0.7845 0.4668 ( 11916 PWs)   bands (ev):

   -28.7943 -28.7943 -28.7935 -28.7935 -28.7904 -28.7904 -28.7901 -28.7901
   -28.5549 -28.5549 -28.5258 -28.5258 -27.3294 -27.3294 -27.3290 -27.3290
   -27.3276 -27.3276 -27.3265 -27.3265 -27.3240 -27.3240 -27.3238 -27.3238
   -27.0915 -27.0915 -27.0799 -27.0799 -27.0537 -27.0537 -15.8351 -15.8351
   -15.8349 -15.8349 -15.8276 -15.8276 -15.8272 -15.8272 -12.8558 -12.8557
   -12.8546 -12.8546 -12.8465 -12.8465 -12.8461 -12.8461 -12.8387 -12.8387
   -12.8374 -12.8374  -3.3520  -3.3520  -2.8620  -2.8620  -1.9817  -1.9817
    -0.9179  -0.9179  -0.4725  -0.4725   4.1336   4.1336   5.0783   5.0783
     5.5317   5.5317   5.9992   5.9992   6.1847   6.1847   6.6927   6.6928
     7.0442   7.0442   7.5152   7.5152   7.8981   7.8981   9.5793   9.5793
    10.4951  10.4951  10.7025  10.7025  11.3223  11.3223  11.8859  11.8859
    12.3530  12.3530  12.4075  12.4075  14.5904  14.5904  14.9603  14.9603
    15.6007  15.6007  16.2302  16.2302  16.6300  16.6300  17.0540  17.0540
    17.5709  17.5709  17.7069  17.7069  17.7653  17.7653  18.4122  18.4122
    18.6273  18.6273  18.6852  18.6852  19.1761  19.1761  21.0759  21.0760
    21.2126  21.2126  21.5354  21.5359

     occupation numbers 
     1.0000   1.0000   1.0000   1.0000   1.0000   1.0000   1.0000   1.0000
     1.0000   1.0000   1.0000   1.0000   1.0000   1.0000   1.0000   1.0000
     1.0000   1.0000   1.0000   1.0000   1.0000   1.0000   1.0000   1.0000
     1.0000   1.0000   1.0000   1.0000   1.0000   1.0000   1.0000   1.0000
     1.0000   1.0000   1.0000   1.0000   1.0000   1.0000   1.0000   1.0000
     1.0000   1.0000   1.0000   1.0000   1.0000   1.0000   1.0000   1.0000
     1.0000   1.0000   1.0000   1.0000   1.0000   1.0000   1.0000   1.0000
     1.0000   1.0000   1.0000   1.0000   1.0000   1.0000   1.0000   1.0000
     1.0000   1.0000   1.0000   1.0000   1.0000   1.0000   1.0000   1.0000
     1.0000   1.0000   1.0000   1.0000   1.0000   1.0000  -0.0000  -0.0000
    -0.0000  -0.0000  -0.0000  -0.0000  -0.0000  -0.0000  -0.0000  -0.0000
    -0.0000  -0.0000  -0.0000  -0.0000  -0.0000  -0.0000  -0.0000  -0.0000
    -0.0000  -0.0000  -0.0000  -0.0000  -0.0000  -0.0000  -0.0000  -0.0000
    -0.0000  -0.0000  -0.0000  -0.0000  -0.0000  -0.0000  -0.0000  -0.0000
    -0.0000  -0.0000  -0.0000  -0.0000  -0.0000  -0.0000  -0.0000  -0.0000
    -0.0000  -0.0000  -0.0000  -0.0000

          k =-0.1689 0.7844 0.9336 ( 11915 PWs)   bands (ev):

   -28.7941 -28.7941 -28.7936 -28.7936 -28.7903 -28.7903 -28.7901 -28.7901
   -28.5548 -28.5548 -28.5257 -28.5257 -27.3295 -27.3295 -27.3288 -27.3288
   -27.3275 -27.3275 -27.3266 -27.3266 -27.3238 -27.3238 -27.3237 -27.3237
   -27.0915 -27.0915 -27.0799 -27.0799 -27.0536 -27.0536 -15.8350 -15.8350
   -15.8339 -15.8339 -15.8278 -15.8278 -15.8273 -15.8273 -12.8553 -12.8553
   -12.8536 -12.8535 -12.8474 -12.8474 -12.8466 -12.8466 -12.8379 -12.8379
   -12.8370 -12.8370  -2.7643  -2.7643  -2.4370  -2.4370  -1.8783  -1.8783
    -1.3996  -1.3996  -1.0322  -1.0322   3.9578   3.9578   4.7870   4.7870
     5.0429   5.0429   5.5101   5.5101   5.8489   5.8489   6.0819   6.0819
     6.9446   6.9446   7.8661   7.8661   7.9943   7.9943   9.6500   9.6500
    10.0218  10.0218  11.1304  11.1304  11.6969  11.6969  12.3545  12.3545
    12.6556  12.6556  12.8228  12.8228  14.6435  14.6435  14.7853  14.7853
    15.6865  15.6865  16.1409  16.1409  16.8825  16.8825  17.7748  17.7748
    17.8375  17.8375  18.0599  18.0599  18.5921  18.5921  19.3198  19.3198
    19.3735  19.3735  19.8652  19.8652  20.4272  20.4272  20.6799  20.6799
    20.9284  20.9284  21.1373  21.1373

     occupation numbers 
     1.0000   1.0000   1.0000   1.0000   1.0000   1.0000   1.0000   1.0000
     1.0000   1.0000   1.0000   1.0000   1.0000   1.0000   1.0000   1.0000
     1.0000   1.0000   1.0000   1.0000   1.0000   1.0000   1.0000   1.0000
     1.0000   1.0000   1.0000   1.0000   1.0000   1.0000   1.0000   1.0000
     1.0000   1.0000   1.0000   1.0000   1.0000   1.0000   1.0000   1.0000
     1.0000   1.0000   1.0000   1.0000   1.0000   1.0000   1.0000   1.0000
     1.0000   1.0000   1.0000   1.0000   1.0000   1.0000   1.0000   1.0000
     1.0000   1.0000   1.0000   1.0000   1.0000   1.0000   1.0000   1.0000
     1.0000   1.0000   1.0000   1.0000   1.0000   1.0000   1.0000   1.0000
     1.0000   1.0000   1.0000   1.0000   1.0000   1.0000  -0.0000  -0.0000
    -0.0000  -0.0000  -0.0000  -0.0000  -0.0000  -0.0000  -0.0000  -0.0000
    -0.0000  -0.0000  -0.0000  -0.0000  -0.0000  -0.0000  -0.0000  -0.0000
    -0.0000  -0.0000  -0.0000  -0.0000  -0.0000  -0.0000  -0.0000  -0.0000
    -0.0000  -0.0000  -0.0000  -0.0000  -0.0000  -0.0000  -0.0000  -0.0000
    -0.0000  -0.0000  -0.0000  -0.0000  -0.0000  -0.0000  -0.0000  -0.0000
    -0.0000  -0.0000  -0.0000  -0.0000

          k =-0.1666 0.7849-1.4003 ( 11936 PWs)   bands (ev):

   -28.7940 -28.7939 -28.7938 -28.7938 -28.7901 -28.7901 -28.7901 -28.7901
   -28.5548 -28.5548 -28.5257 -28.5257 -27.3296 -27.3296 -27.3286 -27.3286
   -27.3276 -27.3275 -27.3266 -27.3266 -27.3238 -27.3238 -27.3237 -27.3236
   -27.0915 -27.0915 -27.0799 -27.0799 -27.0535 -27.0535 -15.8349 -15.8349
   -15.8332 -15.8332 -15.8281 -15.8281 -15.8273 -15.8273 -12.8534 -12.8534
   -12.8515 -12.8515 -12.8495 -12.8495 -12.8477 -12.8477 -12.8375 -12.8374
   -12.8374 -12.8374  -1.9560  -1.9560  -1.9407  -1.9407  -1.9110  -1.9110
    -1.8819  -1.8819  -1.7752  -1.7752   4.0985   4.0985   4.5319   4.5319
     4.6591   4.6591   5.0808   5.0808   5.5424   5.5424   6.2671   6.2671
     6.9657   6.9657   7.7016   7.7016   7.8886   7.8886   9.6145   9.6145
    10.4883  10.4883  11.1435  11.1435  12.0198  12.0198  12.5270  12.5270
    12.8971  12.8971  14.2688  14.2688  14.7129  14.7129  14.9199  14.9199
    15.0287  15.0287  15.4299  15.4299  16.4837  16.4837  17.3302  17.3302
    17.5002  17.5002  18.5056  18.5056  18.6024  18.6024  18.9392  18.9392
    19.1968  19.1968  19.8683  19.8683  20.1003  20.1003  21.0763  21.0763
    21.5588  21.5589  21.8311  21.8312

     occupation numbers 
     1.0000   1.0000   1.0000   1.0000   1.0000   1.0000   1.0000   1.0000
     1.0000   1.0000   1.0000   1.0000   1.0000   1.0000   1.0000   1.0000
     1.0000   1.0000   1.0000   1.0000   1.0000   1.0000   1.0000   1.0000
     1.0000   1.0000   1.0000   1.0000   1.0000   1.0000   1.0000   1.0000
     1.0000   1.0000   1.0000   1.0000   1.0000   1.0000   1.0000   1.0000
     1.0000   1.0000   1.0000   1.0000   1.0000   1.0000   1.0000   1.0000
     1.0000   1.0000   1.0000   1.0000   1.0000   1.0000   1.0000   1.0000
     1.0000   1.0000   1.0000   1.0000   1.0000   1.0000   1.0000   1.0000
     1.0000   1.0000   1.0000   1.0000   1.0000   1.0000   1.0000   1.0000
     1.0000   1.0000   1.0000   1.0000   1.0000   1.0000  -0.0000  -0.0000
    -0.0000  -0.0000  -0.0000  -0.0000  -0.0000  -0.0000  -0.0000  -0.0000
    -0.0000  -0.0000  -0.0000  -0.0000  -0.0000  -0.0000  -0.0000  -0.0000
    -0.0000  -0.0000  -0.0000  -0.0000  -0.0000  -0.0000  -0.0000  -0.0000
    -0.0000  -0.0000  -0.0000  -0.0000  -0.0000  -0.0000  -0.0000  -0.0000
    -0.0000  -0.0000  -0.0000  -0.0000  -0.0000  -0.0000  -0.0000  -0.0000
    -0.0000  -0.0000  -0.0000  -0.0000

          k =-0.1670 0.7848-0.9336 ( 11915 PWs)   bands (ev):

   -28.7941 -28.7941 -28.7936 -28.7936 -28.7903 -28.7903 -28.7901 -28.7901
   -28.5548 -28.5548 -28.5257 -28.5257 -27.3295 -27.3295 -27.3288 -27.3288
   -27.3275 -27.3275 -27.3266 -27.3266 -27.3238 -27.3238 -27.3237 -27.3237
   -27.0915 -27.0915 -27.0799 -27.0799 -27.0536 -27.0536 -15.8350 -15.8350
   -15.8339 -15.8339 -15.8278 -15.8278 -15.8273 -15.8273 -12.8553 -12.8553
   -12.8536 -12.8535 -12.8474 -12.8474 -12.8466 -12.8466 -12.8379 -12.8379
   -12.8370 -12.8370  -2.7643  -2.7643  -2.4370  -2.4370  -1.8783  -1.8783
    -1.3996  -1.3996  -1.0322  -1.0322   3.9578   3.9578   4.7870   4.7870
     5.0429   5.0429   5.5101   5.5101   5.8489   5.8489   6.0819   6.0819
     6.9446   6.9446   7.8661   7.8661   7.9943   7.9943   9.6500   9.6500
    10.0218  10.0218  11.1305  11.1305  11.6969  11.6969  12.3545  12.3545
    12.6556  12.6556  12.8228  12.8228  14.6435  14.6435  14.7853  14.7853
    15.6865  15.6865  16.1409  16.1409  16.8825  16.8825  17.7748  17.7748
    17.8375  17.8375  18.0599  18.0599  18.5921  18.5921  19.3198  19.3198
    19.3735  19.3735  19.8652  19.8652  20.4272  20.4272  20.6799  20.6799
    20.9284  20.9284  21.1373  21.1373

     occupation numbers 
     1.0000   1.0000   1.0000   1.0000   1.0000   1.0000   1.0000   1.0000
     1.0000   1.0000   1.0000   1.0000   1.0000   1.0000   1.0000   1.0000
     1.0000   1.0000   1.0000   1.0000   1.0000   1.0000   1.0000   1.0000
     1.0000   1.0000   1.0000   1.0000   1.0000   1.0000   1.0000   1.0000
     1.0000   1.0000   1.0000   1.0000   1.0000   1.0000   1.0000   1.0000
     1.0000   1.0000   1.0000   1.0000   1.0000   1.0000   1.0000   1.0000
     1.0000   1.0000   1.0000   1.0000   1.0000   1.0000   1.0000   1.0000
     1.0000   1.0000   1.0000   1.0000   1.0000   1.0000   1.0000   1.0000
     1.0000   1.0000   1.0000   1.0000   1.0000   1.0000   1.0000   1.0000
     1.0000   1.0000   1.0000   1.0000   1.0000   1.0000  -0.0000  -0.0000
    -0.0000  -0.0000  -0.0000  -0.0000  -0.0000  -0.0000  -0.0000  -0.0000
    -0.0000  -0.0000  -0.0000  -0.0000  -0.0000  -0.0000  -0.0000  -0.0000
    -0.0000  -0.0000  -0.0000  -0.0000  -0.0000  -0.0000  -0.0000  -0.0000
    -0.0000  -0.0000  -0.0000  -0.0000  -0.0000  -0.0000  -0.0000  -0.0000
    -0.0000  -0.0000  -0.0000  -0.0000  -0.0000  -0.0000  -0.0000  -0.0000
    -0.0000  -0.0000  -0.0000  -0.0000

          k =-0.1675 0.7847-0.4668 ( 11916 PWs)   bands (ev):

   -28.7943 -28.7943 -28.7935 -28.7935 -28.7904 -28.7904 -28.7901 -28.7901
   -28.5549 -28.5549 -28.5258 -28.5258 -27.3294 -27.3294 -27.3290 -27.3290
   -27.3276 -27.3276 -27.3265 -27.3265 -27.3240 -27.3240 -27.3238 -27.3238
   -27.0915 -27.0915 -27.0799 -27.0799 -27.0537 -27.0537 -15.8351 -15.8351
   -15.8349 -15.8349 -15.8276 -15.8276 -15.8272 -15.8272 -12.8558 -12.8557
   -12.8546 -12.8546 -12.8465 -12.8465 -12.8461 -12.8461 -12.8387 -12.8387
   -12.8374 -12.8374  -3.3520  -3.3520  -2.8620  -2.8620  -1.9817  -1.9817
    -0.9179  -0.9179  -0.4725  -0.4725   4.1336   4.1336   5.0783   5.0783
     5.5317   5.5317   5.9992   5.9992   6.1847   6.1847   6.6928   6.6928
     7.0442   7.0442   7.5152   7.5152   7.8982   7.8982   9.5793   9.5793
    10.4951  10.4951  10.7025  10.7025  11.3223  11.3223  11.8859  11.8859
    12.3530  12.3530  12.4075  12.4075  14.5904  14.5904  14.9603  14.9603
    15.6007  15.6007  16.2302  16.2302  16.6300  16.6300  17.0540  17.0540
    17.5709  17.5709  17.7069  17.7069  17.7653  17.7653  18.4122  18.4122
    18.6273  18.6273  18.6852  18.6852  19.1761  19.1761  21.0759  21.0759
    21.2126  21.2126  21.5355  21.5360

     occupation numbers 
     1.0000   1.0000   1.0000   1.0000   1.0000   1.0000   1.0000   1.0000
     1.0000   1.0000   1.0000   1.0000   1.0000   1.0000   1.0000   1.0000
     1.0000   1.0000   1.0000   1.0000   1.0000   1.0000   1.0000   1.0000
     1.0000   1.0000   1.0000   1.0000   1.0000   1.0000   1.0000   1.0000
     1.0000   1.0000   1.0000   1.0000   1.0000   1.0000   1.0000   1.0000
     1.0000   1.0000   1.0000   1.0000   1.0000   1.0000   1.0000   1.0000
     1.0000   1.0000   1.0000   1.0000   1.0000   1.0000   1.0000   1.0000
     1.0000   1.0000   1.0000   1.0000   1.0000   1.0000   1.0000   1.0000
     1.0000   1.0000   1.0000   1.0000   1.0000   1.0000   1.0000   1.0000
     1.0000   1.0000   1.0000   1.0000   1.0000   1.0000  -0.0000  -0.0000
    -0.0000  -0.0000  -0.0000  -0.0000  -0.0000  -0.0000  -0.0000  -0.0000
    -0.0000  -0.0000  -0.0000  -0.0000  -0.0000  -0.0000  -0.0000  -0.0000
    -0.0000  -0.0000  -0.0000  -0.0000  -0.0000  -0.0000  -0.0000  -0.0000
    -0.0000  -0.0000  -0.0000  -0.0000  -0.0000  -0.0000  -0.0000  -0.0000
    -0.0000  -0.0000  -0.0000  -0.0000  -0.0000  -0.0000  -0.0000  -0.0000
    -0.0000  -0.0000  -0.0000  -0.0000

          k =-0.1684 1.1948-0.2228 ( 11920 PWs)   bands (ev):

   -28.7941 -28.7941 -28.7936 -28.7936 -28.7903 -28.7903 -28.7901 -28.7901
   -28.5548 -28.5548 -28.5257 -28.5257 -27.3295 -27.3295 -27.3288 -27.3288
   -27.3275 -27.3275 -27.3266 -27.3266 -27.3238 -27.3238 -27.3237 -27.3237
   -27.0915 -27.0915 -27.0799 -27.0799 -27.0536 -27.0536 -15.8350 -15.8350
   -15.8339 -15.8339 -15.8278 -15.8278 -15.8273 -15.8273 -12.8553 -12.8553
   -12.8536 -12.8535 -12.8474 -12.8474 -12.8466 -12.8466 -12.8379 -12.8379
   -12.8370 -12.8370  -2.7551  -2.7551  -2.4656  -2.4656  -1.8255  -1.8255
    -1.4435  -1.4435  -1.0218  -1.0218   3.9448   3.9448   4.6863   4.6863
     5.0140   5.0140   5.5492   5.5492   6.1187   6.1187   6.3547   6.3547
     6.7908   6.7908   7.4961   7.4961   7.6660   7.6660  10.0764  10.0764
    10.3126  10.3126  11.2037  11.2037  11.6866  11.6866  12.1322  12.1322
    12.4755  12.4755  12.8839  12.8839  14.0514  14.0514  14.7639  14.7639
    16.1735  16.1735  16.7718  16.7718  17.1330  17.1330  17.3179  17.3179
    17.8477  17.8477  18.1124  18.1124  18.6530  18.6530  19.0934  19.0934
    19.3064  19.3064  19.7276  19.7276  20.0042  20.0042  20.2206  20.2206
    20.6043  20.6043  21.0207  21.0207

     occupation numbers 
     1.0000   1.0000   1.0000   1.0000   1.0000   1.0000   1.0000   1.0000
     1.0000   1.0000   1.0000   1.0000   1.0000   1.0000   1.0000   1.0000
     1.0000   1.0000   1.0000   1.0000   1.0000   1.0000   1.0000   1.0000
     1.0000   1.0000   1.0000   1.0000   1.0000   1.0000   1.0000   1.0000
     1.0000   1.0000   1.0000   1.0000   1.0000   1.0000   1.0000   1.0000
     1.0000   1.0000   1.0000   1.0000   1.0000   1.0000   1.0000   1.0000
     1.0000   1.0000   1.0000   1.0000   1.0000   1.0000   1.0000   1.0000
     1.0000   1.0000   1.0000   1.0000   1.0000   1.0000   1.0000   1.0000
     1.0000   1.0000   1.0000   1.0000   1.0000   1.0000   1.0000   1.0000
     1.0000   1.0000   1.0000   1.0000   1.0000   1.0000  -0.0000  -0.0000
    -0.0000  -0.0000  -0.0000  -0.0000  -0.0000  -0.0000  -0.0000  -0.0000
    -0.0000  -0.0000  -0.0000  -0.0000  -0.0000  -0.0000  -0.0000  -0.0000
    -0.0000  -0.0000  -0.0000  -0.0000  -0.0000  -0.0000  -0.0000  -0.0000
    -0.0000  -0.0000  -0.0000  -0.0000  -0.0000  -0.0000  -0.0000  -0.0000
    -0.0000  -0.0000  -0.0000  -0.0000  -0.0000  -0.0000  -0.0000  -0.0000
    -0.0000  -0.0000  -0.0000  -0.0000

          k =-0.1689 1.1947 0.2440 ( 11915 PWs)   bands (ev):

   -28.7941 -28.7941 -28.7936 -28.7936 -28.7903 -28.7903 -28.7901 -28.7901
   -28.5548 -28.5548 -28.5257 -28.5257 -27.3295 -27.3295 -27.3288 -27.3288
   -27.3275 -27.3275 -27.3266 -27.3266 -27.3238 -27.3238 -27.3237 -27.3237
   -27.0915 -27.0915 -27.0799 -27.0799 -27.0536 -27.0536 -15.8350 -15.8350
   -15.8339 -15.8339 -15.8278 -15.8278 -15.8273 -15.8273 -12.8553 -12.8553
   -12.8536 -12.8535 -12.8474 -12.8474 -12.8466 -12.8466 -12.8379 -12.8379
   -12.8370 -12.8370  -2.7643  -2.7643  -2.4370  -2.4370  -1.8783  -1.8783
    -1.3996  -1.3996  -1.0322  -1.0322   3.9578   3.9578   4.7870   4.7870
     5.0429   5.0429   5.5101   5.5101   5.8489   5.8489   6.0819   6.0819
     6.9446   6.9446   7.8661   7.8661   7.9943   7.9943   9.6500   9.6500
    10.0218  10.0218  11.1304  11.1304  11.6969  11.6969  12.3545  12.3545
    12.6556  12.6556  12.8228  12.8228  14.6435  14.6435  14.7853  14.7853
    15.6865  15.6865  16.1409  16.1409  16.8825  16.8825  17.7748  17.7748
    17.8375  17.8375  18.0599  18.0599  18.5921  18.5921  19.3198  19.3198
    19.3735  19.3735  19.8652  19.8652  20.4272  20.4272  20.6799  20.6799
    20.9284  20.9284  21.1373  21.1373

     occupation numbers 
     1.0000   1.0000   1.0000   1.0000   1.0000   1.0000   1.0000   1.0000
     1.0000   1.0000   1.0000   1.0000   1.0000   1.0000   1.0000   1.0000
     1.0000   1.0000   1.0000   1.0000   1.0000   1.0000   1.0000   1.0000
     1.0000   1.0000   1.0000   1.0000   1.0000   1.0000   1.0000   1.0000
     1.0000   1.0000   1.0000   1.0000   1.0000   1.0000   1.0000   1.0000
     1.0000   1.0000   1.0000   1.0000   1.0000   1.0000   1.0000   1.0000
     1.0000   1.0000   1.0000   1.0000   1.0000   1.0000   1.0000   1.0000
     1.0000   1.0000   1.0000   1.0000   1.0000   1.0000   1.0000   1.0000
     1.0000   1.0000   1.0000   1.0000   1.0000   1.0000   1.0000   1.0000
     1.0000   1.0000   1.0000   1.0000   1.0000   1.0000  -0.0000  -0.0000
    -0.0000  -0.0000  -0.0000  -0.0000  -0.0000  -0.0000  -0.0000  -0.0000
    -0.0000  -0.0000  -0.0000  -0.0000  -0.0000  -0.0000  -0.0000  -0.0000
    -0.0000  -0.0000  -0.0000  -0.0000  -0.0000  -0.0000  -0.0000  -0.0000
    -0.0000  -0.0000  -0.0000  -0.0000  -0.0000  -0.0000  -0.0000  -0.0000
    -0.0000  -0.0000  -0.0000  -0.0000  -0.0000  -0.0000  -0.0000  -0.0000
    -0.0000  -0.0000  -0.0000  -0.0000

          k =-0.1693 1.1946 0.7108 ( 11906 PWs)   bands (ev):

   -28.7941 -28.7941 -28.7936 -28.7936 -28.7903 -28.7903 -28.7901 -28.7901
   -28.5548 -28.5548 -28.5257 -28.5257 -27.3294 -27.3294 -27.3289 -27.3289
   -27.3274 -27.3274 -27.3267 -27.3267 -27.3237 -27.3237 -27.3237 -27.3237
   -27.0915 -27.0915 -27.0799 -27.0799 -27.0536 -27.0536 -15.8346 -15.8346
   -15.8345 -15.8345 -15.8276 -15.8276 -15.8274 -15.8274 -12.8563 -12.8563
   -12.8556 -12.8556 -12.8464 -12.8464 -12.8458 -12.8458 -12.8375 -12.8375
   -12.8361 -12.8361  -2.5515  -2.5515  -2.5352  -2.5352  -2.0607  -2.0607
    -1.4991  -1.4991  -0.8836  -0.8836   3.9006   3.9006   4.7604   4.7604
     4.9228   4.9228   5.7696   5.7696   5.8929   5.8929   6.6247   6.6247
     7.0208   7.0208   7.6671   7.6671   7.7413   7.7413   9.4934   9.4934
    10.2533  10.2533  10.6794  10.6794  10.9175  10.9175  11.9158  11.9158
    12.3693  12.3693  13.3168  13.3168  14.0617  14.0617  15.4898  15.4898
    17.1186  17.1186  17.2061  17.2061  17.7718  17.7718  17.8240  17.8240
    18.2283  18.2283  18.3838  18.3838  19.0793  19.0793  19.1324  19.1324
    19.3130  19.3130  19.6213  19.6213  19.8226  19.8226  19.9937  19.9937
    20.3539  20.3540  20.8051  20.8052

     occupation numbers 
     1.0000   1.0000   1.0000   1.0000   1.0000   1.0000   1.0000   1.0000
     1.0000   1.0000   1.0000   1.0000   1.0000   1.0000   1.0000   1.0000
     1.0000   1.0000   1.0000   1.0000   1.0000   1.0000   1.0000   1.0000
     1.0000   1.0000   1.0000   1.0000   1.0000   1.0000   1.0000   1.0000
     1.0000   1.0000   1.0000   1.0000   1.0000   1.0000   1.0000   1.0000
     1.0000   1.0000   1.0000   1.0000   1.0000   1.0000   1.0000   1.0000
     1.0000   1.0000   1.0000   1.0000   1.0000   1.0000   1.0000   1.0000
     1.0000   1.0000   1.0000   1.0000   1.0000   1.0000   1.0000   1.0000
     1.0000   1.0000   1.0000   1.0000   1.0000   1.0000   1.0000   1.0000
     1.0000   1.0000   1.0000   1.0000   1.0000   1.0000  -0.0000  -0.0000
    -0.0000  -0.0000  -0.0000  -0.0000  -0.0000  -0.0000  -0.0000  -0.0000
    -0.0000  -0.0000  -0.0000  -0.0000  -0.0000  -0.0000  -0.0000  -0.0000
    -0.0000  -0.0000  -0.0000  -0.0000  -0.0000  -0.0000  -0.0000  -0.0000
    -0.0000  -0.0000  -0.0000  -0.0000  -0.0000  -0.0000  -0.0000  -0.0000
    -0.0000  -0.0000  -0.0000  -0.0000  -0.0000  -0.0000  -0.0000  -0.0000
    -0.0000  -0.0000  -0.0000  -0.0000

          k =-0.1670 1.1951-1.6231 ( 11915 PWs)   bands (ev):

   -28.7941 -28.7941 -28.7936 -28.7936 -28.7903 -28.7903 -28.7901 -28.7901
   -28.5548 -28.5548 -28.5257 -28.5257 -27.3295 -27.3295 -27.3288 -27.3288
   -27.3275 -27.3275 -27.3266 -27.3266 -27.3238 -27.3238 -27.3237 -27.3237
   -27.0915 -27.0915 -27.0799 -27.0799 -27.0536 -27.0536 -15.8350 -15.8350
   -15.8339 -15.8339 -15.8278 -15.8278 -15.8273 -15.8273 -12.8553 -12.8553
   -12.8536 -12.8535 -12.8474 -12.8474 -12.8466 -12.8466 -12.8378 -12.8378
   -12.8370 -12.8370  -2.7117  -2.7117  -2.5203  -2.5203  -1.8763  -1.8763
    -1.3000  -1.3000  -1.1032  -1.1032   4.2156   4.2156   4.7078   4.7078
     4.8313   4.8313   5.1531   5.1531   5.7735   5.7735   6.2437   6.2437
     7.6044   7.6044   7.8637   7.8637   8.0938   8.0938   9.3481   9.3481
    10.0177  10.0177  10.4394  10.4394  11.7561  11.7562  12.3719  12.3719
    12.8348  12.8348  13.2832  13.2832  14.1745  14.1745  14.9967  14.9967
    15.8459  15.8459  16.2108  16.2108  16.9283  16.9283  17.8334  17.8334
    17.9915  17.9915  18.2871  18.2871  18.8459  18.8459  19.0331  19.0331
    19.4103  19.4103  19.8501  19.8501  19.9763  19.9763  20.3854  20.3854
    20.6451  20.6451  20.9447  20.9448

     occupation numbers 
     1.0000   1.0000   1.0000   1.0000   1.0000   1.0000   1.0000   1.0000
     1.0000   1.0000   1.0000   1.0000   1.0000   1.0000   1.0000   1.0000
     1.0000   1.0000   1.0000   1.0000   1.0000   1.0000   1.0000   1.0000
     1.0000   1.0000   1.0000   1.0000   1.0000   1.0000   1.0000   1.0000
     1.0000   1.0000   1.0000   1.0000   1.0000   1.0000   1.0000   1.0000
     1.0000   1.0000   1.0000   1.0000   1.0000   1.0000   1.0000   1.0000
     1.0000   1.0000   1.0000   1.0000   1.0000   1.0000   1.0000   1.0000
     1.0000   1.0000   1.0000   1.0000   1.0000   1.0000   1.0000   1.0000
     1.0000   1.0000   1.0000   1.0000   1.0000   1.0000   1.0000   1.0000
     1.0000   1.0000   1.0000   1.0000   1.0000   1.0000  -0.0000  -0.0000
    -0.0000  -0.0000  -0.0000  -0.0000  -0.0000  -0.0000  -0.0000  -0.0000
    -0.0000  -0.0000  -0.0000  -0.0000  -0.0000  -0.0000  -0.0000  -0.0000
    -0.0000  -0.0000  -0.0000  -0.0000  -0.0000  -0.0000  -0.0000  -0.0000
    -0.0000  -0.0000  -0.0000  -0.0000  -0.0000  -0.0000  -0.0000  -0.0000
    -0.0000  -0.0000  -0.0000  -0.0000  -0.0000  -0.0000  -0.0000  -0.0000
    -0.0000  -0.0000  -0.0000  -0.0000

          k =-0.1675 1.1950-1.1563 ( 11918 PWs)   bands (ev):

   -28.7941 -28.7941 -28.7936 -28.7936 -28.7903 -28.7903 -28.7901 -28.7901
   -28.5548 -28.5548 -28.5257 -28.5257 -27.3295 -27.3295 -27.3288 -27.3288
   -27.3275 -27.3275 -27.3266 -27.3266 -27.3238 -27.3238 -27.3237 -27.3237
   -27.0915 -27.0915 -27.0799 -27.0799 -27.0536 -27.0536 -15.8350 -15.8350
   -15.8339 -15.8339 -15.8278 -15.8278 -15.8273 -15.8273 -12.8553 -12.8553
   -12.8536 -12.8535 -12.8474 -12.8474 -12.8466 -12.8466 -12.8379 -12.8379
   -12.8370 -12.8370  -2.6908  -2.6908  -2.5576  -2.5576  -1.8328  -1.8328
    -1.3486  -1.3486  -1.0818  -1.0818   4.1779   4.1779   4.6719   4.6719
     4.8396   4.8396   5.0870   5.0870   6.0372   6.0372   6.5574   6.5574
     7.2968   7.2968   7.5101   7.5101   7.8450   7.8450   9.6841   9.6841
    10.3260  10.3260  10.6886  10.6886  11.5674  11.5674  12.1590  12.1590
    12.9183  12.9183  13.2538  13.2538  13.7364  13.7364  14.8310  14.8310
    16.2055  16.2055  16.8654  16.8654  17.1129  17.1129  17.7852  17.7852
    17.9819  17.9819  18.2055  18.2055  18.6554  18.6554  18.7993  18.7993
    19.3075  19.3075  19.6576  19.6576  19.8438  19.8438  19.9980  19.9980
    20.3874  20.3874  21.0897  21.0900

     occupation numbers 
     1.0000   1.0000   1.0000   1.0000   1.0000   1.0000   1.0000   1.0000
     1.0000   1.0000   1.0000   1.0000   1.0000   1.0000   1.0000   1.0000
     1.0000   1.0000   1.0000   1.0000   1.0000   1.0000   1.0000   1.0000
     1.0000   1.0000   1.0000   1.0000   1.0000   1.0000   1.0000   1.0000
     1.0000   1.0000   1.0000   1.0000   1.0000   1.0000   1.0000   1.0000
     1.0000   1.0000   1.0000   1.0000   1.0000   1.0000   1.0000   1.0000
     1.0000   1.0000   1.0000   1.0000   1.0000   1.0000   1.0000   1.0000
     1.0000   1.0000   1.0000   1.0000   1.0000   1.0000   1.0000   1.0000
     1.0000   1.0000   1.0000   1.0000   1.0000   1.0000   1.0000   1.0000
     1.0000   1.0000   1.0000   1.0000   1.0000   1.0000  -0.0000  -0.0000
    -0.0000  -0.0000  -0.0000  -0.0000  -0.0000  -0.0000  -0.0000  -0.0000
    -0.0000  -0.0000  -0.0000  -0.0000  -0.0000  -0.0000  -0.0000  -0.0000
    -0.0000  -0.0000  -0.0000  -0.0000  -0.0000  -0.0000  -0.0000  -0.0000
    -0.0000  -0.0000  -0.0000  -0.0000  -0.0000  -0.0000  -0.0000  -0.0000
    -0.0000  -0.0000  -0.0000  -0.0000  -0.0000  -0.0000  -0.0000  -0.0000
    -0.0000  -0.0000  -0.0000  -0.0000

          k =-0.1680 1.1949-0.6896 ( 11935 PWs)   bands (ev):

   -28.7941 -28.7941 -28.7936 -28.7936 -28.7903 -28.7903 -28.7901 -28.7901
   -28.5548 -28.5548 -28.5257 -28.5257 -27.3294 -27.3294 -27.3289 -27.3289
   -27.3274 -27.3274 -27.3267 -27.3267 -27.3238 -27.3238 -27.3237 -27.3237
   -27.0915 -27.0915 -27.0799 -27.0799 -27.0536 -27.0536 -15.8346 -15.8346
   -15.8345 -15.8345 -15.8276 -15.8276 -15.8274 -15.8274 -12.8563 -12.8563
   -12.8556 -12.8556 -12.8464 -12.8464 -12.8458 -12.8458 -12.8375 -12.8375
   -12.8361 -12.8361  -2.5508  -2.5508  -2.5239  -2.5239  -2.1145  -2.1145
    -1.3928  -1.3928  -0.9527  -0.9527   3.7607   3.7607   4.9869   4.9869
     5.1810   5.1810   5.6357   5.6357   5.8995   5.8995   6.3794   6.3794
     6.7623   6.7623   7.6693   7.6693   8.0801   8.0801   9.2184   9.2184
    10.3670  10.3670  10.7731  10.7731  11.1281  11.1281  12.0134  12.0134
    12.4521  12.4521  12.8292  12.8292  13.8356  13.8356  16.3509  16.3509
    17.0614  17.0614  17.2942  17.2942  17.5110  17.5110  17.8302  17.8302
    18.1657  18.1657  18.3053  18.3053  18.9363  18.9363  19.0087  19.0087
    19.0911  19.0911  19.5511  19.5511  19.6696  19.6696  20.1499  20.1499
    20.2597  20.2597  20.7518  20.7521

     occupation numbers 
     1.0000   1.0000   1.0000   1.0000   1.0000   1.0000   1.0000   1.0000
     1.0000   1.0000   1.0000   1.0000   1.0000   1.0000   1.0000   1.0000
     1.0000   1.0000   1.0000   1.0000   1.0000   1.0000   1.0000   1.0000
     1.0000   1.0000   1.0000   1.0000   1.0000   1.0000   1.0000   1.0000
     1.0000   1.0000   1.0000   1.0000   1.0000   1.0000   1.0000   1.0000
     1.0000   1.0000   1.0000   1.0000   1.0000   1.0000   1.0000   1.0000
     1.0000   1.0000   1.0000   1.0000   1.0000   1.0000   1.0000   1.0000
     1.0000   1.0000   1.0000   1.0000   1.0000   1.0000   1.0000   1.0000
     1.0000   1.0000   1.0000   1.0000   1.0000   1.0000   1.0000   1.0000
     1.0000   1.0000   1.0000   1.0000   1.0000   1.0000  -0.0000  -0.0000
    -0.0000  -0.0000  -0.0000  -0.0000  -0.0000  -0.0000  -0.0000  -0.0000
    -0.0000  -0.0000  -0.0000  -0.0000  -0.0000  -0.0000  -0.0000  -0.0000
    -0.0000  -0.0000  -0.0000  -0.0000  -0.0000  -0.0000  -0.0000  -0.0000
    -0.0000  -0.0000  -0.0000  -0.0000  -0.0000  -0.0000  -0.0000  -0.0000
    -0.0000  -0.0000  -0.0000  -0.0000  -0.0000  -0.0000  -0.0000  -0.0000
    -0.0000  -0.0000  -0.0000  -0.0000

          k =-0.1661-0.8561 0.8911 ( 11914 PWs)   bands (ev):

   -28.7941 -28.7941 -28.7936 -28.7936 -28.7903 -28.7903 -28.7901 -28.7901
   -28.5548 -28.5548 -28.5257 -28.5257 -27.3295 -27.3295 -27.3288 -27.3288
   -27.3275 -27.3275 -27.3266 -27.3266 -27.3238 -27.3238 -27.3237 -27.3237
   -27.0915 -27.0915 -27.0799 -27.0799 -27.0536 -27.0536 -15.8350 -15.8350
   -15.8339 -15.8339 -15.8278 -15.8278 -15.8273 -15.8273 -12.8553 -12.8553
   -12.8536 -12.8535 -12.8474 -12.8474 -12.8466 -12.8466 -12.8379 -12.8379
   -12.8370 -12.8370  -2.7220  -2.7220  -2.5211  -2.5211  -1.8036  -1.8036
    -1.4228  -1.4228  -1.0421  -1.0421   4.0308   4.0308   4.6405   4.6405
     4.9697   4.9697   5.2635   5.2635   6.2409   6.2409   6.6707   6.6707
     6.9977   6.9977   7.2552   7.2552   7.5478   7.5478  10.1563  10.1563
    10.4322  10.4322  10.9914  10.9914  11.4532  11.4532  12.0863  12.0863
    12.7548  12.7548  13.0942  13.0942  13.6315  13.6315  14.7597  14.7597
    16.6704  16.6705  16.7222  16.7222  17.1314  17.1314  17.7739  17.7739
    17.9589  17.9589  18.1976  18.1976  18.3619  18.3619  18.9656  18.9656
    19.3167  19.3167  19.3960  19.3960  19.6953  19.6953  19.9037  19.9037
    20.5195  20.5195  21.1759  21.1759

     occupation numbers 
     1.0000   1.0000   1.0000   1.0000   1.0000   1.0000   1.0000   1.0000
     1.0000   1.0000   1.0000   1.0000   1.0000   1.0000   1.0000   1.0000
     1.0000   1.0000   1.0000   1.0000   1.0000   1.0000   1.0000   1.0000
     1.0000   1.0000   1.0000   1.0000   1.0000   1.0000   1.0000   1.0000
     1.0000   1.0000   1.0000   1.0000   1.0000   1.0000   1.0000   1.0000
     1.0000   1.0000   1.0000   1.0000   1.0000   1.0000   1.0000   1.0000
     1.0000   1.0000   1.0000   1.0000   1.0000   1.0000   1.0000   1.0000
     1.0000   1.0000   1.0000   1.0000   1.0000   1.0000   1.0000   1.0000
     1.0000   1.0000   1.0000   1.0000   1.0000   1.0000   1.0000   1.0000
     1.0000   1.0000   1.0000   1.0000   1.0000   1.0000  -0.0000  -0.0000
    -0.0000  -0.0000  -0.0000  -0.0000  -0.0000  -0.0000  -0.0000  -0.0000
    -0.0000  -0.0000  -0.0000  -0.0000  -0.0000  -0.0000  -0.0000  -0.0000
    -0.0000  -0.0000  -0.0000  -0.0000  -0.0000  -0.0000  -0.0000  -0.0000
    -0.0000  -0.0000  -0.0000  -0.0000  -0.0000  -0.0000  -0.0000  -0.0000
    -0.0000  -0.0000  -0.0000  -0.0000  -0.0000  -0.0000  -0.0000  -0.0000
    -0.0000  -0.0000  -0.0000  -0.0000

          k =-0.1666-0.8562 1.3579 ( 11936 PWs)   bands (ev):

   -28.7940 -28.7939 -28.7938 -28.7938 -28.7901 -28.7901 -28.7901 -28.7901
   -28.5548 -28.5548 -28.5257 -28.5257 -27.3296 -27.3296 -27.3286 -27.3286
   -27.3276 -27.3275 -27.3266 -27.3266 -27.3238 -27.3238 -27.3237 -27.3236
   -27.0915 -27.0915 -27.0799 -27.0799 -27.0535 -27.0535 -15.8349 -15.8349
   -15.8332 -15.8332 -15.8281 -15.8281 -15.8273 -15.8273 -12.8534 -12.8534
   -12.8515 -12.8515 -12.8495 -12.8495 -12.8477 -12.8477 -12.8375 -12.8374
   -12.8374 -12.8374  -1.9560  -1.9560  -1.9407  -1.9407  -1.9110  -1.9110
    -1.8819  -1.8819  -1.7752  -1.7752   4.0985   4.0985   4.5319   4.5319
     4.6591   4.6591   5.0808   5.0808   5.5424   5.5424   6.2671   6.2671
     6.9657   6.9657   7.7016   7.7016   7.8886   7.8886   9.6145   9.6145
    10.4883  10.4883  11.1435  11.1435  12.0198  12.0198  12.5270  12.5270
    12.8971  12.8971  14.2688  14.2688  14.7129  14.7129  14.9199  14.9199
    15.0287  15.0287  15.4299  15.4299  16.4837  16.4837  17.3302  17.3302
    17.5002  17.5002  18.5056  18.5056  18.6024  18.6024  18.9392  18.9392
    19.1968  19.1968  19.8683  19.8683  20.1003  20.1003  21.0763  21.0763
    21.5588  21.5588  21.8311  21.8315

     occupation numbers 
     1.0000   1.0000   1.0000   1.0000   1.0000   1.0000   1.0000   1.0000
     1.0000   1.0000   1.0000   1.0000   1.0000   1.0000   1.0000   1.0000
     1.0000   1.0000   1.0000   1.0000   1.0000   1.0000   1.0000   1.0000
     1.0000   1.0000   1.0000   1.0000   1.0000   1.0000   1.0000   1.0000
     1.0000   1.0000   1.0000   1.0000   1.0000   1.0000   1.0000   1.0000
     1.0000   1.0000   1.0000   1.0000   1.0000   1.0000   1.0000   1.0000
     1.0000   1.0000   1.0000   1.0000   1.0000   1.0000   1.0000   1.0000
     1.0000   1.0000   1.0000   1.0000   1.0000   1.0000   1.0000   1.0000
     1.0000   1.0000   1.0000   1.0000   1.0000   1.0000   1.0000   1.0000
     1.0000   1.0000   1.0000   1.0000   1.0000   1.0000  -0.0000  -0.0000
    -0.0000  -0.0000  -0.0000  -0.0000  -0.0000  -0.0000  -0.0000  -0.0000
    -0.0000  -0.0000  -0.0000  -0.0000  -0.0000  -0.0000  -0.0000  -0.0000
    -0.0000  -0.0000  -0.0000  -0.0000  -0.0000  -0.0000  -0.0000  -0.0000
    -0.0000  -0.0000  -0.0000  -0.0000  -0.0000  -0.0000  -0.0000  -0.0000
    -0.0000  -0.0000  -0.0000  -0.0000  -0.0000  -0.0000  -0.0000  -0.0000
    -0.0000  -0.0000  -0.0000  -0.0000

          k =-0.1670-0.8563 1.8247 ( 11915 PWs)   bands (ev):

   -28.7941 -28.7941 -28.7936 -28.7936 -28.7903 -28.7903 -28.7901 -28.7901
   -28.5548 -28.5548 -28.5257 -28.5257 -27.3295 -27.3295 -27.3288 -27.3288
   -27.3275 -27.3275 -27.3266 -27.3266 -27.3238 -27.3238 -27.3237 -27.3237
   -27.0915 -27.0915 -27.0799 -27.0799 -27.0536 -27.0536 -15.8350 -15.8350
   -15.8339 -15.8339 -15.8278 -15.8278 -15.8273 -15.8273 -12.8553 -12.8553
   -12.8536 -12.8535 -12.8474 -12.8474 -12.8466 -12.8466 -12.8378 -12.8378
   -12.8370 -12.8370  -2.7117  -2.7117  -2.5203  -2.5203  -1.8763  -1.8763
    -1.3000  -1.3000  -1.1032  -1.1032   4.2156   4.2156   4.7078   4.7078
     4.8313   4.8313   5.1531   5.1531   5.7735   5.7735   6.2437   6.2437
     7.6044   7.6044   7.8637   7.8637   8.0938   8.0938   9.3481   9.3481
    10.0177  10.0177  10.4394  10.4394  11.7561  11.7562  12.3719  12.3719
    12.8348  12.8348  13.2832  13.2832  14.1745  14.1745  14.9967  14.9967
    15.8459  15.8459  16.2108  16.2108  16.9283  16.9283  17.8334  17.8334
    17.9915  17.9915  18.2871  18.2871  18.8459  18.8459  19.0331  19.0331
    19.4103  19.4103  19.8501  19.8501  19.9763  19.9763  20.3854  20.3854
    20.6451  20.6451  20.9447  20.9448

     occupation numbers 
     1.0000   1.0000   1.0000   1.0000   1.0000   1.0000   1.0000   1.0000
     1.0000   1.0000   1.0000   1.0000   1.0000   1.0000   1.0000   1.0000
     1.0000   1.0000   1.0000   1.0000   1.0000   1.0000   1.0000   1.0000
     1.0000   1.0000   1.0000   1.0000   1.0000   1.0000   1.0000   1.0000
     1.0000   1.0000   1.0000   1.0000   1.0000   1.0000   1.0000   1.0000
     1.0000   1.0000   1.0000   1.0000   1.0000   1.0000   1.0000   1.0000
     1.0000   1.0000   1.0000   1.0000   1.0000   1.0000   1.0000   1.0000
     1.0000   1.0000   1.0000   1.0000   1.0000   1.0000   1.0000   1.0000
     1.0000   1.0000   1.0000   1.0000   1.0000   1.0000   1.0000   1.0000
     1.0000   1.0000   1.0000   1.0000   1.0000   1.0000  -0.0000  -0.0000
    -0.0000  -0.0000  -0.0000  -0.0000  -0.0000  -0.0000  -0.0000  -0.0000
    -0.0000  -0.0000  -0.0000  -0.0000  -0.0000  -0.0000  -0.0000  -0.0000
    -0.0000  -0.0000  -0.0000  -0.0000  -0.0000  -0.0000  -0.0000  -0.0000
    -0.0000  -0.0000  -0.0000  -0.0000  -0.0000  -0.0000  -0.0000  -0.0000
    -0.0000  -0.0000  -0.0000  -0.0000  -0.0000  -0.0000  -0.0000  -0.0000
    -0.0000  -0.0000  -0.0000  -0.0000

          k =-0.1648-0.8558-0.5092 ( 11898 PWs)   bands (ev):

   -28.7943 -28.7943 -28.7935 -28.7935 -28.7904 -28.7904 -28.7901 -28.7901
   -28.5548 -28.5548 -28.5258 -28.5258 -27.3294 -27.3294 -27.3290 -27.3290
   -27.3276 -27.3276 -27.3265 -27.3265 -27.3240 -27.3240 -27.3238 -27.3238
   -27.0915 -27.0915 -27.0799 -27.0799 -27.0537 -27.0537 -15.8351 -15.8351
   -15.8349 -15.8349 -15.8276 -15.8276 -15.8272 -15.8272 -12.8557 -12.8557
   -12.8546 -12.8546 -12.8465 -12.8465 -12.8461 -12.8461 -12.8386 -12.8386
   -12.8374 -12.8374  -3.2839  -3.2839  -2.9962  -2.9962  -1.8747  -1.8747
    -0.9037  -0.9037  -0.5354  -0.5354   4.1769   4.1769   5.0207   5.0207
     5.4723   5.4723   5.9951   5.9951   6.1103   6.1103   6.7977   6.7977
     7.2320   7.2320   7.5594   7.5594   7.8471   7.8471   9.5228   9.5228
    10.4797  10.4797  10.6582  10.6582  10.9762  10.9762  11.9378  11.9378
    12.5224  12.5224  12.7400  12.7400  13.9197  13.9197  15.4471  15.4471
    15.7730  15.7730  16.2625  16.2625  16.3816  16.3816  16.7445  16.7445
    16.8000  16.8000  17.5169  17.5169  18.4751  18.4751  18.9771  18.9771
    19.4892  19.4892  19.5473  19.5473  19.8427  19.8427  20.3118  20.3118
    20.6091  20.6091  21.3310  21.3320

     occupation numbers 
     1.0000   1.0000   1.0000   1.0000   1.0000   1.0000   1.0000   1.0000
     1.0000   1.0000   1.0000   1.0000   1.0000   1.0000   1.0000   1.0000
     1.0000   1.0000   1.0000   1.0000   1.0000   1.0000   1.0000   1.0000
     1.0000   1.0000   1.0000   1.0000   1.0000   1.0000   1.0000   1.0000
     1.0000   1.0000   1.0000   1.0000   1.0000   1.0000   1.0000   1.0000
     1.0000   1.0000   1.0000   1.0000   1.0000   1.0000   1.0000   1.0000
     1.0000   1.0000   1.0000   1.0000   1.0000   1.0000   1.0000   1.0000
     1.0000   1.0000   1.0000   1.0000   1.0000   1.0000   1.0000   1.0000
     1.0000   1.0000   1.0000   1.0000   1.0000   1.0000   1.0000   1.0000
     1.0000   1.0000   1.0000   1.0000   1.0000   1.0000  -0.0000  -0.0000
    -0.0000  -0.0000  -0.0000  -0.0000  -0.0000  -0.0000  -0.0000  -0.0000
    -0.0000  -0.0000  -0.0000  -0.0000  -0.0000  -0.0000  -0.0000  -0.0000
    -0.0000  -0.0000  -0.0000  -0.0000  -0.0000  -0.0000  -0.0000  -0.0000
    -0.0000  -0.0000  -0.0000  -0.0000  -0.0000  -0.0000  -0.0000  -0.0000
    -0.0000  -0.0000  -0.0000  -0.0000  -0.0000  -0.0000  -0.0000  -0.0000
    -0.0000  -0.0000  -0.0000  -0.0000

          k =-0.1652-0.8559-0.0424 ( 11894 PWs)   bands (ev):

   -28.7944 -28.7944 -28.7934 -28.7934 -28.7905 -28.7905 -28.7901 -28.7901
   -28.5549 -28.5549 -28.5258 -28.5258 -27.3295 -27.3295 -27.3290 -27.3290
   -27.3277 -27.3277 -27.3264 -27.3264 -27.3241 -27.3241 -27.3238 -27.3238
   -27.0916 -27.0916 -27.0798 -27.0798 -27.0538 -27.0538 -15.8355 -15.8355
   -15.8349 -15.8349 -15.8277 -15.8277 -15.8271 -15.8271 -12.8555 -12.8554
   -12.8538 -12.8538 -12.8467 -12.8467 -12.8463 -12.8462 -12.8393 -12.8393
   -12.8383 -12.8383  -3.4912  -3.4912  -3.1692  -3.1692  -1.8558  -1.8558
    -0.8709  -0.8709  -0.2330  -0.2330   4.6095   4.6095   4.9951   4.9951
     5.3815   5.3815   5.9595   5.9595   6.4569   6.4569   6.8668   6.8668
     7.3114   7.3114   7.8102   7.8102   7.9431   7.9431   9.7519   9.7519
     9.8968   9.8968  10.8878  10.8878  11.3867  11.3867  11.8147  11.8147
    12.2711  12.2711  13.4014  13.4014  13.4267  13.4267  14.2107  14.2107
    14.7799  14.7799  16.4915  16.4915  16.7050  16.7050  16.8840  16.8840
    17.2695  17.2695  17.6380  17.6380  17.9519  17.9519  18.2796  18.2796
    18.6123  18.6123  18.7090  18.7090  18.9940  18.9940  19.7864  19.7864
    20.2255  20.2255  20.4687  20.4687

     occupation numbers 
     1.0000   1.0000   1.0000   1.0000   1.0000   1.0000   1.0000   1.0000
     1.0000   1.0000   1.0000   1.0000   1.0000   1.0000   1.0000   1.0000
     1.0000   1.0000   1.0000   1.0000   1.0000   1.0000   1.0000   1.0000
     1.0000   1.0000   1.0000   1.0000   1.0000   1.0000   1.0000   1.0000
     1.0000   1.0000   1.0000   1.0000   1.0000   1.0000   1.0000   1.0000
     1.0000   1.0000   1.0000   1.0000   1.0000   1.0000   1.0000   1.0000
     1.0000   1.0000   1.0000   1.0000   1.0000   1.0000   1.0000   1.0000
     1.0000   1.0000   1.0000   1.0000   1.0000   1.0000   1.0000   1.0000
     1.0000   1.0000   1.0000   1.0000   1.0000   1.0000   1.0000   1.0000
     1.0000   1.0000   1.0000   1.0000   1.0000   1.0000  -0.0000  -0.0000
    -0.0000  -0.0000  -0.0000  -0.0000  -0.0000  -0.0000  -0.0000  -0.0000
    -0.0000  -0.0000  -0.0000  -0.0000  -0.0000  -0.0000  -0.0000  -0.0000
    -0.0000  -0.0000  -0.0000  -0.0000  -0.0000  -0.0000  -0.0000  -0.0000
    -0.0000  -0.0000  -0.0000  -0.0000  -0.0000  -0.0000  -0.0000  -0.0000
    -0.0000  -0.0000  -0.0000  -0.0000  -0.0000  -0.0000  -0.0000  -0.0000
    -0.0000  -0.0000  -0.0000  -0.0000

          k =-0.1657-0.8560 0.4243 ( 11904 PWs)   bands (ev):

   -28.7943 -28.7943 -28.7935 -28.7935 -28.7904 -28.7904 -28.7901 -28.7901
   -28.5549 -28.5549 -28.5258 -28.5258 -27.3294 -27.3294 -27.3290 -27.3290
   -27.3276 -27.3276 -27.3265 -27.3265 -27.3240 -27.3240 -27.3238 -27.3238
   -27.0915 -27.0915 -27.0799 -27.0799 -27.0537 -27.0537 -15.8351 -15.8351
   -15.8349 -15.8349 -15.8276 -15.8276 -15.8272 -15.8272 -12.8557 -12.8557
   -12.8546 -12.8546 -12.8465 -12.8465 -12.8461 -12.8461 -12.8387 -12.8387
   -12.8374 -12.8374  -3.2924  -3.2924  -2.9918  -2.9918  -1.8071  -1.8071
    -1.0884  -1.0884  -0.4123  -0.4123   4.4195   4.4195   4.8318   4.8318
     5.3598   5.3598   5.7349   5.7349   6.2632   6.2632   6.4459   6.4459
     7.5047   7.5047   8.0204   8.0204   8.3676   8.3676   8.9728   8.9728
    10.0405  10.0405  10.3627  10.3627  11.0458  11.0458  12.1696  12.1696
    12.5478  12.5478  13.0457  13.0457  13.8799  13.8799  15.1414  15.1414
    16.1760  16.1760  16.3319  16.3319  16.6975  16.6975  16.8422  16.8422
    17.4408  17.4408  17.7546  17.7546  17.9745  17.9745  18.2801  18.2801
    18.8160  18.8160  19.1540  19.1540  19.6821  19.6821  20.0035  20.0035
    20.3165  20.3165  20.7336  20.7336

     occupation numbers 
     1.0000   1.0000   1.0000   1.0000   1.0000   1.0000   1.0000   1.0000
     1.0000   1.0000   1.0000   1.0000   1.0000   1.0000   1.0000   1.0000
     1.0000   1.0000   1.0000   1.0000   1.0000   1.0000   1.0000   1.0000
     1.0000   1.0000   1.0000   1.0000   1.0000   1.0000   1.0000   1.0000
     1.0000   1.0000   1.0000   1.0000   1.0000   1.0000   1.0000   1.0000
     1.0000   1.0000   1.0000   1.0000   1.0000   1.0000   1.0000   1.0000
     1.0000   1.0000   1.0000   1.0000   1.0000   1.0000   1.0000   1.0000
     1.0000   1.0000   1.0000   1.0000   1.0000   1.0000   1.0000   1.0000
     1.0000   1.0000   1.0000   1.0000   1.0000   1.0000   1.0000   1.0000
     1.0000   1.0000   1.0000   1.0000   1.0154   1.0154  -0.0005  -0.0005
    -0.0000  -0.0000  -0.0000  -0.0000  -0.0000  -0.0000  -0.0000  -0.0000
    -0.0000  -0.0000  -0.0000  -0.0000  -0.0000  -0.0000  -0.0000  -0.0000
    -0.0000  -0.0000  -0.0000  -0.0000  -0.0000  -0.0000  -0.0000  -0.0000
    -0.0000  -0.0000  -0.0000  -0.0000  -0.0000  -0.0000  -0.0000  -0.0000
    -0.0000  -0.0000  -0.0000  -0.0000  -0.0000  -0.0000  -0.0000  -0.0000
    -0.0000  -0.0000  -0.0000  -0.0000

          k =-0.1666-0.4459 0.6683 ( 11897 PWs)   bands (ev):

   -28.7944 -28.7944 -28.7934 -28.7934 -28.7905 -28.7905 -28.7901 -28.7901
   -28.5549 -28.5549 -28.5258 -28.5258 -27.3295 -27.3295 -27.3290 -27.3290
   -27.3277 -27.3277 -27.3264 -27.3264 -27.3241 -27.3241 -27.3238 -27.3238
   -27.0916 -27.0916 -27.0799 -27.0799 -27.0538 -27.0538 -15.8355 -15.8355
   -15.8349 -15.8349 -15.8277 -15.8277 -15.8271 -15.8271 -12.8555 -12.8555
   -12.8538 -12.8538 -12.8467 -12.8467 -12.8463 -12.8462 -12.8393 -12.8393
   -12.8383 -12.8383  -3.5405  -3.5405  -3.0707  -3.0707  -1.9774  -1.9774
    -0.7274  -0.7274  -0.3040  -0.3040   4.6983   4.6983   5.0674   5.0674
     5.3065   5.3065   5.7882   5.7882   6.4361   6.4361   6.6351   6.6351
     7.4676   7.4676   8.0769   8.0769   8.1836   8.1836   9.4658   9.4658
     9.7496   9.7497  10.5984  10.5984  11.4781  11.4781  12.0616  12.0616
    12.4593  12.4593  13.2274  13.2274  13.3250  13.3250  14.7813  14.7813
    15.3005  15.3005  16.2031  16.2031  16.3479  16.3479  16.4807  16.4807
    16.9649  16.9649  17.2266  17.2266  17.4272  17.4272  18.1219  18.1219
    18.7522  18.7522  19.1214  19.1214  19.5838  19.5838  20.1692  20.1692
    20.4436  20.4436  20.8013  20.8014

     occupation numbers 
     1.0000   1.0000   1.0000   1.0000   1.0000   1.0000   1.0000   1.0000
     1.0000   1.0000   1.0000   1.0000   1.0000   1.0000   1.0000   1.0000
     1.0000   1.0000   1.0000   1.0000   1.0000   1.0000   1.0000   1.0000
     1.0000   1.0000   1.0000   1.0000   1.0000   1.0000   1.0000   1.0000
     1.0000   1.0000   1.0000   1.0000   1.0000   1.0000   1.0000   1.0000
     1.0000   1.0000   1.0000   1.0000   1.0000   1.0000   1.0000   1.0000
     1.0000   1.0000   1.0000   1.0000   1.0000   1.0000   1.0000   1.0000
     1.0000   1.0000   1.0000   1.0000   1.0000   1.0000   1.0000   1.0000
     1.0000   1.0000   1.0000   1.0000   1.0000   1.0000   1.0000   1.0000
     1.0000   1.0000   1.0000   1.0000   1.0000   1.0000  -0.0000  -0.0000
    -0.0000  -0.0000  -0.0000  -0.0000  -0.0000  -0.0000  -0.0000  -0.0000
    -0.0000  -0.0000  -0.0000  -0.0000  -0.0000  -0.0000  -0.0000  -0.0000
    -0.0000  -0.0000  -0.0000  -0.0000  -0.0000  -0.0000  -0.0000  -0.0000
    -0.0000  -0.0000  -0.0000  -0.0000  -0.0000  -0.0000  -0.0000  -0.0000
    -0.0000  -0.0000  -0.0000  -0.0000  -0.0000  -0.0000  -0.0000  -0.0000
    -0.0000  -0.0000  -0.0000  -0.0000

          k =-0.1670-0.4460 1.1351 ( 11915 PWs)   bands (ev):

   -28.7941 -28.7941 -28.7936 -28.7936 -28.7903 -28.7903 -28.7901 -28.7901
   -28.5548 -28.5548 -28.5257 -28.5257 -27.3295 -27.3295 -27.3288 -27.3288
   -27.3275 -27.3275 -27.3266 -27.3266 -27.3238 -27.3238 -27.3237 -27.3237
   -27.0915 -27.0915 -27.0799 -27.0799 -27.0536 -27.0536 -15.8350 -15.8350
   -15.8339 -15.8339 -15.8278 -15.8278 -15.8273 -15.8273 -12.8553 -12.8553
   -12.8536 -12.8535 -12.8474 -12.8474 -12.8466 -12.8466 -12.8379 -12.8379
   -12.8370 -12.8370  -2.7643  -2.7643  -2.4370  -2.4370  -1.8783  -1.8783
    -1.3996  -1.3996  -1.0322  -1.0322   3.9578   3.9578   4.7870   4.7870
     5.0429   5.0429   5.5101   5.5101   5.8489   5.8489   6.0819   6.0819
     6.9446   6.9446   7.8661   7.8661   7.9943   7.9943   9.6500   9.6500
    10.0218  10.0218  11.1305  11.1305  11.6969  11.6969  12.3545  12.3545
    12.6556  12.6556  12.8228  12.8228  14.6435  14.6435  14.7853  14.7853
    15.6865  15.6865  16.1409  16.1409  16.8825  16.8825  17.7748  17.7748
    17.8375  17.8375  18.0599  18.0599  18.5921  18.5921  19.3198  19.3198
    19.3735  19.3735  19.8652  19.8652  20.4272  20.4272  20.6799  20.6799
    20.9284  20.9284  21.1373  21.1373

     occupation numbers 
     1.0000   1.0000   1.0000   1.0000   1.0000   1.0000   1.0000   1.0000
     1.0000   1.0000   1.0000   1.0000   1.0000   1.0000   1.0000   1.0000
     1.0000   1.0000   1.0000   1.0000   1.0000   1.0000   1.0000   1.0000
     1.0000   1.0000   1.0000   1.0000   1.0000   1.0000   1.0000   1.0000
     1.0000   1.0000   1.0000   1.0000   1.0000   1.0000   1.0000   1.0000
     1.0000   1.0000   1.0000   1.0000   1.0000   1.0000   1.0000   1.0000
     1.0000   1.0000   1.0000   1.0000   1.0000   1.0000   1.0000   1.0000
     1.0000   1.0000   1.0000   1.0000   1.0000   1.0000   1.0000   1.0000
     1.0000   1.0000   1.0000   1.0000   1.0000   1.0000   1.0000   1.0000
     1.0000   1.0000   1.0000   1.0000   1.0000   1.0000  -0.0000  -0.0000
    -0.0000  -0.0000  -0.0000  -0.0000  -0.0000  -0.0000  -0.0000  -0.0000
    -0.0000  -0.0000  -0.0000  -0.0000  -0.0000  -0.0000  -0.0000  -0.0000
    -0.0000  -0.0000  -0.0000  -0.0000  -0.0000  -0.0000  -0.0000  -0.0000
    -0.0000  -0.0000  -0.0000  -0.0000  -0.0000  -0.0000  -0.0000  -0.0000
    -0.0000  -0.0000  -0.0000  -0.0000  -0.0000  -0.0000  -0.0000  -0.0000
    -0.0000  -0.0000  -0.0000  -0.0000

          k =-0.1675-0.4461 1.6019 ( 11918 PWs)   bands (ev):

   -28.7941 -28.7941 -28.7936 -28.7936 -28.7903 -28.7903 -28.7901 -28.7901
   -28.5548 -28.5548 -28.5257 -28.5257 -27.3295 -27.3295 -27.3288 -27.3288
   -27.3275 -27.3275 -27.3266 -27.3266 -27.3238 -27.3238 -27.3237 -27.3237
   -27.0915 -27.0915 -27.0799 -27.0799 -27.0536 -27.0536 -15.8350 -15.8350
   -15.8339 -15.8339 -15.8278 -15.8278 -15.8273 -15.8273 -12.8553 -12.8553
   -12.8536 -12.8535 -12.8474 -12.8474 -12.8466 -12.8466 -12.8379 -12.8379
   -12.8370 -12.8370  -2.6908  -2.6908  -2.5576  -2.5576  -1.8328  -1.8328
    -1.3486  -1.3486  -1.0818  -1.0818   4.1779   4.1779   4.6719   4.6719
     4.8396   4.8396   5.0870   5.0870   6.0372   6.0372   6.5574   6.5574
     7.2968   7.2968   7.5101   7.5101   7.8450   7.8450   9.6841   9.6841
    10.3260  10.3260  10.6886  10.6886  11.5674  11.5674  12.1590  12.1590
    12.9183  12.9183  13.2538  13.2538  13.7364  13.7364  14.8310  14.8310
    16.2055  16.2055  16.8654  16.8654  17.1129  17.1129  17.7852  17.7852
    17.9819  17.9819  18.2055  18.2055  18.6554  18.6554  18.7993  18.7993
    19.3075  19.3075  19.6576  19.6576  19.8438  19.8438  19.9980  19.9980
    20.3874  20.3874  21.0897  21.0902

     occupation numbers 
     1.0000   1.0000   1.0000   1.0000   1.0000   1.0000   1.0000   1.0000
     1.0000   1.0000   1.0000   1.0000   1.0000   1.0000   1.0000   1.0000
     1.0000   1.0000   1.0000   1.0000   1.0000   1.0000   1.0000   1.0000
     1.0000   1.0000   1.0000   1.0000   1.0000   1.0000   1.0000   1.0000
     1.0000   1.0000   1.0000   1.0000   1.0000   1.0000   1.0000   1.0000
     1.0000   1.0000   1.0000   1.0000   1.0000   1.0000   1.0000   1.0000
     1.0000   1.0000   1.0000   1.0000   1.0000   1.0000   1.0000   1.0000
     1.0000   1.0000   1.0000   1.0000   1.0000   1.0000   1.0000   1.0000
     1.0000   1.0000   1.0000   1.0000   1.0000   1.0000   1.0000   1.0000
     1.0000   1.0000   1.0000   1.0000   1.0000   1.0000  -0.0000  -0.0000
    -0.0000  -0.0000  -0.0000  -0.0000  -0.0000  -0.0000  -0.0000  -0.0000
    -0.0000  -0.0000  -0.0000  -0.0000  -0.0000  -0.0000  -0.0000  -0.0000
    -0.0000  -0.0000  -0.0000  -0.0000  -0.0000  -0.0000  -0.0000  -0.0000
    -0.0000  -0.0000  -0.0000  -0.0000  -0.0000  -0.0000  -0.0000  -0.0000
    -0.0000  -0.0000  -0.0000  -0.0000  -0.0000  -0.0000  -0.0000  -0.0000
    -0.0000  -0.0000  -0.0000  -0.0000

          k =-0.1652-0.4457-0.7320 ( 11894 PWs)   bands (ev):

   -28.7944 -28.7944 -28.7934 -28.7934 -28.7905 -28.7905 -28.7901 -28.7901
   -28.5549 -28.5549 -28.5258 -28.5258 -27.3295 -27.3295 -27.3290 -27.3290
   -27.3277 -27.3277 -27.3264 -27.3264 -27.3241 -27.3241 -27.3238 -27.3238
   -27.0916 -27.0916 -27.0798 -27.0798 -27.0538 -27.0538 -15.8355 -15.8355
   -15.8349 -15.8349 -15.8277 -15.8277 -15.8271 -15.8271 -12.8555 -12.8554
   -12.8538 -12.8538 -12.8467 -12.8467 -12.8463 -12.8462 -12.8393 -12.8393
   -12.8383 -12.8383  -3.4912  -3.4912  -3.1692  -3.1692  -1.8558  -1.8558
    -0.8709  -0.8709  -0.2330  -0.2330   4.6095   4.6095   4.9951   4.9951
     5.3815   5.3815   5.9595   5.9595   6.4569   6.4569   6.8668   6.8668
     7.3114   7.3114   7.8102   7.8102   7.9431   7.9431   9.7519   9.7519
     9.8968   9.8968  10.8878  10.8878  11.3867  11.3867  11.8147  11.8147
    12.2711  12.2711  13.4014  13.4014  13.4267  13.4267  14.2107  14.2107
    14.7799  14.7799  16.4915  16.4915  16.7050  16.7050  16.8840  16.8840
    17.2695  17.2695  17.6380  17.6380  17.9519  17.9519  18.2796  18.2796
    18.6123  18.6123  18.7090  18.7090  18.9940  18.9940  19.7864  19.7864
    20.2255  20.2255  20.4687  20.4687

     occupation numbers 
     1.0000   1.0000   1.0000   1.0000   1.0000   1.0000   1.0000   1.0000
     1.0000   1.0000   1.0000   1.0000   1.0000   1.0000   1.0000   1.0000
     1.0000   1.0000   1.0000   1.0000   1.0000   1.0000   1.0000   1.0000
     1.0000   1.0000   1.0000   1.0000   1.0000   1.0000   1.0000   1.0000
     1.0000   1.0000   1.0000   1.0000   1.0000   1.0000   1.0000   1.0000
     1.0000   1.0000   1.0000   1.0000   1.0000   1.0000   1.0000   1.0000
     1.0000   1.0000   1.0000   1.0000   1.0000   1.0000   1.0000   1.0000
     1.0000   1.0000   1.0000   1.0000   1.0000   1.0000   1.0000   1.0000
     1.0000   1.0000   1.0000   1.0000   1.0000   1.0000   1.0000   1.0000
     1.0000   1.0000   1.0000   1.0000   1.0000   1.0000  -0.0000  -0.0000
    -0.0000  -0.0000  -0.0000  -0.0000  -0.0000  -0.0000  -0.0000  -0.0000
    -0.0000  -0.0000  -0.0000  -0.0000  -0.0000  -0.0000  -0.0000  -0.0000
    -0.0000  -0.0000  -0.0000  -0.0000  -0.0000  -0.0000  -0.0000  -0.0000
    -0.0000  -0.0000  -0.0000  -0.0000  -0.0000  -0.0000  -0.0000  -0.0000
    -0.0000  -0.0000  -0.0000  -0.0000  -0.0000  -0.0000  -0.0000  -0.0000
    -0.0000  -0.0000  -0.0000  -0.0000

          k =-0.1657-0.4457-0.2652 ( 11898 PWs)   bands (ev):

   -28.7946 -28.7946 -28.7932 -28.7932 -28.7907 -28.7907 -28.7901 -28.7901
   -28.5549 -28.5549 -28.5259 -28.5259 -27.3295 -27.3295 -27.3290 -27.3290
   -27.3280 -27.3280 -27.3263 -27.3263 -27.3243 -27.3243 -27.3240 -27.3240
   -27.0916 -27.0916 -27.0798 -27.0798 -27.0540 -27.0540 -15.8361 -15.8361
   -15.8359 -15.8359 -15.8275 -15.8275 -15.8269 -15.8269 -12.8561 -12.8561
   -12.8549 -12.8549 -12.8455 -12.8455 -12.8453 -12.8453 -12.8406 -12.8406
   -12.8394 -12.8394  -3.9457  -3.9457  -3.5251  -3.5251  -2.0824  -2.0824
    -0.5674  -0.5674   0.3567   0.3567   5.2778   5.2778   5.7236   5.7236
     5.9775   5.9775   6.6650   6.6650   6.8496   6.8496   7.2053   7.2053
     7.6876   7.6876   7.9188   7.9188   8.2421   8.2421   9.1032   9.1032
     9.7390   9.7390  10.3114  10.3114  10.8404  10.8404  11.5754  11.5754
    11.8205  11.8205  13.4132  13.4132  13.9007  13.9007  14.4671  14.4671
    14.8723  14.8723  15.5321  15.5321  15.6839  15.6839  16.2565  16.2565
    16.2983  16.2983  16.4815  16.4815  16.6303  16.6303  17.2876  17.2876
    17.6542  17.6542  18.0715  18.0715  19.0559  19.0559  19.2520  19.2520
    19.5254  19.5254  19.8632  19.8632

     occupation numbers 
     1.0000   1.0000   1.0000   1.0000   1.0000   1.0000   1.0000   1.0000
     1.0000   1.0000   1.0000   1.0000   1.0000   1.0000   1.0000   1.0000
     1.0000   1.0000   1.0000   1.0000   1.0000   1.0000   1.0000   1.0000
     1.0000   1.0000   1.0000   1.0000   1.0000   1.0000   1.0000   1.0000
     1.0000   1.0000   1.0000   1.0000   1.0000   1.0000   1.0000   1.0000
     1.0000   1.0000   1.0000   1.0000   1.0000   1.0000   1.0000   1.0000
     1.0000   1.0000   1.0000   1.0000   1.0000   1.0000   1.0000   1.0000
     1.0000   1.0000   1.0000   1.0000   1.0000   1.0000   1.0000   1.0000
     1.0000   1.0000   1.0000   1.0000   1.0000   1.0000   1.0000   1.0000
     1.0000   1.0000   1.0000   1.0000   1.0005   1.0005  -0.0000  -0.0000
    -0.0000  -0.0000  -0.0000  -0.0000  -0.0000  -0.0000  -0.0000  -0.0000
    -0.0000  -0.0000  -0.0000  -0.0000  -0.0000  -0.0000  -0.0000  -0.0000
    -0.0000  -0.0000  -0.0000  -0.0000  -0.0000  -0.0000  -0.0000  -0.0000
    -0.0000  -0.0000  -0.0000  -0.0000  -0.0000  -0.0000  -0.0000  -0.0000
    -0.0000  -0.0000  -0.0000  -0.0000  -0.0000  -0.0000  -0.0000  -0.0000
    -0.0000  -0.0000  -0.0000  -0.0000

          k =-0.1661-0.4458 0.2016 ( 11906 PWs)   bands (ev):

   -28.7946 -28.7946 -28.7933 -28.7933 -28.7907 -28.7907 -28.7901 -28.7901
   -28.5549 -28.5549 -28.5259 -28.5259 -27.3295 -27.3295 -27.3290 -27.3290
   -27.3280 -27.3280 -27.3263 -27.3263 -27.3243 -27.3243 -27.3240 -27.3240
   -27.0916 -27.0916 -27.0798 -27.0798 -27.0540 -27.0540 -15.8361 -15.8361
   -15.8359 -15.8359 -15.8275 -15.8275 -15.8269 -15.8269 -12.8561 -12.8561
   -12.8549 -12.8549 -12.8455 -12.8455 -12.8453 -12.8453 -12.8406 -12.8406
   -12.8394 -12.8394  -3.9617  -3.9617  -3.4930  -3.4930  -2.1195  -2.1195
    -0.5389  -0.5389   0.3583   0.3583   5.3018   5.3018   5.5067   5.5067
     6.1681   6.1681   6.6048   6.6048   6.7748   6.7748   7.3011   7.3011
     7.7174   7.7174   7.9546   7.9546   8.3292   8.3292   8.9968   8.9968
     9.8698   9.8698  10.4049  10.4049  10.8911  10.8911  11.2706  11.2706
    11.6222  11.6222  13.1629  13.1629  14.1091  14.1091  14.6622  14.6622
    15.0537  15.0537  15.1993  15.1993  15.5457  15.5457  16.1658  16.1658
    16.5364  16.5364  17.1591  17.1591  17.5007  17.5007  17.6130  17.6130
    17.7540  17.7540  17.8598  17.8598  18.1629  18.1629  18.8660  18.8660
    19.0372  19.0372  19.5788  19.5788

     occupation numbers 
     1.0000   1.0000   1.0000   1.0000   1.0000   1.0000   1.0000   1.0000
     1.0000   1.0000   1.0000   1.0000   1.0000   1.0000   1.0000   1.0000
     1.0000   1.0000   1.0000   1.0000   1.0000   1.0000   1.0000   1.0000
     1.0000   1.0000   1.0000   1.0000   1.0000   1.0000   1.0000   1.0000
     1.0000   1.0000   1.0000   1.0000   1.0000   1.0000   1.0000   1.0000
     1.0000   1.0000   1.0000   1.0000   1.0000   1.0000   1.0000   1.0000
     1.0000   1.0000   1.0000   1.0000   1.0000   1.0000   1.0000   1.0000
     1.0000   1.0000   1.0000   1.0000   1.0000   1.0000   1.0000   1.0000
     1.0000   1.0000   1.0000   1.0000   1.0000   1.0000   1.0000   1.0000
     1.0000   1.0000   1.0000   1.0000   1.0066   1.0066  -0.0002  -0.0002
    -0.0000  -0.0000  -0.0000  -0.0000  -0.0000  -0.0000  -0.0000  -0.0000
    -0.0000  -0.0000  -0.0000  -0.0000  -0.0000  -0.0000  -0.0000  -0.0000
    -0.0000  -0.0000  -0.0000  -0.0000  -0.0000  -0.0000  -0.0000  -0.0000
    -0.0000  -0.0000  -0.0000  -0.0000  -0.0000  -0.0000  -0.0000  -0.0000
    -0.0000  -0.0000  -0.0000  -0.0000  -0.0000  -0.0000  -0.0000  -0.0000
    -0.0000  -0.0000  -0.0000  -0.0000

          k =-0.1670-0.0358 0.4456 ( 11889 PWs)   bands (ev):

   -28.7945 -28.7945 -28.7932 -28.7932 -28.7907 -28.7907 -28.7901 -28.7901
   -28.5549 -28.5549 -28.5259 -28.5259 -27.3295 -27.3295 -27.3290 -27.3290
   -27.3280 -27.3280 -27.3263 -27.3263 -27.3243 -27.3243 -27.3240 -27.3240
   -27.0916 -27.0916 -27.0798 -27.0798 -27.0540 -27.0540 -15.8361 -15.8361
   -15.8359 -15.8359 -15.8275 -15.8275 -15.8269 -15.8269 -12.8561 -12.8561
   -12.8549 -12.8549 -12.8455 -12.8455 -12.8454 -12.8453 -12.8406 -12.8406
   -12.8394 -12.8394  -3.9897  -3.9897  -3.4254  -3.4254  -2.2199  -2.2199
    -0.3377  -0.3377   0.2066   0.2066   5.3351   5.3351   5.6046   5.6046
     5.9751   5.9751   6.6487   6.6487   6.8496   6.8496   7.2791   7.2791
     7.7540   7.7540   7.9345   7.9345   8.1877   8.1877   9.3304   9.3304
     9.4735   9.4735  10.4847  10.4847  10.7642  10.7642  11.4263  11.4263
    11.8025  11.8025  13.2342  13.2342  13.8670  13.8670  14.8532  14.8532
    14.9305  14.9305  15.5200  15.5200  15.8760  15.8760  16.1348  16.1348
    16.1663  16.1663  16.7457  16.7457  16.8444  16.8444  17.2669  17.2669
    17.4561  17.4561  18.2451  18.2451  18.6619  18.6619  18.7628  18.7628
    19.3871  19.3871  19.7215  19.7216

     occupation numbers 
     1.0000   1.0000   1.0000   1.0000   1.0000   1.0000   1.0000   1.0000
     1.0000   1.0000   1.0000   1.0000   1.0000   1.0000   1.0000   1.0000
     1.0000   1.0000   1.0000   1.0000   1.0000   1.0000   1.0000   1.0000
     1.0000   1.0000   1.0000   1.0000   1.0000   1.0000   1.0000   1.0000
     1.0000   1.0000   1.0000   1.0000   1.0000   1.0000   1.0000   1.0000
     1.0000   1.0000   1.0000   1.0000   1.0000   1.0000   1.0000   1.0000
     1.0000   1.0000   1.0000   1.0000   1.0000   1.0000   1.0000   1.0000
     1.0000   1.0000   1.0000   1.0000   1.0000   1.0000   1.0000   1.0000
     1.0000   1.0000   1.0000   1.0000   1.0000   1.0000   1.0000   1.0000
     1.0000   1.0000   1.0000   1.0000   1.0001   1.0001  -0.0000  -0.0000
    -0.0000  -0.0000  -0.0000  -0.0000  -0.0000  -0.0000  -0.0000  -0.0000
    -0.0000  -0.0000  -0.0000  -0.0000  -0.0000  -0.0000  -0.0000  -0.0000
    -0.0000  -0.0000  -0.0000  -0.0000  -0.0000  -0.0000  -0.0000  -0.0000
    -0.0000  -0.0000  -0.0000  -0.0000  -0.0000  -0.0000  -0.0000  -0.0000
    -0.0000  -0.0000  -0.0000  -0.0000  -0.0000  -0.0000  -0.0000  -0.0000
    -0.0000  -0.0000  -0.0000  -0.0000

          k =-0.1675-0.0359 0.9123 ( 11916 PWs)   bands (ev):

   -28.7943 -28.7943 -28.7935 -28.7935 -28.7904 -28.7904 -28.7901 -28.7901
   -28.5549 -28.5549 -28.5258 -28.5258 -27.3294 -27.3294 -27.3290 -27.3290
   -27.3276 -27.3276 -27.3265 -27.3265 -27.3240 -27.3240 -27.3238 -27.3238
   -27.0915 -27.0915 -27.0799 -27.0799 -27.0537 -27.0537 -15.8351 -15.8351
   -15.8349 -15.8349 -15.8276 -15.8276 -15.8272 -15.8272 -12.8558 -12.8557
   -12.8546 -12.8546 -12.8465 -12.8465 -12.8461 -12.8461 -12.8387 -12.8387
   -12.8374 -12.8374  -3.3520  -3.3520  -2.8620  -2.8620  -1.9817  -1.9817
    -0.9179  -0.9179  -0.4725  -0.4725   4.1336   4.1336   5.0783   5.0783
     5.5317   5.5317   5.9992   5.9992   6.1847   6.1847   6.6928   6.6928
     7.0442   7.0442   7.5152   7.5152   7.8982   7.8982   9.5793   9.5793
    10.4951  10.4951  10.7025  10.7025  11.3223  11.3223  11.8859  11.8859
    12.3530  12.3530  12.4075  12.4075  14.5904  14.5904  14.9603  14.9603
    15.6007  15.6007  16.2302  16.2302  16.6300  16.6300  17.0540  17.0540
    17.5709  17.5709  17.7069  17.7069  17.7653  17.7653  18.4122  18.4122
    18.6273  18.6273  18.6852  18.6852  19.1761  19.1761  21.0759  21.0759
    21.2126  21.2126  21.5355  21.5358

     occupation numbers 
     1.0000   1.0000   1.0000   1.0000   1.0000   1.0000   1.0000   1.0000
     1.0000   1.0000   1.0000   1.0000   1.0000   1.0000   1.0000   1.0000
     1.0000   1.0000   1.0000   1.0000   1.0000   1.0000   1.0000   1.0000
     1.0000   1.0000   1.0000   1.0000   1.0000   1.0000   1.0000   1.0000
     1.0000   1.0000   1.0000   1.0000   1.0000   1.0000   1.0000   1.0000
     1.0000   1.0000   1.0000   1.0000   1.0000   1.0000   1.0000   1.0000
     1.0000   1.0000   1.0000   1.0000   1.0000   1.0000   1.0000   1.0000
     1.0000   1.0000   1.0000   1.0000   1.0000   1.0000   1.0000   1.0000
     1.0000   1.0000   1.0000   1.0000   1.0000   1.0000   1.0000   1.0000
     1.0000   1.0000   1.0000   1.0000   1.0000   1.0000  -0.0000  -0.0000
    -0.0000  -0.0000  -0.0000  -0.0000  -0.0000  -0.0000  -0.0000  -0.0000
    -0.0000  -0.0000  -0.0000  -0.0000  -0.0000  -0.0000  -0.0000  -0.0000
    -0.0000  -0.0000  -0.0000  -0.0000  -0.0000  -0.0000  -0.0000  -0.0000
    -0.0000  -0.0000  -0.0000  -0.0000  -0.0000  -0.0000  -0.0000  -0.0000
    -0.0000  -0.0000  -0.0000  -0.0000  -0.0000  -0.0000  -0.0000  -0.0000
    -0.0000  -0.0000  -0.0000  -0.0000

          k =-0.1679-0.0360 1.3791 ( 11935 PWs)   bands (ev):

   -28.7941 -28.7941 -28.7936 -28.7936 -28.7903 -28.7903 -28.7901 -28.7901
   -28.5548 -28.5548 -28.5257 -28.5257 -27.3294 -27.3294 -27.3289 -27.3289
   -27.3274 -27.3274 -27.3267 -27.3267 -27.3238 -27.3238 -27.3237 -27.3237
   -27.0915 -27.0915 -27.0799 -27.0799 -27.0536 -27.0536 -15.8346 -15.8346
   -15.8345 -15.8345 -15.8276 -15.8276 -15.8274 -15.8274 -12.8563 -12.8563
   -12.8556 -12.8556 -12.8464 -12.8464 -12.8458 -12.8458 -12.8375 -12.8375
   -12.8361 -12.8361  -2.5508  -2.5508  -2.5239  -2.5239  -2.1145  -2.1145
    -1.3928  -1.3928  -0.9527  -0.9527   3.7607   3.7607   4.9869   4.9869
     5.1810   5.1810   5.6357   5.6357   5.8995   5.8995   6.3794   6.3794
     6.7623   6.7623   7.6693   7.6693   8.0801   8.0801   9.2184   9.2184
    10.3670  10.3670  10.7731  10.7731  11.1281  11.1281  12.0134  12.0134
    12.4521  12.4521  12.8292  12.8292  13.8356  13.8356  16.3509  16.3509
    17.0614  17.0614  17.2942  17.2942  17.5110  17.5110  17.8302  17.8302
    18.1657  18.1657  18.3053  18.3053  18.9363  18.9363  19.0087  19.0087
    19.0911  19.0911  19.5511  19.5511  19.6696  19.6696  20.1499  20.1499
    20.2597  20.2597  20.7519  20.7520

     occupation numbers 
     1.0000   1.0000   1.0000   1.0000   1.0000   1.0000   1.0000   1.0000
     1.0000   1.0000   1.0000   1.0000   1.0000   1.0000   1.0000   1.0000
     1.0000   1.0000   1.0000   1.0000   1.0000   1.0000   1.0000   1.0000
     1.0000   1.0000   1.0000   1.0000   1.0000   1.0000   1.0000   1.0000
     1.0000   1.0000   1.0000   1.0000   1.0000   1.0000   1.0000   1.0000
     1.0000   1.0000   1.0000   1.0000   1.0000   1.0000   1.0000   1.0000
     1.0000   1.0000   1.0000   1.0000   1.0000   1.0000   1.0000   1.0000
     1.0000   1.0000   1.0000   1.0000   1.0000   1.0000   1.0000   1.0000
     1.0000   1.0000   1.0000   1.0000   1.0000   1.0000   1.0000   1.0000
     1.0000   1.0000   1.0000   1.0000   1.0000   1.0000  -0.0000  -0.0000
    -0.0000  -0.0000  -0.0000  -0.0000  -0.0000  -0.0000  -0.0000  -0.0000
    -0.0000  -0.0000  -0.0000  -0.0000  -0.0000  -0.0000  -0.0000  -0.0000
    -0.0000  -0.0000  -0.0000  -0.0000  -0.0000  -0.0000  -0.0000  -0.0000
    -0.0000  -0.0000  -0.0000  -0.0000  -0.0000  -0.0000  -0.0000  -0.0000
    -0.0000  -0.0000  -0.0000  -0.0000  -0.0000  -0.0000  -0.0000  -0.0000
    -0.0000  -0.0000  -0.0000  -0.0000

          k =-0.1657-0.0355-0.9548 ( 11904 PWs)   bands (ev):

   -28.7943 -28.7943 -28.7935 -28.7935 -28.7904 -28.7904 -28.7901 -28.7901
   -28.5549 -28.5549 -28.5258 -28.5258 -27.3294 -27.3294 -27.3290 -27.3290
   -27.3276 -27.3276 -27.3265 -27.3265 -27.3240 -27.3240 -27.3238 -27.3238
   -27.0915 -27.0915 -27.0799 -27.0799 -27.0537 -27.0537 -15.8351 -15.8351
   -15.8349 -15.8349 -15.8276 -15.8276 -15.8272 -15.8272 -12.8557 -12.8557
   -12.8546 -12.8546 -12.8465 -12.8465 -12.8461 -12.8461 -12.8387 -12.8387
   -12.8374 -12.8374  -3.2924  -3.2924  -2.9918  -2.9918  -1.8071  -1.8071
    -1.0884  -1.0884  -0.4123  -0.4123   4.4195   4.4195   4.8318   4.8318
     5.3598   5.3598   5.7349   5.7349   6.2632   6.2632   6.4459   6.4459
     7.5047   7.5047   8.0204   8.0204   8.3676   8.3676   8.9728   8.9728
    10.0405  10.0405  10.3627  10.3627  11.0458  11.0458  12.1696  12.1696
    12.5478  12.5478  13.0457  13.0457  13.8799  13.8799  15.1414  15.1414
    16.1760  16.1760  16.3319  16.3319  16.6975  16.6975  16.8422  16.8422
    17.4408  17.4408  17.7546  17.7546  17.9745  17.9745  18.2801  18.2801
    18.8160  18.8160  19.1540  19.1540  19.6821  19.6821  20.0035  20.0035
    20.3165  20.3165  20.7336  20.7336

     occupation numbers 
     1.0000   1.0000   1.0000   1.0000   1.0000   1.0000   1.0000   1.0000
     1.0000   1.0000   1.0000   1.0000   1.0000   1.0000   1.0000   1.0000
     1.0000   1.0000   1.0000   1.0000   1.0000   1.0000   1.0000   1.0000
     1.0000   1.0000   1.0000   1.0000   1.0000   1.0000   1.0000   1.0000
     1.0000   1.0000   1.0000   1.0000   1.0000   1.0000   1.0000   1.0000
     1.0000   1.0000   1.0000   1.0000   1.0000   1.0000   1.0000   1.0000
     1.0000   1.0000   1.0000   1.0000   1.0000   1.0000   1.0000   1.0000
     1.0000   1.0000   1.0000   1.0000   1.0000   1.0000   1.0000   1.0000
     1.0000   1.0000   1.0000   1.0000   1.0000   1.0000   1.0000   1.0000
     1.0000   1.0000   1.0000   1.0000   1.0154   1.0154  -0.0005  -0.0005
    -0.0000  -0.0000  -0.0000  -0.0000  -0.0000  -0.0000  -0.0000  -0.0000
    -0.0000  -0.0000  -0.0000  -0.0000  -0.0000  -0.0000  -0.0000  -0.0000
    -0.0000  -0.0000  -0.0000  -0.0000  -0.0000  -0.0000  -0.0000  -0.0000
    -0.0000  -0.0000  -0.0000  -0.0000  -0.0000  -0.0000  -0.0000  -0.0000
    -0.0000  -0.0000  -0.0000  -0.0000  -0.0000  -0.0000  -0.0000  -0.0000
    -0.0000  -0.0000  -0.0000  -0.0000

          k =-0.1661-0.0356-0.4880 ( 11906 PWs)   bands (ev):

   -28.7946 -28.7946 -28.7933 -28.7933 -28.7907 -28.7907 -28.7901 -28.7901
   -28.5549 -28.5549 -28.5259 -28.5259 -27.3295 -27.3295 -27.3290 -27.3290
   -27.3280 -27.3280 -27.3263 -27.3263 -27.3243 -27.3243 -27.3240 -27.3240
   -27.0916 -27.0916 -27.0798 -27.0798 -27.0540 -27.0540 -15.8361 -15.8361
   -15.8359 -15.8359 -15.8275 -15.8275 -15.8269 -15.8269 -12.8561 -12.8561
   -12.8549 -12.8549 -12.8455 -12.8455 -12.8453 -12.8453 -12.8406 -12.8406
   -12.8394 -12.8394  -3.9617  -3.9617  -3.4930  -3.4930  -2.1195  -2.1195
    -0.5389  -0.5389   0.3583   0.3583   5.3018   5.3018   5.5067   5.5067
     6.1681   6.1681   6.6048   6.6048   6.7748   6.7748   7.3011   7.3011
     7.7174   7.7174   7.9546   7.9546   8.3292   8.3292   8.9968   8.9968
     9.8698   9.8698  10.4049  10.4049  10.8911  10.8911  11.2706  11.2706
    11.6222  11.6222  13.1629  13.1629  14.1091  14.1091  14.6622  14.6622
    15.0537  15.0537  15.1993  15.1993  15.5457  15.5457  16.1658  16.1658
    16.5364  16.5364  17.1591  17.1591  17.5007  17.5007  17.6130  17.6130
    17.7540  17.7540  17.8598  17.8598  18.1629  18.1629  18.8660  18.8660
    19.0371  19.0371  19.5788  19.5790

     occupation numbers 
     1.0000   1.0000   1.0000   1.0000   1.0000   1.0000   1.0000   1.0000
     1.0000   1.0000   1.0000   1.0000   1.0000   1.0000   1.0000   1.0000
     1.0000   1.0000   1.0000   1.0000   1.0000   1.0000   1.0000   1.0000
     1.0000   1.0000   1.0000   1.0000   1.0000   1.0000   1.0000   1.0000
     1.0000   1.0000   1.0000   1.0000   1.0000   1.0000   1.0000   1.0000
     1.0000   1.0000   1.0000   1.0000   1.0000   1.0000   1.0000   1.0000
     1.0000   1.0000   1.0000   1.0000   1.0000   1.0000   1.0000   1.0000
     1.0000   1.0000   1.0000   1.0000   1.0000   1.0000   1.0000   1.0000
     1.0000   1.0000   1.0000   1.0000   1.0000   1.0000   1.0000   1.0000
     1.0000   1.0000   1.0000   1.0000   1.0066   1.0066  -0.0002  -0.0002
    -0.0000  -0.0000  -0.0000  -0.0000  -0.0000  -0.0000  -0.0000  -0.0000
    -0.0000  -0.0000  -0.0000  -0.0000  -0.0000  -0.0000  -0.0000  -0.0000
    -0.0000  -0.0000  -0.0000  -0.0000  -0.0000  -0.0000  -0.0000  -0.0000
    -0.0000  -0.0000  -0.0000  -0.0000  -0.0000  -0.0000  -0.0000  -0.0000
    -0.0000  -0.0000  -0.0000  -0.0000  -0.0000  -0.0000  -0.0000  -0.0000
    -0.0000  -0.0000  -0.0000  -0.0000

          k =-0.1666-0.0357-0.0212 ( 11900 PWs)   bands (ev):

   -28.7946 -28.7946 -28.7932 -28.7932 -28.7908 -28.7908 -28.7902 -28.7902
   -28.5549 -28.5549 -28.5260 -28.5260 -27.3295 -27.3295 -27.3289 -27.3289
   -27.3283 -27.3283 -27.3262 -27.3262 -27.3244 -27.3244 -27.3241 -27.3241
   -27.0917 -27.0917 -27.0798 -27.0798 -27.0541 -27.0541 -15.8367 -15.8367
   -15.8364 -15.8364 -15.8273 -15.8273 -15.8269 -15.8269 -12.8571 -12.8571
   -12.8560 -12.8560 -12.8445 -12.8445 -12.8442 -12.8442 -12.8415 -12.8415
   -12.8401 -12.8401  -4.2041  -4.2041  -3.6613  -3.6613  -2.3037  -2.3037
    -0.3172  -0.3172   0.6014   0.6014   5.8529   5.8529   6.2406   6.2406
     6.9073   6.9073   7.1419   7.1419   7.4479   7.4479   7.5643   7.5643
     7.5917   7.5917   8.1170   8.1170   8.2736   8.2736   8.7043   8.7043
     9.4159   9.4159   9.7512   9.7512  10.1316  10.1316  11.1261  11.1261
    11.3418  11.3418  13.7602  13.7602  14.3097  14.3097  14.6319  14.6319
    14.6927  14.6927  15.2479  15.2479  15.4911  15.4911  15.5194  15.5194
    16.1945  16.1945  16.2094  16.2094  16.2169  16.2169  16.7365  16.7365
    17.6142  17.6142  17.9058  17.9058  17.9669  17.9669  18.2842  18.2842
    18.9384  18.9384  19.0420  19.0420

     occupation numbers 
     1.0000   1.0000   1.0000   1.0000   1.0000   1.0000   1.0000   1.0000
     1.0000   1.0000   1.0000   1.0000   1.0000   1.0000   1.0000   1.0000
     1.0000   1.0000   1.0000   1.0000   1.0000   1.0000   1.0000   1.0000
     1.0000   1.0000   1.0000   1.0000   1.0000   1.0000   1.0000   1.0000
     1.0000   1.0000   1.0000   1.0000   1.0000   1.0000   1.0000   1.0000
     1.0000   1.0000   1.0000   1.0000   1.0000   1.0000   1.0000   1.0000
     1.0000   1.0000   1.0000   1.0000   1.0000   1.0000   1.0000   1.0000
     1.0000   1.0000   1.0000   1.0000   1.0000   1.0000   1.0000   1.0000
     1.0000   1.0000   1.0000   1.0000   1.0000   1.0000   1.0000   1.0000
     1.0000   1.0000   1.0000   1.0000   1.0013   1.0013   0.0404   0.0404
    -0.0000  -0.0000  -0.0000  -0.0000  -0.0000  -0.0000  -0.0000  -0.0000
    -0.0000  -0.0000  -0.0000  -0.0000  -0.0000  -0.0000  -0.0000  -0.0000
    -0.0000  -0.0000  -0.0000  -0.0000  -0.0000  -0.0000  -0.0000  -0.0000
    -0.0000  -0.0000  -0.0000  -0.0000  -0.0000  -0.0000  -0.0000  -0.0000
    -0.0000  -0.0000  -0.0000  -0.0000  -0.0000  -0.0000  -0.0000  -0.0000
    -0.0000  -0.0000  -0.0000  -0.0000

     the Fermi energy is     8.6092 ev

!    total energy              =    -956.52319909 Ry
     estimated scf accuracy    <          6.0E-10 Ry
     smearing contrib. (-TS)   =       0.00008470 Ry
     internal energy E=F+TS    =    -956.52328379 Ry

     The total energy is F=E-TS. E is the sum of the following terms:
     one-electron contribution =    -412.85650587 Ry
     hartree contribution      =     238.96893932 Ry
     xc contribution           =    -233.70345295 Ry
     ewald contribution        =    -548.93226430 Ry

     convergence has been achieved in  11 iterations

     Writing all to output data dir ./out_soc_nc_Bi2Te3/Bi2Te3_soc_nc.save/ :
     XML data file, charge density, pseudopotentials, collected wavefunctions

     init_run     :     35.75s CPU     36.99s WALL (       1 calls)
     electrons    :   1417.88s CPU   1457.63s WALL (       1 calls)

     Called by init_run:
     wfcinit      :     34.99s CPU     36.17s WALL (       1 calls)
     wfcinit:atom :      0.04s CPU      0.04s WALL (       9 calls)
     wfcinit:wfcr :     34.78s CPU     35.78s WALL (       9 calls)
     potinit      :      0.27s CPU      0.31s WALL (       1 calls)
     hinit0       :      0.47s CPU      0.48s WALL (       1 calls)

     Called by electrons:
     c_bands      :   1123.90s CPU   1155.45s WALL (      12 calls)
     sum_band     :    290.52s CPU    297.45s WALL (      12 calls)
     v_of_rho     :      2.78s CPU      3.10s WALL (      12 calls)
     v_h          :      0.14s CPU      0.16s WALL (      12 calls)
     v_xc         :      2.65s CPU      2.94s WALL (      12 calls)
     mix_rho      :      0.23s CPU      0.58s WALL (      12 calls)

     Called by c_bands:
     init_us_2    :      2.15s CPU      2.19s WALL (     225 calls)
     cegterg      :    965.34s CPU    991.16s WALL (     108 calls)

     Called by sum_band:
     sum_band:wei :      0.02s CPU      0.02s WALL (      12 calls)
     sum_band:loo :    253.76s CPU    260.34s WALL (      12 calls)
     sum_band:buf :      0.02s CPU      1.54s WALL (     108 calls)
     sum_band:ini :      0.83s CPU      0.85s WALL (     108 calls)

     Called by *egterg:
     cdiaghg      :      3.98s CPU      4.01s WALL (     398 calls)
     cegterg:over :     11.72s CPU     11.81s WALL (     299 calls)
     cegterg:upda :      6.96s CPU      7.61s WALL (     299 calls)
     cegterg:last :      9.94s CPU     10.01s WALL (     213 calls)
     h_psi        :    960.83s CPU    985.34s WALL (     416 calls)
     g_psi        :      0.54s CPU      0.54s WALL (     299 calls)

     Called by h_psi:
     h_psi:calbec :      7.91s CPU      8.01s WALL (     416 calls)
     vloc_psi     :    946.47s CPU    969.33s WALL (     416 calls)
                                        0.00s GPU  (     416 calls)
     add_vuspsi   :      5.67s CPU      5.71s WALL (     416 calls)

     General routines
     calbec       :      7.91s CPU      8.01s WALL (     416 calls)
     fft          :      1.63s CPU      1.76s WALL (     190 calls)
     ffts         :      0.41s CPU      0.43s WALL (      48 calls)
     fftw         :    831.88s CPU    856.65s WALL (  150912 calls)
     davcio       :      0.06s CPU      4.94s WALL (     468 calls)

     Parallel routines

     PWSCF        :   1459.45s CPU   1502.75s WALL


   This run was terminated on:  19:40:17  29Jul2026            

=------------------------------------------------------------------------------=
   JOB DONE.
=------------------------------------------------------------------------------=
