
     Program PWSCF v.7.5 starts on 12Jul2026 at 22: 1:28 

     This program is part of the open-source Quantum ESPRESSO suite
     for quantum simulation of materials; please cite
         "P. Giannozzi et al., J. Phys.:Condens. Matter 21 395502 (2009);
         "P. Giannozzi et al., J. Phys.:Condens. Matter 29 465901 (2017);
         "P. Giannozzi et al., J. Chem. Phys. 152 154105 (2020);
          URL http://www.quantum-espresso.org", 
     in publications or presentations arising from this work. More details at
     http://www.quantum-espresso.org/quote

     Parallel version (MPI & OpenMP), running on       8 processor cores
     Number of MPI processes:                 8
     Threads/MPI process:                     1

     MPI processes distributed on     1 nodes
     0 MiB available memory on the printing compute node when the environment starts

     Reading input from PbTe.scf.soc.nc.in

     Current dimensions of program PWSCF are:
     Max number of different atomic species (ntypx) = 10
     Max number of k-points (npk) =  40000
     Max angular momentum in pseudopotentials (lmaxx) =  4

     K-points division:     npool     =       8
     Subspace diagonalization in iterative solution of the eigenvalue problem:
     a serial algorithm will be used


     G-vector sticks info
     --------------------
     sticks:   dense  smooth     PW     G-vecs:    dense   smooth      PW
     Sum        1483    1483    433                37461    37461    5961

     Using Slab Decomposition



     bravais-lattice index     =            0
     lattice parameter (alat)  =       8.7440  a.u.
     unit-cell volume          =     472.7339 (a.u.)^3
     number of atoms/cell      =            2
     number of atomic types    =            2
     number of electrons       =        30.00
     number of Kohn-Sham states=           48
     kinetic-energy cutoff     =      70.0000  Ry
     charge density cutoff     =     280.0000  Ry
     scf convergence threshold =      1.0E-08
     mixing beta               =       0.3000
     number of iterations used =            8  plain     mixing
     Exchange-correlation= PBE
                           (   1   4   3   4   0   0   0)
     Non magnetic calculation with spin-orbit


     celldm(1)=   8.744008  celldm(2)=   0.000000  celldm(3)=   0.000000
     celldm(4)=   0.000000  celldm(5)=   0.000000  celldm(6)=   0.000000

     crystal axes: (cart. coord. in units of alat)
               a(1) = (   0.866025   0.000000   0.500000 )  
               a(2) = (   0.288675   0.816497   0.500000 )  
               a(3) = (   0.000000   0.000000   1.000000 )  

     reciprocal axes: (cart. coord. in units 2 pi/alat)
               b(1) = (  1.154701 -0.408248  0.000000 )  
               b(2) = (  0.000000  1.224745  0.000000 )  
               b(3) = ( -0.577350 -0.408248  1.000000 )  


     PseudoPot. # 1 for Te read from file:
     ./pseudo_nc/Te_FR.upf
     MD5 check sum: d198e370297ac1d7edee156d0fe975c4
     Pseudo is Norm-conserving + core correction, Zval = 16.0
     Generated using ONCVPSP code by D. R. Hamann
     Using radial grid of 1324 points, 10 beta functions with: 
                l(1) =   0
                l(2) =   0
                l(3) =   1
                l(4) =   1
                l(5) =   1
                l(6) =   1
                l(7) =   2
                l(8) =   2
                l(9) =   2
               l(10) =   2

     PseudoPot. # 2 for Pb read from file:
     ./pseudo_nc/Pb_FR.upf
     MD5 check sum: 73abbbd201951038fc1bdacebad68d2f
     Pseudo is Norm-conserving + core correction, Zval = 14.0
     Generated using ONCVPSP code by D. R. Hamann
     Using radial grid of 1782 points, 10 beta functions with: 
                l(1) =   0
                l(2) =   0
                l(3) =   1
                l(4) =   1
                l(5) =   1
                l(6) =   1
                l(7) =   2
                l(8) =   2
                l(9) =   2
               l(10) =   2

     atomic species   valence    mass     pseudopotential
     Te               16.00   127.60000     Te( 1.00)
     Pb               14.00   207.20000     Pb( 1.00)

     No symmetry found


                                    s                        frac. trans.

      isym =  1     identity                                     

 cryst.   s( 1) = (     1          0          0      )
                  (     0          1          0      )
                  (     0          0          1      )

 cart.    s( 1) = (  1.0000000  0.0000000  0.0000000 )
                  (  0.0000000  1.0000000  0.0000000 )
                  (  0.0000000  0.0000000  1.0000000 )


   Cartesian axes

     site n.     atom                  positions (alat units)
         1        Te     tau(   1) = (   0.0000000   0.0000000   0.0000000  )
         2        Pb     tau(   2) = (   0.5773502   0.4082483   1.0000000  )

   Crystallographic axes

     site n.     atom                  positions (cryst. coord.)
         1        Te     tau(   1) = (  0.0000000  0.0000000  0.0000000  )
         2        Pb     tau(   2) = (  0.5000000  0.5000000  0.5000000  )

     number of k points=   216  Methfessel-Paxton smearing, width (Ry)=  0.0100
                       cart. coord. in units 2pi/alat
        k(    1) = (   0.0000000   0.0000000   0.0000000), wk =   0.0046296
        k(    2) = (  -0.0962250  -0.0680414   0.1666667), wk =   0.0046296
        k(    3) = (  -0.1924501  -0.1360828   0.3333333), wk =   0.0046296
        k(    4) = (   0.2886751   0.2041242  -0.5000000), wk =   0.0046296
        k(    5) = (   0.1924501   0.1360828  -0.3333333), wk =   0.0046296
        k(    6) = (   0.0962250   0.0680414  -0.1666667), wk =   0.0046296
        k(    7) = (   0.0000000   0.2041241   0.0000000), wk =   0.0046296
        k(    8) = (  -0.0962250   0.1360827   0.1666667), wk =   0.0046296
        k(    9) = (  -0.1924501   0.0680414   0.3333333), wk =   0.0046296
        k(   10) = (   0.2886751   0.4082483  -0.5000000), wk =   0.0046296
        k(   11) = (   0.1924501   0.3402069  -0.3333333), wk =   0.0046296
        k(   12) = (   0.0962250   0.2721655  -0.1666667), wk =   0.0046296
        k(   13) = (   0.0000000   0.4082483   0.0000000), wk =   0.0046296
        k(   14) = (  -0.0962250   0.3402069   0.1666667), wk =   0.0046296
        k(   15) = (  -0.1924501   0.2721655   0.3333333), wk =   0.0046296
        k(   16) = (   0.2886751   0.6123724  -0.5000000), wk =   0.0046296
        k(   17) = (   0.1924501   0.5443310  -0.3333333), wk =   0.0046296
        k(   18) = (   0.0962250   0.4762896  -0.1666667), wk =   0.0046296
        k(   19) = (   0.0000000  -0.6123724   0.0000000), wk =   0.0046296
        k(   20) = (  -0.0962250  -0.6804138   0.1666667), wk =   0.0046296
        k(   21) = (  -0.1924501  -0.7484552   0.3333333), wk =   0.0046296
        k(   22) = (   0.2886751  -0.4082482  -0.5000000), wk =   0.0046296
        k(   23) = (   0.1924501  -0.4762896  -0.3333333), wk =   0.0046296
        k(   24) = (   0.0962250  -0.5443310  -0.1666667), wk =   0.0046296
        k(   25) = (   0.0000000  -0.4082483   0.0000000), wk =   0.0046296
        k(   26) = (  -0.0962250  -0.4762896   0.1666667), wk =   0.0046296
        k(   27) = (  -0.1924501  -0.5443310   0.3333333), wk =   0.0046296
        k(   28) = (   0.2886751  -0.2041241  -0.5000000), wk =   0.0046296
        k(   29) = (   0.1924501  -0.2721655  -0.3333333), wk =   0.0046296
        k(   30) = (   0.0962250  -0.3402069  -0.1666667), wk =   0.0046296
        k(   31) = (   0.0000000  -0.2041241   0.0000000), wk =   0.0046296
        k(   32) = (  -0.0962250  -0.2721655   0.1666667), wk =   0.0046296
        k(   33) = (  -0.1924501  -0.3402069   0.3333333), wk =   0.0046296
        k(   34) = (   0.2886751   0.0000000  -0.5000000), wk =   0.0046296
        k(   35) = (   0.1924501  -0.0680414  -0.3333333), wk =   0.0046296
        k(   36) = (   0.0962250  -0.1360827  -0.1666667), wk =   0.0046296
        k(   37) = (   0.1924501  -0.0680414   0.0000000), wk =   0.0046296
        k(   38) = (   0.0962250  -0.1360827   0.1666667), wk =   0.0046296
        k(   39) = (   0.0000000  -0.2041241   0.3333333), wk =   0.0046296
        k(   40) = (   0.4811252   0.1360828  -0.5000000), wk =   0.0046296
        k(   41) = (   0.3849002   0.0680414  -0.3333333), wk =   0.0046296
        k(   42) = (   0.2886751   0.0000000  -0.1666667), wk =   0.0046296
        k(   43) = (   0.1924501   0.1360828   0.0000000), wk =   0.0046296
        k(   44) = (   0.0962250   0.0680414   0.1666667), wk =   0.0046296
        k(   45) = (   0.0000000   0.0000000   0.3333333), wk =   0.0046296
        k(   46) = (   0.4811252   0.3402069  -0.5000000), wk =   0.0046296
        k(   47) = (   0.3849002   0.2721655  -0.3333333), wk =   0.0046296
        k(   48) = (   0.2886751   0.2041242  -0.1666667), wk =   0.0046296
        k(   49) = (   0.1924501   0.3402069   0.0000000), wk =   0.0046296
        k(   50) = (   0.0962250   0.2721655   0.1666667), wk =   0.0046296
        k(   51) = (   0.0000000   0.2041241   0.3333333), wk =   0.0046296
        k(   52) = (   0.4811252   0.5443311  -0.5000000), wk =   0.0046296
        k(   53) = (   0.3849002   0.4762897  -0.3333333), wk =   0.0046296
        k(   54) = (   0.2886751   0.4082483  -0.1666667), wk =   0.0046296
        k(   55) = (   0.1924501  -0.6804138   0.0000000), wk =   0.0046296
        k(   56) = (   0.0962250  -0.7484551   0.1666667), wk =   0.0046296
        k(   57) = (   0.0000000  -0.8164965   0.3333333), wk =   0.0046296
        k(   58) = (   0.4811252  -0.4762896  -0.5000000), wk =   0.0046296
        k(   59) = (   0.3849002  -0.5443310  -0.3333333), wk =   0.0046296
        k(   60) = (   0.2886751  -0.6123724  -0.1666667), wk =   0.0046296
        k(   61) = (   0.1924501  -0.4762896   0.0000000), wk =   0.0046296
        k(   62) = (   0.0962250  -0.5443310   0.1666667), wk =   0.0046296
        k(   63) = (   0.0000000  -0.6123724   0.3333333), wk =   0.0046296
        k(   64) = (   0.4811252  -0.2721655  -0.5000000), wk =   0.0046296
        k(   65) = (   0.3849002  -0.3402069  -0.3333333), wk =   0.0046296
        k(   66) = (   0.2886751  -0.4082482  -0.1666667), wk =   0.0046296
        k(   67) = (   0.1924501  -0.2721655   0.0000000), wk =   0.0046296
        k(   68) = (   0.0962250  -0.3402069   0.1666667), wk =   0.0046296
        k(   69) = (   0.0000000  -0.4082483   0.3333333), wk =   0.0046296
        k(   70) = (   0.4811252  -0.0680413  -0.5000000), wk =   0.0046296
        k(   71) = (   0.3849002  -0.1360827  -0.3333333), wk =   0.0046296
        k(   72) = (   0.2886751  -0.2041241  -0.1666667), wk =   0.0046296
        k(   73) = (   0.3849002  -0.1360827   0.0000000), wk =   0.0046296
        k(   74) = (   0.2886751  -0.2041241   0.1666667), wk =   0.0046296
        k(   75) = (   0.1924501  -0.2721655   0.3333333), wk =   0.0046296
        k(   76) = (   0.6735753   0.0680414  -0.5000000), wk =   0.0046296
        k(   77) = (   0.5773503   0.0000001  -0.3333333), wk =   0.0046296
        k(   78) = (   0.4811252  -0.0680413  -0.1666667), wk =   0.0046296
        k(   79) = (   0.3849002   0.0680414   0.0000000), wk =   0.0046296
        k(   80) = (   0.2886751   0.0000000   0.1666667), wk =   0.0046296
        k(   81) = (   0.1924501  -0.0680414   0.3333333), wk =   0.0046296
        k(   82) = (   0.6735753   0.2721656  -0.5000000), wk =   0.0046296
        k(   83) = (   0.5773503   0.2041242  -0.3333333), wk =   0.0046296
        k(   84) = (   0.4811252   0.1360828  -0.1666667), wk =   0.0046296
        k(   85) = (   0.3849002   0.2721655   0.0000000), wk =   0.0046296
        k(   86) = (   0.2886751   0.2041242   0.1666667), wk =   0.0046296
        k(   87) = (   0.1924501   0.1360828   0.3333333), wk =   0.0046296
        k(   88) = (   0.6735753   0.4762897  -0.5000000), wk =   0.0046296
        k(   89) = (   0.5773503   0.4082483  -0.3333333), wk =   0.0046296
        k(   90) = (   0.4811252   0.3402069  -0.1666667), wk =   0.0046296
        k(   91) = (   0.3849002  -0.7484551   0.0000000), wk =   0.0046296
        k(   92) = (   0.2886751  -0.8164965   0.1666667), wk =   0.0046296
        k(   93) = (   0.1924501  -0.8845379   0.3333333), wk =   0.0046296
        k(   94) = (   0.6735753  -0.5443310  -0.5000000), wk =   0.0046296
        k(   95) = (   0.5773503  -0.6123723  -0.3333333), wk =   0.0046296
        k(   96) = (   0.4811252  -0.6804137  -0.1666667), wk =   0.0046296
        k(   97) = (   0.3849002  -0.5443310   0.0000000), wk =   0.0046296
        k(   98) = (   0.2886751  -0.6123724   0.1666667), wk =   0.0046296
        k(   99) = (   0.1924501  -0.6804138   0.3333333), wk =   0.0046296
        k(  100) = (   0.6735753  -0.3402068  -0.5000000), wk =   0.0046296
        k(  101) = (   0.5773503  -0.4082482  -0.3333333), wk =   0.0046296
        k(  102) = (   0.4811252  -0.4762896  -0.1666667), wk =   0.0046296
        k(  103) = (   0.3849002  -0.3402069   0.0000000), wk =   0.0046296
        k(  104) = (   0.2886751  -0.4082482   0.1666667), wk =   0.0046296
        k(  105) = (   0.1924501  -0.4762896   0.3333333), wk =   0.0046296
        k(  106) = (   0.6735753  -0.1360827  -0.5000000), wk =   0.0046296
        k(  107) = (   0.5773503  -0.2041241  -0.3333333), wk =   0.0046296
        k(  108) = (   0.4811252  -0.2721655  -0.1666667), wk =   0.0046296
        k(  109) = (  -0.5773503   0.2041241   0.0000000), wk =   0.0046296
        k(  110) = (  -0.6735753   0.1360827   0.1666667), wk =   0.0046296
        k(  111) = (  -0.7698004   0.0680413   0.3333333), wk =   0.0046296
        k(  112) = (  -0.2886751   0.4082482  -0.5000000), wk =   0.0046296
        k(  113) = (  -0.3849002   0.3402069  -0.3333333), wk =   0.0046296
        k(  114) = (  -0.4811252   0.2721655  -0.1666667), wk =   0.0046296
        k(  115) = (  -0.5773503   0.4082482   0.0000000), wk =   0.0046296
        k(  116) = (  -0.6735753   0.3402068   0.1666667), wk =   0.0046296
        k(  117) = (  -0.7698004   0.2721654   0.3333333), wk =   0.0046296
        k(  118) = (  -0.2886751   0.6123724  -0.5000000), wk =   0.0046296
        k(  119) = (  -0.3849002   0.5443310  -0.3333333), wk =   0.0046296
        k(  120) = (  -0.4811252   0.4762896  -0.1666667), wk =   0.0046296
        k(  121) = (  -0.5773503   0.6123723   0.0000000), wk =   0.0046296
        k(  122) = (  -0.6735753   0.5443310   0.1666667), wk =   0.0046296
        k(  123) = (  -0.7698004   0.4762896   0.3333333), wk =   0.0046296
        k(  124) = (  -0.2886751   0.8164965  -0.5000000), wk =   0.0046296
        k(  125) = (  -0.3849002   0.7484551  -0.3333333), wk =   0.0046296
        k(  126) = (  -0.4811252   0.6804137  -0.1666667), wk =   0.0046296
        k(  127) = (  -0.5773503  -0.4082483   0.0000000), wk =   0.0046296
        k(  128) = (  -0.6735753  -0.4762897   0.1666667), wk =   0.0046296
        k(  129) = (  -0.7698004  -0.5443311   0.3333333), wk =   0.0046296
        k(  130) = (  -0.2886751  -0.2041242  -0.5000000), wk =   0.0046296
        k(  131) = (  -0.3849002  -0.2721655  -0.3333333), wk =   0.0046296
        k(  132) = (  -0.4811252  -0.3402069  -0.1666667), wk =   0.0046296
        k(  133) = (  -0.5773503  -0.2041242   0.0000000), wk =   0.0046296
        k(  134) = (  -0.6735753  -0.2721656   0.1666667), wk =   0.0046296
        k(  135) = (  -0.7698004  -0.3402070   0.3333333), wk =   0.0046296
        k(  136) = (  -0.2886751  -0.0000000  -0.5000000), wk =   0.0046296
        k(  137) = (  -0.3849002  -0.0680414  -0.3333333), wk =   0.0046296
        k(  138) = (  -0.4811252  -0.1360828  -0.1666667), wk =   0.0046296
        k(  139) = (  -0.5773503  -0.0000001   0.0000000), wk =   0.0046296
        k(  140) = (  -0.6735753  -0.0680414   0.1666667), wk =   0.0046296
        k(  141) = (  -0.7698004  -0.1360828   0.3333333), wk =   0.0046296
        k(  142) = (  -0.2886751   0.2041241  -0.5000000), wk =   0.0046296
        k(  143) = (  -0.3849002   0.1360827  -0.3333333), wk =   0.0046296
        k(  144) = (  -0.4811252   0.0680413  -0.1666667), wk =   0.0046296
        k(  145) = (  -0.3849002   0.1360827   0.0000000), wk =   0.0046296
        k(  146) = (  -0.4811252   0.0680413   0.1666667), wk =   0.0046296
        k(  147) = (  -0.5773503  -0.0000001   0.3333333), wk =   0.0046296
        k(  148) = (  -0.0962250   0.3402069  -0.5000000), wk =   0.0046296
        k(  149) = (  -0.1924501   0.2721655  -0.3333333), wk =   0.0046296
        k(  150) = (  -0.2886751   0.2041241  -0.1666667), wk =   0.0046296
        k(  151) = (  -0.3849002   0.3402069   0.0000000), wk =   0.0046296
        k(  152) = (  -0.4811252   0.2721655   0.1666667), wk =   0.0046296
        k(  153) = (  -0.5773503   0.2041241   0.3333333), wk =   0.0046296
        k(  154) = (  -0.0962250   0.5443310  -0.5000000), wk =   0.0046296
        k(  155) = (  -0.1924501   0.4762896  -0.3333333), wk =   0.0046296
        k(  156) = (  -0.2886751   0.4082482  -0.1666667), wk =   0.0046296
        k(  157) = (  -0.3849002   0.5443310   0.0000000), wk =   0.0046296
        k(  158) = (  -0.4811252   0.4762896   0.1666667), wk =   0.0046296
        k(  159) = (  -0.5773503   0.4082482   0.3333333), wk =   0.0046296
        k(  160) = (  -0.0962250   0.7484551  -0.5000000), wk =   0.0046296
        k(  161) = (  -0.1924501   0.6804138  -0.3333333), wk =   0.0046296
        k(  162) = (  -0.2886751   0.6123724  -0.1666667), wk =   0.0046296
        k(  163) = (  -0.3849002  -0.4762897   0.0000000), wk =   0.0046296
        k(  164) = (  -0.4811252  -0.5443311   0.1666667), wk =   0.0046296
        k(  165) = (  -0.5773503  -0.6123724   0.3333333), wk =   0.0046296
        k(  166) = (  -0.0962250  -0.2721655  -0.5000000), wk =   0.0046296
        k(  167) = (  -0.1924501  -0.3402069  -0.3333333), wk =   0.0046296
        k(  168) = (  -0.2886751  -0.4082483  -0.1666667), wk =   0.0046296
        k(  169) = (  -0.3849002  -0.2721655   0.0000000), wk =   0.0046296
        k(  170) = (  -0.4811252  -0.3402069   0.1666667), wk =   0.0046296
        k(  171) = (  -0.5773503  -0.4082483   0.3333333), wk =   0.0046296
        k(  172) = (  -0.0962250  -0.0680414  -0.5000000), wk =   0.0046296
        k(  173) = (  -0.1924501  -0.1360828  -0.3333333), wk =   0.0046296
        k(  174) = (  -0.2886751  -0.2041242  -0.1666667), wk =   0.0046296
        k(  175) = (  -0.3849002  -0.0680414   0.0000000), wk =   0.0046296
        k(  176) = (  -0.4811252  -0.1360828   0.1666667), wk =   0.0046296
        k(  177) = (  -0.5773503  -0.2041242   0.3333333), wk =   0.0046296
        k(  178) = (  -0.0962250   0.1360827  -0.5000000), wk =   0.0046296
        k(  179) = (  -0.1924501   0.0680414  -0.3333333), wk =   0.0046296
        k(  180) = (  -0.2886751  -0.0000000  -0.1666667), wk =   0.0046296
        k(  181) = (  -0.1924501   0.0680414   0.0000000), wk =   0.0046296
        k(  182) = (  -0.2886751  -0.0000000   0.1666667), wk =   0.0046296
        k(  183) = (  -0.3849002  -0.0680414   0.3333333), wk =   0.0046296
        k(  184) = (   0.0962250   0.2721655  -0.5000000), wk =   0.0046296
        k(  185) = (   0.0000000   0.2041241  -0.3333333), wk =   0.0046296
        k(  186) = (  -0.0962250   0.1360827  -0.1666667), wk =   0.0046296
        k(  187) = (  -0.1924501   0.2721655   0.0000000), wk =   0.0046296
        k(  188) = (  -0.2886751   0.2041241   0.1666667), wk =   0.0046296
        k(  189) = (  -0.3849002   0.1360827   0.3333333), wk =   0.0046296
        k(  190) = (   0.0962250   0.4762896  -0.5000000), wk =   0.0046296
        k(  191) = (   0.0000000   0.4082483  -0.3333333), wk =   0.0046296
        k(  192) = (  -0.0962250   0.3402069  -0.1666667), wk =   0.0046296
        k(  193) = (  -0.1924501   0.4762896   0.0000000), wk =   0.0046296
        k(  194) = (  -0.2886751   0.4082482   0.1666667), wk =   0.0046296
        k(  195) = (  -0.3849002   0.3402069   0.3333333), wk =   0.0046296
        k(  196) = (   0.0962250   0.6804138  -0.5000000), wk =   0.0046296
        k(  197) = (   0.0000000   0.6123724  -0.3333333), wk =   0.0046296
        k(  198) = (  -0.0962250   0.5443310  -0.1666667), wk =   0.0046296
        k(  199) = (  -0.1924501  -0.5443310   0.0000000), wk =   0.0046296
        k(  200) = (  -0.2886751  -0.6123724   0.1666667), wk =   0.0046296
        k(  201) = (  -0.3849002  -0.6804138   0.3333333), wk =   0.0046296
        k(  202) = (   0.0962250  -0.3402069  -0.5000000), wk =   0.0046296
        k(  203) = (   0.0000000  -0.4082483  -0.3333333), wk =   0.0046296
        k(  204) = (  -0.0962250  -0.4762896  -0.1666667), wk =   0.0046296
        k(  205) = (  -0.1924501  -0.3402069   0.0000000), wk =   0.0046296
        k(  206) = (  -0.2886751  -0.4082483   0.1666667), wk =   0.0046296
        k(  207) = (  -0.3849002  -0.4762897   0.3333333), wk =   0.0046296
        k(  208) = (   0.0962250  -0.1360827  -0.5000000), wk =   0.0046296
        k(  209) = (   0.0000000  -0.2041241  -0.3333333), wk =   0.0046296
        k(  210) = (  -0.0962250  -0.2721655  -0.1666667), wk =   0.0046296
        k(  211) = (  -0.1924501  -0.1360828   0.0000000), wk =   0.0046296
        k(  212) = (  -0.2886751  -0.2041242   0.1666667), wk =   0.0046296
        k(  213) = (  -0.3849002  -0.2721655   0.3333333), wk =   0.0046296
        k(  214) = (   0.0962250   0.0680414  -0.5000000), wk =   0.0046296
        k(  215) = (   0.0000000   0.0000000  -0.3333333), wk =   0.0046296
        k(  216) = (  -0.0962250  -0.0680414  -0.1666667), wk =   0.0046296

                       cryst. coord.
        k(    1) = (   0.0000000   0.0000000   0.0000000), wk =   0.0046296
        k(    2) = (   0.0000000   0.0000000   0.1666667), wk =   0.0046296
        k(    3) = (   0.0000000   0.0000000   0.3333333), wk =   0.0046296
        k(    4) = (   0.0000000   0.0000000  -0.5000000), wk =   0.0046296
        k(    5) = (  -0.0000000  -0.0000000  -0.3333333), wk =   0.0046296
        k(    6) = (  -0.0000000  -0.0000000  -0.1666667), wk =   0.0046296
        k(    7) = (   0.0000000   0.1666667   0.0000000), wk =   0.0046296
        k(    8) = (   0.0000000   0.1666667   0.1666667), wk =   0.0046296
        k(    9) = (   0.0000000   0.1666667   0.3333333), wk =   0.0046296
        k(   10) = (   0.0000000   0.1666667  -0.5000000), wk =   0.0046296
        k(   11) = (  -0.0000000   0.1666667  -0.3333333), wk =   0.0046296
        k(   12) = (  -0.0000000   0.1666667  -0.1666667), wk =   0.0046296
        k(   13) = (   0.0000000   0.3333333   0.0000000), wk =   0.0046296
        k(   14) = (   0.0000000   0.3333333   0.1666667), wk =   0.0046296
        k(   15) = (   0.0000000   0.3333333   0.3333333), wk =   0.0046296
        k(   16) = (   0.0000000   0.3333333  -0.5000000), wk =   0.0046296
        k(   17) = (  -0.0000000   0.3333333  -0.3333333), wk =   0.0046296
        k(   18) = (  -0.0000000   0.3333333  -0.1666667), wk =   0.0046296
        k(   19) = (   0.0000000  -0.5000000   0.0000000), wk =   0.0046296
        k(   20) = (   0.0000000  -0.5000000   0.1666667), wk =   0.0046296
        k(   21) = (   0.0000000  -0.5000000   0.3333333), wk =   0.0046296
        k(   22) = (   0.0000000  -0.5000000  -0.5000000), wk =   0.0046296
        k(   23) = (  -0.0000000  -0.5000000  -0.3333333), wk =   0.0046296
        k(   24) = (  -0.0000000  -0.5000000  -0.1666667), wk =   0.0046296
        k(   25) = (   0.0000000  -0.3333333   0.0000000), wk =   0.0046296
        k(   26) = (   0.0000000  -0.3333333   0.1666667), wk =   0.0046296
        k(   27) = (   0.0000000  -0.3333333   0.3333333), wk =   0.0046296
        k(   28) = (   0.0000000  -0.3333333  -0.5000000), wk =   0.0046296
        k(   29) = (  -0.0000000  -0.3333333  -0.3333333), wk =   0.0046296
        k(   30) = (  -0.0000000  -0.3333333  -0.1666667), wk =   0.0046296
        k(   31) = (   0.0000000  -0.1666667   0.0000000), wk =   0.0046296
        k(   32) = (   0.0000000  -0.1666667   0.1666667), wk =   0.0046296
        k(   33) = (   0.0000000  -0.1666667   0.3333333), wk =   0.0046296
        k(   34) = (   0.0000000  -0.1666667  -0.5000000), wk =   0.0046296
        k(   35) = (  -0.0000000  -0.1666667  -0.3333333), wk =   0.0046296
        k(   36) = (  -0.0000000  -0.1666667  -0.1666667), wk =   0.0046296
        k(   37) = (   0.1666667  -0.0000000   0.0000000), wk =   0.0046296
        k(   38) = (   0.1666667   0.0000000   0.1666667), wk =   0.0046296
        k(   39) = (   0.1666667   0.0000000   0.3333333), wk =   0.0046296
        k(   40) = (   0.1666667   0.0000000  -0.5000000), wk =   0.0046296
        k(   41) = (   0.1666667  -0.0000000  -0.3333333), wk =   0.0046296
        k(   42) = (   0.1666667  -0.0000000  -0.1666667), wk =   0.0046296
        k(   43) = (   0.1666667   0.1666667   0.0000000), wk =   0.0046296
        k(   44) = (   0.1666667   0.1666667   0.1666667), wk =   0.0046296
        k(   45) = (   0.1666667   0.1666667   0.3333333), wk =   0.0046296
        k(   46) = (   0.1666667   0.1666667  -0.5000000), wk =   0.0046296
        k(   47) = (   0.1666667   0.1666667  -0.3333333), wk =   0.0046296
        k(   48) = (   0.1666667   0.1666667  -0.1666667), wk =   0.0046296
        k(   49) = (   0.1666667   0.3333333   0.0000000), wk =   0.0046296
        k(   50) = (   0.1666667   0.3333333   0.1666667), wk =   0.0046296
        k(   51) = (   0.1666667   0.3333333   0.3333333), wk =   0.0046296
        k(   52) = (   0.1666667   0.3333333  -0.5000000), wk =   0.0046296
        k(   53) = (   0.1666667   0.3333333  -0.3333333), wk =   0.0046296
        k(   54) = (   0.1666667   0.3333333  -0.1666667), wk =   0.0046296
        k(   55) = (   0.1666667  -0.5000000   0.0000000), wk =   0.0046296
        k(   56) = (   0.1666667  -0.5000000   0.1666667), wk =   0.0046296
        k(   57) = (   0.1666667  -0.5000000   0.3333333), wk =   0.0046296
        k(   58) = (   0.1666667  -0.5000000  -0.5000000), wk =   0.0046296
        k(   59) = (   0.1666667  -0.5000000  -0.3333333), wk =   0.0046296
        k(   60) = (   0.1666667  -0.5000000  -0.1666667), wk =   0.0046296
        k(   61) = (   0.1666667  -0.3333333   0.0000000), wk =   0.0046296
        k(   62) = (   0.1666667  -0.3333333   0.1666667), wk =   0.0046296
        k(   63) = (   0.1666667  -0.3333333   0.3333333), wk =   0.0046296
        k(   64) = (   0.1666667  -0.3333333  -0.5000000), wk =   0.0046296
        k(   65) = (   0.1666667  -0.3333333  -0.3333333), wk =   0.0046296
        k(   66) = (   0.1666667  -0.3333333  -0.1666667), wk =   0.0046296
        k(   67) = (   0.1666667  -0.1666667   0.0000000), wk =   0.0046296
        k(   68) = (   0.1666667  -0.1666667   0.1666667), wk =   0.0046296
        k(   69) = (   0.1666667  -0.1666667   0.3333333), wk =   0.0046296
        k(   70) = (   0.1666667  -0.1666667  -0.5000000), wk =   0.0046296
        k(   71) = (   0.1666667  -0.1666667  -0.3333333), wk =   0.0046296
        k(   72) = (   0.1666667  -0.1666667  -0.1666667), wk =   0.0046296
        k(   73) = (   0.3333333  -0.0000000   0.0000000), wk =   0.0046296
        k(   74) = (   0.3333333   0.0000000   0.1666667), wk =   0.0046296
        k(   75) = (   0.3333333   0.0000000   0.3333333), wk =   0.0046296
        k(   76) = (   0.3333333   0.0000000  -0.5000000), wk =   0.0046296
        k(   77) = (   0.3333333  -0.0000000  -0.3333333), wk =   0.0046296
        k(   78) = (   0.3333333  -0.0000000  -0.1666667), wk =   0.0046296
        k(   79) = (   0.3333333   0.1666667   0.0000000), wk =   0.0046296
        k(   80) = (   0.3333333   0.1666667   0.1666667), wk =   0.0046296
        k(   81) = (   0.3333333   0.1666667   0.3333333), wk =   0.0046296
        k(   82) = (   0.3333333   0.1666667  -0.5000000), wk =   0.0046296
        k(   83) = (   0.3333333   0.1666667  -0.3333333), wk =   0.0046296
        k(   84) = (   0.3333333   0.1666667  -0.1666667), wk =   0.0046296
        k(   85) = (   0.3333333   0.3333333   0.0000000), wk =   0.0046296
        k(   86) = (   0.3333333   0.3333333   0.1666667), wk =   0.0046296
        k(   87) = (   0.3333333   0.3333333   0.3333333), wk =   0.0046296
        k(   88) = (   0.3333333   0.3333333  -0.5000000), wk =   0.0046296
        k(   89) = (   0.3333333   0.3333333  -0.3333333), wk =   0.0046296
        k(   90) = (   0.3333333   0.3333333  -0.1666667), wk =   0.0046296
        k(   91) = (   0.3333333  -0.5000000   0.0000000), wk =   0.0046296
        k(   92) = (   0.3333333  -0.5000000   0.1666667), wk =   0.0046296
        k(   93) = (   0.3333333  -0.5000000   0.3333333), wk =   0.0046296
        k(   94) = (   0.3333333  -0.5000000  -0.5000000), wk =   0.0046296
        k(   95) = (   0.3333333  -0.5000000  -0.3333333), wk =   0.0046296
        k(   96) = (   0.3333333  -0.5000000  -0.1666667), wk =   0.0046296
        k(   97) = (   0.3333333  -0.3333333   0.0000000), wk =   0.0046296
        k(   98) = (   0.3333333  -0.3333333   0.1666667), wk =   0.0046296
        k(   99) = (   0.3333333  -0.3333333   0.3333333), wk =   0.0046296
        k(  100) = (   0.3333333  -0.3333333  -0.5000000), wk =   0.0046296
        k(  101) = (   0.3333333  -0.3333333  -0.3333333), wk =   0.0046296
        k(  102) = (   0.3333333  -0.3333333  -0.1666667), wk =   0.0046296
        k(  103) = (   0.3333333  -0.1666667   0.0000000), wk =   0.0046296
        k(  104) = (   0.3333333  -0.1666667   0.1666667), wk =   0.0046296
        k(  105) = (   0.3333333  -0.1666667   0.3333333), wk =   0.0046296
        k(  106) = (   0.3333333  -0.1666667  -0.5000000), wk =   0.0046296
        k(  107) = (   0.3333333  -0.1666667  -0.3333333), wk =   0.0046296
        k(  108) = (   0.3333333  -0.1666667  -0.1666667), wk =   0.0046296
        k(  109) = (  -0.5000000   0.0000000   0.0000000), wk =   0.0046296
        k(  110) = (  -0.5000000   0.0000000   0.1666667), wk =   0.0046296
        k(  111) = (  -0.5000000   0.0000000   0.3333333), wk =   0.0046296
        k(  112) = (  -0.5000000   0.0000000  -0.5000000), wk =   0.0046296
        k(  113) = (  -0.5000000  -0.0000000  -0.3333333), wk =   0.0046296
        k(  114) = (  -0.5000000   0.0000000  -0.1666667), wk =   0.0046296
        k(  115) = (  -0.5000000   0.1666667   0.0000000), wk =   0.0046296
        k(  116) = (  -0.5000000   0.1666667   0.1666667), wk =   0.0046296
        k(  117) = (  -0.5000000   0.1666667   0.3333333), wk =   0.0046296
        k(  118) = (  -0.5000000   0.1666667  -0.5000000), wk =   0.0046296
        k(  119) = (  -0.5000000   0.1666667  -0.3333333), wk =   0.0046296
        k(  120) = (  -0.5000000   0.1666667  -0.1666667), wk =   0.0046296
        k(  121) = (  -0.5000000   0.3333333   0.0000000), wk =   0.0046296
        k(  122) = (  -0.5000000   0.3333333   0.1666667), wk =   0.0046296
        k(  123) = (  -0.5000000   0.3333333   0.3333333), wk =   0.0046296
        k(  124) = (  -0.5000000   0.3333333  -0.5000000), wk =   0.0046296
        k(  125) = (  -0.5000000   0.3333333  -0.3333333), wk =   0.0046296
        k(  126) = (  -0.5000000   0.3333333  -0.1666667), wk =   0.0046296
        k(  127) = (  -0.5000000  -0.5000000   0.0000000), wk =   0.0046296
        k(  128) = (  -0.5000000  -0.5000000   0.1666667), wk =   0.0046296
        k(  129) = (  -0.5000000  -0.5000000   0.3333333), wk =   0.0046296
        k(  130) = (  -0.5000000  -0.5000000  -0.5000000), wk =   0.0046296
        k(  131) = (  -0.5000000  -0.5000000  -0.3333333), wk =   0.0046296
        k(  132) = (  -0.5000000  -0.5000000  -0.1666667), wk =   0.0046296
        k(  133) = (  -0.5000000  -0.3333333   0.0000000), wk =   0.0046296
        k(  134) = (  -0.5000000  -0.3333333   0.1666667), wk =   0.0046296
        k(  135) = (  -0.5000000  -0.3333333   0.3333333), wk =   0.0046296
        k(  136) = (  -0.5000000  -0.3333333  -0.5000000), wk =   0.0046296
        k(  137) = (  -0.5000000  -0.3333333  -0.3333333), wk =   0.0046296
        k(  138) = (  -0.5000000  -0.3333333  -0.1666667), wk =   0.0046296
        k(  139) = (  -0.5000000  -0.1666667   0.0000000), wk =   0.0046296
        k(  140) = (  -0.5000000  -0.1666667   0.1666667), wk =   0.0046296
        k(  141) = (  -0.5000000  -0.1666667   0.3333333), wk =   0.0046296
        k(  142) = (  -0.5000000  -0.1666667  -0.5000000), wk =   0.0046296
        k(  143) = (  -0.5000000  -0.1666667  -0.3333333), wk =   0.0046296
        k(  144) = (  -0.5000000  -0.1666667  -0.1666667), wk =   0.0046296
        k(  145) = (  -0.3333333   0.0000000   0.0000000), wk =   0.0046296
        k(  146) = (  -0.3333333   0.0000000   0.1666667), wk =   0.0046296
        k(  147) = (  -0.3333333   0.0000000   0.3333333), wk =   0.0046296
        k(  148) = (  -0.3333333   0.0000000  -0.5000000), wk =   0.0046296
        k(  149) = (  -0.3333333   0.0000000  -0.3333333), wk =   0.0046296
        k(  150) = (  -0.3333333   0.0000000  -0.1666667), wk =   0.0046296
        k(  151) = (  -0.3333333   0.1666667   0.0000000), wk =   0.0046296
        k(  152) = (  -0.3333333   0.1666667   0.1666667), wk =   0.0046296
        k(  153) = (  -0.3333333   0.1666667   0.3333333), wk =   0.0046296
        k(  154) = (  -0.3333333   0.1666667  -0.5000000), wk =   0.0046296
        k(  155) = (  -0.3333333   0.1666667  -0.3333333), wk =   0.0046296
        k(  156) = (  -0.3333333   0.1666667  -0.1666667), wk =   0.0046296
        k(  157) = (  -0.3333333   0.3333333   0.0000000), wk =   0.0046296
        k(  158) = (  -0.3333333   0.3333333   0.1666667), wk =   0.0046296
        k(  159) = (  -0.3333333   0.3333333   0.3333333), wk =   0.0046296
        k(  160) = (  -0.3333333   0.3333333  -0.5000000), wk =   0.0046296
        k(  161) = (  -0.3333333   0.3333333  -0.3333333), wk =   0.0046296
        k(  162) = (  -0.3333333   0.3333333  -0.1666667), wk =   0.0046296
        k(  163) = (  -0.3333333  -0.5000000   0.0000000), wk =   0.0046296
        k(  164) = (  -0.3333333  -0.5000000   0.1666667), wk =   0.0046296
        k(  165) = (  -0.3333333  -0.5000000   0.3333333), wk =   0.0046296
        k(  166) = (  -0.3333333  -0.5000000  -0.5000000), wk =   0.0046296
        k(  167) = (  -0.3333333  -0.5000000  -0.3333333), wk =   0.0046296
        k(  168) = (  -0.3333333  -0.5000000  -0.1666667), wk =   0.0046296
        k(  169) = (  -0.3333333  -0.3333333   0.0000000), wk =   0.0046296
        k(  170) = (  -0.3333333  -0.3333333   0.1666667), wk =   0.0046296
        k(  171) = (  -0.3333333  -0.3333333   0.3333333), wk =   0.0046296
        k(  172) = (  -0.3333333  -0.3333333  -0.5000000), wk =   0.0046296
        k(  173) = (  -0.3333333  -0.3333333  -0.3333333), wk =   0.0046296
        k(  174) = (  -0.3333333  -0.3333333  -0.1666667), wk =   0.0046296
        k(  175) = (  -0.3333333  -0.1666667   0.0000000), wk =   0.0046296
        k(  176) = (  -0.3333333  -0.1666667   0.1666667), wk =   0.0046296
        k(  177) = (  -0.3333333  -0.1666667   0.3333333), wk =   0.0046296
        k(  178) = (  -0.3333333  -0.1666667  -0.5000000), wk =   0.0046296
        k(  179) = (  -0.3333333  -0.1666667  -0.3333333), wk =   0.0046296
        k(  180) = (  -0.3333333  -0.1666667  -0.1666667), wk =   0.0046296
        k(  181) = (  -0.1666667   0.0000000   0.0000000), wk =   0.0046296
        k(  182) = (  -0.1666667   0.0000000   0.1666667), wk =   0.0046296
        k(  183) = (  -0.1666667   0.0000000   0.3333333), wk =   0.0046296
        k(  184) = (  -0.1666667   0.0000000  -0.5000000), wk =   0.0046296
        k(  185) = (  -0.1666667   0.0000000  -0.3333333), wk =   0.0046296
        k(  186) = (  -0.1666667   0.0000000  -0.1666667), wk =   0.0046296
        k(  187) = (  -0.1666667   0.1666667   0.0000000), wk =   0.0046296
        k(  188) = (  -0.1666667   0.1666667   0.1666667), wk =   0.0046296
        k(  189) = (  -0.1666667   0.1666667   0.3333333), wk =   0.0046296
        k(  190) = (  -0.1666667   0.1666667  -0.5000000), wk =   0.0046296
        k(  191) = (  -0.1666667   0.1666667  -0.3333333), wk =   0.0046296
        k(  192) = (  -0.1666667   0.1666667  -0.1666667), wk =   0.0046296
        k(  193) = (  -0.1666667   0.3333333   0.0000000), wk =   0.0046296
        k(  194) = (  -0.1666667   0.3333333   0.1666667), wk =   0.0046296
        k(  195) = (  -0.1666667   0.3333333   0.3333333), wk =   0.0046296
        k(  196) = (  -0.1666667   0.3333333  -0.5000000), wk =   0.0046296
        k(  197) = (  -0.1666667   0.3333333  -0.3333333), wk =   0.0046296
        k(  198) = (  -0.1666667   0.3333333  -0.1666667), wk =   0.0046296
        k(  199) = (  -0.1666667  -0.5000000   0.0000000), wk =   0.0046296
        k(  200) = (  -0.1666667  -0.5000000   0.1666667), wk =   0.0046296
        k(  201) = (  -0.1666667  -0.5000000   0.3333333), wk =   0.0046296
        k(  202) = (  -0.1666667  -0.5000000  -0.5000000), wk =   0.0046296
        k(  203) = (  -0.1666667  -0.5000000  -0.3333333), wk =   0.0046296
        k(  204) = (  -0.1666667  -0.5000000  -0.1666667), wk =   0.0046296
        k(  205) = (  -0.1666667  -0.3333333   0.0000000), wk =   0.0046296
        k(  206) = (  -0.1666667  -0.3333333   0.1666667), wk =   0.0046296
        k(  207) = (  -0.1666667  -0.3333333   0.3333333), wk =   0.0046296
        k(  208) = (  -0.1666667  -0.3333333  -0.5000000), wk =   0.0046296
        k(  209) = (  -0.1666667  -0.3333333  -0.3333333), wk =   0.0046296
        k(  210) = (  -0.1666667  -0.3333333  -0.1666667), wk =   0.0046296
        k(  211) = (  -0.1666667  -0.1666667   0.0000000), wk =   0.0046296
        k(  212) = (  -0.1666667  -0.1666667   0.1666667), wk =   0.0046296
        k(  213) = (  -0.1666667  -0.1666667   0.3333333), wk =   0.0046296
        k(  214) = (  -0.1666667  -0.1666667  -0.5000000), wk =   0.0046296
        k(  215) = (  -0.1666667  -0.1666667  -0.3333333), wk =   0.0046296
        k(  216) = (  -0.1666667  -0.1666667  -0.1666667), wk =   0.0046296

     Dense  grid:    37461 G-vectors     FFT dimensions: (  48,  48,  48)

     Dynamical RAM for                 wfc:       6.85 MB

     Dynamical RAM for     wfc (w. buffer):       6.85 MB

     Dynamical RAM for           str. fact:       1.14 MB

     Dynamical RAM for           local pot:       0.00 MB

     Dynamical RAM for          nlocal pot:       4.85 MB

     Dynamical RAM for                qrad:       7.04 MB

     Dynamical RAM for          rho,v,vnew:      16.98 MB

     Dynamical RAM for               rhoin:       5.66 MB

     Dynamical RAM for           G-vectors:       2.43 MB

     Dynamical RAM for          h,s,v(r/c):       0.42 MB

     Dynamical RAM for          <psi|beta>:       0.10 MB

     Dynamical RAM for                 psi:      13.70 MB

     Dynamical RAM for                hpsi:      13.70 MB

     Dynamical RAM for      wfcinit/wfcrot:      10.33 MB

     Estimated static dynamical RAM per process >      53.42 MB

     Estimated max dynamical RAM per process >      81.33 MB

     Estimated total dynamical RAM >     650.66 MB

     Initial potential from superposition of free atoms

     starting charge      29.9972, renormalised to      30.0000
     Starting wfcs are   36 randomized atomic wfcs +   12 random wfcs

     total cpu time spent up to now is        7.8 secs

     Self-consistent Calculation

     iteration #  1     ecut=    70.00 Ry     beta= 0.30
     Davidson diagonalization with overlap

---- Real-time Memory Report at c_bands before calling an iterative solver
             0 MiB given to the printing process from OS
             0 MiB allocation reported by mallinfo(arena+hblkhd)
             0 MiB available memory on the node where the printing process lives
------------------
     ethr =  1.00E-02,  avg # of iterations =  5.8

     Threshold (ethr) on eigenvalues was too large:
     Diagonalizing with lowered threshold

     Davidson diagonalization with overlap

---- Real-time Memory Report at c_bands before calling an iterative solver
             0 MiB given to the printing process from OS
             0 MiB allocation reported by mallinfo(arena+hblkhd)
             0 MiB available memory on the node where the printing process lives
------------------
     ethr =  1.03E-04,  avg # of iterations =  7.9

     total cpu time spent up to now is       53.2 secs

     total energy              =    -350.14235852 Ry
     estimated scf accuracy    <       0.03027409 Ry

     iteration #  2     ecut=    70.00 Ry     beta= 0.30
     Davidson diagonalization with overlap

---- Real-time Memory Report at c_bands before calling an iterative solver
             0 MiB given to the printing process from OS
             0 MiB allocation reported by mallinfo(arena+hblkhd)
             0 MiB available memory on the node where the printing process lives
------------------
     ethr =  1.01E-04,  avg # of iterations =  1.5

     total cpu time spent up to now is       74.5 secs

     total energy              =    -350.14475065 Ry
     estimated scf accuracy    <       0.00360187 Ry

     iteration #  3     ecut=    70.00 Ry     beta= 0.30
     Davidson diagonalization with overlap

---- Real-time Memory Report at c_bands before calling an iterative solver
             0 MiB given to the printing process from OS
             0 MiB allocation reported by mallinfo(arena+hblkhd)
             0 MiB available memory on the node where the printing process lives
------------------
     ethr =  1.20E-05,  avg # of iterations =  3.6

     total cpu time spent up to now is       95.1 secs

     total energy              =    -350.14524875 Ry
     estimated scf accuracy    <       0.00064528 Ry

     iteration #  4     ecut=    70.00 Ry     beta= 0.30
     Davidson diagonalization with overlap

---- Real-time Memory Report at c_bands before calling an iterative solver
             0 MiB given to the printing process from OS
             0 MiB allocation reported by mallinfo(arena+hblkhd)
             0 MiB available memory on the node where the printing process lives
------------------
     ethr =  2.15E-06,  avg # of iterations =  4.0

     total cpu time spent up to now is      112.7 secs

     total energy              =    -350.14530791 Ry
     estimated scf accuracy    <       0.00003281 Ry

     iteration #  5     ecut=    70.00 Ry     beta= 0.30
     Davidson diagonalization with overlap

---- Real-time Memory Report at c_bands before calling an iterative solver
             0 MiB given to the printing process from OS
             0 MiB allocation reported by mallinfo(arena+hblkhd)
             0 MiB available memory on the node where the printing process lives
------------------
     ethr =  1.09E-07,  avg # of iterations =  2.0

     total cpu time spent up to now is      129.6 secs

     total energy              =    -350.14531096 Ry
     estimated scf accuracy    <       0.00001061 Ry

     iteration #  6     ecut=    70.00 Ry     beta= 0.30
     Davidson diagonalization with overlap

---- Real-time Memory Report at c_bands before calling an iterative solver
             0 MiB given to the printing process from OS
             0 MiB allocation reported by mallinfo(arena+hblkhd)
             0 MiB available memory on the node where the printing process lives
------------------
     ethr =  3.54E-08,  avg # of iterations =  2.0

     total cpu time spent up to now is      145.1 secs

     total energy              =    -350.14531329 Ry
     estimated scf accuracy    <       0.00000027 Ry

     iteration #  7     ecut=    70.00 Ry     beta= 0.30
     Davidson diagonalization with overlap

---- Real-time Memory Report at c_bands before calling an iterative solver
             0 MiB given to the printing process from OS
             0 MiB allocation reported by mallinfo(arena+hblkhd)
             0 MiB available memory on the node where the printing process lives
------------------
     ethr =  9.12E-10,  avg # of iterations =  2.0

     total cpu time spent up to now is      164.8 secs

     total energy              =    -350.14531338 Ry
     estimated scf accuracy    <       0.00000004 Ry

     iteration #  8     ecut=    70.00 Ry     beta= 0.30
     Davidson diagonalization with overlap

---- Real-time Memory Report at c_bands before calling an iterative solver
             0 MiB given to the printing process from OS
             0 MiB allocation reported by mallinfo(arena+hblkhd)
             0 MiB available memory on the node where the printing process lives
------------------
     ethr =  1.29E-10,  avg # of iterations =  2.0

     total cpu time spent up to now is      185.4 secs

     End of self-consistent calculation

          k = 0.0000 0.0000 0.0000 (  4645 PWs)   bands (ev):

   -28.5451 -28.5451 -28.5451 -28.5451 -27.0805 -27.0805 -27.0805 -27.0805
   -27.0785 -27.0785  -9.5658  -9.5658  -9.5658  -9.5658  -6.9984  -6.9984
    -6.9984  -6.9984  -6.9937  -6.9937  -3.2872  -3.2872   2.8102   2.8102
     6.4281   6.4281   7.5324   7.5324   7.5324   7.5324  10.9917  10.9917
    13.1194  13.1194  13.1194  13.1194  14.3138  14.3138  14.3138  14.3138
    14.4394  14.4394  15.9243  15.9243  16.0516  16.0516  16.5017  16.5017

     occupation numbers 
     1.0000   1.0000   1.0000   1.0000   1.0000   1.0000   1.0000   1.0000
     1.0000   1.0000   1.0000   1.0000   1.0000   1.0000   1.0000   1.0000
     1.0000   1.0000   1.0000   1.0000   1.0000   1.0000   1.0000   1.0000
     1.0000   1.0000   1.0000   1.0000   1.0000   1.0000  -0.0000  -0.0000
    -0.0000  -0.0000  -0.0000  -0.0000  -0.0000  -0.0000  -0.0000  -0.0000
    -0.0000  -0.0000  -0.0000  -0.0000  -0.0000  -0.0000  -0.0000  -0.0000

          k =-0.0962-0.0680 0.1667 (  4699 PWs)   bands (ev):

   -28.5451 -28.5451 -28.5450 -28.5450 -27.0805 -27.0805 -27.0805 -27.0805
   -27.0785 -27.0785  -9.5664  -9.5664  -9.5647  -9.5647  -7.0019  -7.0019
    -6.9969  -6.9969  -6.9911  -6.9911  -3.0676  -3.0676   2.1580   2.1580
     6.6218   6.6218   7.5827   7.5827   7.7657   7.7657  10.2880  10.2880
    11.8718  11.8718  12.1162  12.1162  14.2300  14.2300  14.8384  14.8384
    14.8920  14.8920  17.3217  17.3217  17.7055  17.7056  17.9662  17.9663

     occupation numbers 
     1.0000   1.0000   1.0000   1.0000   1.0000   1.0000   1.0000   1.0000
     1.0000   1.0000   1.0000   1.0000   1.0000   1.0000   1.0000   1.0000
     1.0000   1.0000   1.0000   1.0000   1.0000   1.0000   1.0000   1.0000
     1.0000   1.0000   1.0000   1.0000   1.0000   1.0000  -0.0000  -0.0000
    -0.0000  -0.0000  -0.0000  -0.0000  -0.0000  -0.0000  -0.0000  -0.0000
    -0.0000  -0.0000  -0.0000  -0.0000  -0.0000  -0.0000  -0.0000  -0.0000

          k =-0.1925-0.1361 0.3333 (  4693 PWs)   bands (ev):

   -28.5450 -28.5450 -28.5449 -28.5449 -27.0806 -27.0806 -27.0802 -27.0802
   -27.0783 -27.0783  -9.5675  -9.5675  -9.5626  -9.5626  -7.0092  -7.0092
    -6.9938  -6.9938  -6.9857  -6.9857  -2.4783  -2.4783   0.8933   0.8933
     6.9806   6.9806   7.7399   7.7399   8.1835   8.1835   9.1586   9.1586
    10.4411  10.4411  10.8392  10.8392  15.1163  15.1163  16.2134  16.2134
    16.2336  16.2336  19.0776  19.0776  20.3818  20.3819  20.6276  20.6277

     occupation numbers 
     1.0000   1.0000   1.0000   1.0000   1.0000   1.0000   1.0000   1.0000
     1.0000   1.0000   1.0000   1.0000   1.0000   1.0000   1.0000   1.0000
     1.0000   1.0000   1.0000   1.0000   1.0000   1.0000   1.0000   1.0000
     1.0000   1.0000   1.0000   1.0000   1.0026   1.0026  -0.0000  -0.0000
    -0.0000  -0.0000  -0.0000  -0.0000  -0.0000  -0.0000  -0.0000  -0.0000
    -0.0000  -0.0000  -0.0000  -0.0000  -0.0000  -0.0000  -0.0000  -0.0000

          k = 0.2887 0.2041-0.5000 (  4664 PWs)   bands (ev):

   -28.5450 -28.5450 -28.5447 -28.5447 -27.0805 -27.0805 -27.0801 -27.0801
   -27.0782 -27.0782  -9.5681  -9.5681  -9.5615  -9.5615  -7.0128  -7.0128
    -6.9923  -6.9923  -6.9830  -6.9830  -1.9993  -1.9993   0.1319   0.1319
     7.2494   7.2494   7.8656   7.8656   8.4983   8.4983   8.5131   8.5131
     9.8047   9.8047  10.2959  10.2959  16.8059  16.8059  17.4124  17.4124
    17.9248  17.9248  17.9764  17.9764  19.0308  19.0308  19.0462  19.0462

     occupation numbers 
     1.0000   1.0000   1.0000   1.0000   1.0000   1.0000   1.0000   1.0000
     1.0000   1.0000   1.0000   1.0000   1.0000   1.0000   1.0000   1.0000
     1.0000   1.0000   1.0000   1.0000   1.0000   1.0000   1.0000   1.0000
     1.0000   1.0000   1.0000   1.0000   0.4927   0.4927   0.4013   0.4013
    -0.0000  -0.0000  -0.0000  -0.0000  -0.0000  -0.0000  -0.0000  -0.0000
    -0.0000  -0.0000  -0.0000  -0.0000  -0.0000  -0.0000  -0.0000  -0.0000

          k = 0.1925 0.1361-0.3333 (  4693 PWs)   bands (ev):

   -28.5450 -28.5450 -28.5449 -28.5449 -27.0806 -27.0806 -27.0802 -27.0802
   -27.0783 -27.0783  -9.5675  -9.5675  -9.5626  -9.5626  -7.0092  -7.0092
    -6.9938  -6.9938  -6.9857  -6.9857  -2.4783  -2.4783   0.8933   0.8933
     6.9806   6.9806   7.7399   7.7399   8.1835   8.1835   9.1586   9.1586
    10.4411  10.4411  10.8392  10.8392  15.1163  15.1163  16.2134  16.2134
    16.2336  16.2336  19.0776  19.0776  20.3818  20.3820  20.6275  20.6275

     occupation numbers 
     1.0000   1.0000   1.0000   1.0000   1.0000   1.0000   1.0000   1.0000
     1.0000   1.0000   1.0000   1.0000   1.0000   1.0000   1.0000   1.0000
     1.0000   1.0000   1.0000   1.0000   1.0000   1.0000   1.0000   1.0000
     1.0000   1.0000   1.0000   1.0000   1.0026   1.0026  -0.0000  -0.0000
    -0.0000  -0.0000  -0.0000  -0.0000  -0.0000  -0.0000  -0.0000  -0.0000
    -0.0000  -0.0000  -0.0000  -0.0000  -0.0000  -0.0000  -0.0000  -0.0000

          k = 0.0962 0.0680-0.1667 (  4699 PWs)   bands (ev):

   -28.5451 -28.5451 -28.5450 -28.5450 -27.0805 -27.0805 -27.0805 -27.0805
   -27.0785 -27.0785  -9.5664  -9.5664  -9.5647  -9.5647  -7.0019  -7.0019
    -6.9969  -6.9969  -6.9911  -6.9911  -3.0676  -3.0676   2.1580   2.1580
     6.6218   6.6218   7.5827   7.5827   7.7657   7.7657  10.2880  10.2880
    11.8718  11.8718  12.1162  12.1162  14.2300  14.2300  14.8384  14.8384
    14.8920  14.8920  17.3217  17.3217  17.7055  17.7055  17.9662  17.9662

     occupation numbers 
     1.0000   1.0000   1.0000   1.0000   1.0000   1.0000   1.0000   1.0000
     1.0000   1.0000   1.0000   1.0000   1.0000   1.0000   1.0000   1.0000
     1.0000   1.0000   1.0000   1.0000   1.0000   1.0000   1.0000   1.0000
     1.0000   1.0000   1.0000   1.0000   1.0000   1.0000  -0.0000  -0.0000
    -0.0000  -0.0000  -0.0000  -0.0000  -0.0000  -0.0000  -0.0000  -0.0000
    -0.0000  -0.0000  -0.0000  -0.0000  -0.0000  -0.0000  -0.0000  -0.0000

          k = 0.0000 0.2041 0.0000 (  4699 PWs)   bands (ev):

   -28.5451 -28.5451 -28.5450 -28.5450 -27.0805 -27.0805 -27.0805 -27.0805
   -27.0785 -27.0785  -9.5664  -9.5664  -9.5647  -9.5647  -7.0019  -7.0019
    -6.9969  -6.9969  -6.9911  -6.9911  -3.0676  -3.0676   2.1580   2.1580
     6.6218   6.6218   7.5827   7.5827   7.7657   7.7657  10.2880  10.2880
    11.8718  11.8718  12.1162  12.1162  14.2300  14.2300  14.8384  14.8384
    14.8920  14.8920  17.3217  17.3217  17.7055  17.7055  17.9662  17.9662

     occupation numbers 
     1.0000   1.0000   1.0000   1.0000   1.0000   1.0000   1.0000   1.0000
     1.0000   1.0000   1.0000   1.0000   1.0000   1.0000   1.0000   1.0000
     1.0000   1.0000   1.0000   1.0000   1.0000   1.0000   1.0000   1.0000
     1.0000   1.0000   1.0000   1.0000   1.0000   1.0000  -0.0000  -0.0000
    -0.0000  -0.0000  -0.0000  -0.0000  -0.0000  -0.0000  -0.0000  -0.0000
    -0.0000  -0.0000  -0.0000  -0.0000  -0.0000  -0.0000  -0.0000  -0.0000

          k =-0.0962 0.1361 0.1667 (  4681 PWs)   bands (ev):

   -28.5450 -28.5450 -28.5450 -28.5450 -27.0805 -27.0805 -27.0805 -27.0805
   -27.0784 -27.0784  -9.5662  -9.5662  -9.5649  -9.5649  -7.0040  -7.0040
    -6.9975  -6.9975  -6.9893  -6.9893  -2.9952  -2.9952   2.1200   2.1200
     6.2973   6.2973   7.1171   7.1171   8.1477   8.1477   9.9218   9.9218
    12.1242  12.1242  13.1617  13.1617  13.2471  13.2471  15.5444  15.5444
    15.8006  15.8006  16.4431  16.4431  16.7997  16.7997  17.9062  17.9062

     occupation numbers 
     1.0000   1.0000   1.0000   1.0000   1.0000   1.0000   1.0000   1.0000
     1.0000   1.0000   1.0000   1.0000   1.0000   1.0000   1.0000   1.0000
     1.0000   1.0000   1.0000   1.0000   1.0000   1.0000   1.0000   1.0000
     1.0000   1.0000   1.0000   1.0000   1.0008   1.0008  -0.0000  -0.0000
    -0.0000  -0.0000  -0.0000  -0.0000  -0.0000  -0.0000  -0.0000  -0.0000
    -0.0000  -0.0000  -0.0000  -0.0000  -0.0000  -0.0000  -0.0000  -0.0000

          k =-0.1925 0.0680 0.3333 (  4670 PWs)   bands (ev):

   -28.5450 -28.5450 -28.5449 -28.5449 -27.0805 -27.0805 -27.0803 -27.0803
   -27.0783 -27.0783  -9.5671  -9.5671  -9.5635  -9.5635  -7.0108  -7.0108
    -6.9969  -6.9969  -6.9841  -6.9841  -2.5313  -2.5313   1.2955   1.2955
     6.2532   6.2532   6.9412   6.9412   7.2891   7.2891  10.3971  10.3971
    11.5619  11.5619  12.3839  12.3839  13.4657  13.4657  16.6857  16.6857
    17.0199  17.0199  17.9921  17.9921  18.5186  18.5186  20.3681  20.3683

     occupation numbers 
     1.0000   1.0000   1.0000   1.0000   1.0000   1.0000   1.0000   1.0000
     1.0000   1.0000   1.0000   1.0000   1.0000   1.0000   1.0000   1.0000
     1.0000   1.0000   1.0000   1.0000   1.0000   1.0000   1.0000   1.0000
     1.0000   1.0000   1.0000   1.0000   1.0000   1.0000  -0.0000  -0.0000
    -0.0000  -0.0000  -0.0000  -0.0000  -0.0000  -0.0000  -0.0000  -0.0000
    -0.0000  -0.0000  -0.0000  -0.0000  -0.0000  -0.0000  -0.0000  -0.0000

          k = 0.2887 0.4082-0.5000 (  4662 PWs)   bands (ev):

   -28.5449 -28.5449 -28.5448 -28.5448 -27.0805 -27.0805 -27.0802 -27.0802
   -27.0782 -27.0782  -9.5677  -9.5677  -9.5624  -9.5624  -7.0144  -7.0144
    -6.9962  -6.9962  -6.9817  -6.9817  -1.9545  -1.9545   0.3869   0.3869
     6.1806   6.1806   6.6840   6.6840   7.3822   7.3822  10.1634  10.1634
    11.1256  11.1256  11.7809  11.7809  14.8459  14.8459  17.3927  17.3927
    18.0256  18.0256  18.4261  18.4261  19.3697  19.3697  21.2924  21.2924

     occupation numbers 
     1.0000   1.0000   1.0000   1.0000   1.0000   1.0000   1.0000   1.0000
     1.0000   1.0000   1.0000   1.0000   1.0000   1.0000   1.0000   1.0000
     1.0000   1.0000   1.0000   1.0000   1.0000   1.0000   1.0000   1.0000
     1.0000   1.0000   1.0000   1.0000   1.0000   1.0000  -0.0000  -0.0000
    -0.0000  -0.0000  -0.0000  -0.0000  -0.0000  -0.0000  -0.0000  -0.0000
    -0.0000  -0.0000  -0.0000  -0.0000  -0.0000  -0.0000  -0.0000  -0.0000

          k = 0.1925 0.3402-0.3333 (  4666 PWs)   bands (ev):

   -28.5450 -28.5450 -28.5448 -28.5448 -27.0805 -27.0805 -27.0802 -27.0802
   -27.0782 -27.0782  -9.5674  -9.5674  -9.5627  -9.5627  -7.0114  -7.0114
    -6.9969  -6.9969  -6.9831  -6.9831  -2.1132  -2.1132   0.5636   0.5636
     5.8511   5.8511   7.3281   7.3281   8.0198   8.0198   9.4302   9.4302
    10.4680  10.4680  12.3728  12.3728  15.3315  15.3315  16.1518  16.1518
    17.2678  17.2678  18.7232  18.7232  19.2032  19.2032  21.7590  21.7592

     occupation numbers 
     1.0000   1.0000   1.0000   1.0000   1.0000   1.0000   1.0000   1.0000
     1.0000   1.0000   1.0000   1.0000   1.0000   1.0000   1.0000   1.0000
     1.0000   1.0000   1.0000   1.0000   1.0000   1.0000   1.0000   1.0000
     1.0000   1.0000   1.0000   1.0000   1.0000   1.0000  -0.0000  -0.0000
    -0.0000  -0.0000  -0.0000  -0.0000  -0.0000  -0.0000  -0.0000  -0.0000
    -0.0000  -0.0000  -0.0000  -0.0000  -0.0000  -0.0000  -0.0000  -0.0000

          k = 0.0962 0.2722-0.1667 (  4689 PWs)   bands (ev):

   -28.5450 -28.5450 -28.5449 -28.5449 -27.0805 -27.0805 -27.0803 -27.0803
   -27.0784 -27.0784  -9.5667  -9.5667  -9.5639  -9.5639  -7.0054  -7.0054
    -6.9976  -6.9976  -6.9872  -6.9872  -2.7218  -2.7218   1.4829   1.4829
     6.1709   6.1709   7.6699   7.6699   8.3461   8.3461   9.3875   9.3875
    10.6322  10.6322  12.6376  12.6376  14.4493  14.4493  15.0054  15.0054
    16.6970  16.6970  16.9724  16.9724  19.4530  19.4530  19.6529  19.6529

     occupation numbers 
     1.0000   1.0000   1.0000   1.0000   1.0000   1.0000   1.0000   1.0000
     1.0000   1.0000   1.0000   1.0000   1.0000   1.0000   1.0000   1.0000
     1.0000   1.0000   1.0000   1.0000   1.0000   1.0000   1.0000   1.0000
     1.0000   1.0000   1.0000   1.0000   1.0331   1.0331  -0.0000  -0.0000
    -0.0000  -0.0000  -0.0000  -0.0000  -0.0000  -0.0000  -0.0000  -0.0000
    -0.0000  -0.0000  -0.0000  -0.0000  -0.0000  -0.0000  -0.0000  -0.0000

          k = 0.0000 0.4082 0.0000 (  4693 PWs)   bands (ev):

   -28.5450 -28.5450 -28.5449 -28.5449 -27.0806 -27.0806 -27.0802 -27.0802
   -27.0783 -27.0783  -9.5675  -9.5675  -9.5626  -9.5626  -7.0092  -7.0092
    -6.9938  -6.9938  -6.9857  -6.9857  -2.4783  -2.4783   0.8933   0.8933
     6.9806   6.9806   7.7399   7.7399   8.1835   8.1835   9.1586   9.1586
    10.4411  10.4411  10.8392  10.8392  15.1163  15.1163  16.2134  16.2134
    16.2336  16.2336  19.0776  19.0776  20.3818  20.3821  20.6275  20.6276

     occupation numbers 
     1.0000   1.0000   1.0000   1.0000   1.0000   1.0000   1.0000   1.0000
     1.0000   1.0000   1.0000   1.0000   1.0000   1.0000   1.0000   1.0000
     1.0000   1.0000   1.0000   1.0000   1.0000   1.0000   1.0000   1.0000
     1.0000   1.0000   1.0000   1.0000   1.0026   1.0026  -0.0000  -0.0000
    -0.0000  -0.0000  -0.0000  -0.0000  -0.0000  -0.0000  -0.0000  -0.0000
    -0.0000  -0.0000  -0.0000  -0.0000  -0.0000  -0.0000  -0.0000  -0.0000

          k =-0.0962 0.3402 0.1667 (  4670 PWs)   bands (ev):

   -28.5450 -28.5450 -28.5449 -28.5449 -27.0805 -27.0805 -27.0803 -27.0803
   -27.0783 -27.0783  -9.5671  -9.5671  -9.5635  -9.5635  -7.0108  -7.0108
    -6.9969  -6.9969  -6.9841  -6.9841  -2.5313  -2.5313   1.2955   1.2955
     6.2532   6.2532   6.9412   6.9412   7.2891   7.2891  10.3971  10.3971
    11.5619  11.5619  12.3839  12.3839  13.4657  13.4657  16.6857  16.6857
    17.0199  17.0199  17.9921  17.9921  18.5186  18.5186  20.3681  20.3682

     occupation numbers 
     1.0000   1.0000   1.0000   1.0000   1.0000   1.0000   1.0000   1.0000
     1.0000   1.0000   1.0000   1.0000   1.0000   1.0000   1.0000   1.0000
     1.0000   1.0000   1.0000   1.0000   1.0000   1.0000   1.0000   1.0000
     1.0000   1.0000   1.0000   1.0000   1.0000   1.0000  -0.0000  -0.0000
    -0.0000  -0.0000  -0.0000  -0.0000  -0.0000  -0.0000  -0.0000  -0.0000
    -0.0000  -0.0000  -0.0000  -0.0000  -0.0000  -0.0000  -0.0000  -0.0000

          k =-0.1925 0.2722 0.3333 (  4672 PWs)   bands (ev):

   -28.5450 -28.5450 -28.5448 -28.5448 -27.0804 -27.0804 -27.0804 -27.0804
   -27.0782 -27.0782  -9.5682  -9.5682  -9.5630  -9.5630  -7.0220  -7.0220
    -6.9974  -6.9974  -6.9780  -6.9780  -2.2523  -2.2523   1.3942   1.3942
     5.6567   5.6567   5.7113   5.7113   6.4268   6.4268  12.0770  12.0770
    12.2531  12.2531  12.9491  12.9491  13.8677  13.8677  17.4754  17.4754
    17.6735  17.6735  18.3090  18.3090  18.6031  18.6031  21.1174  21.1174

     occupation numbers 
     1.0000   1.0000   1.0000   1.0000   1.0000   1.0000   1.0000   1.0000
     1.0000   1.0000   1.0000   1.0000   1.0000   1.0000   1.0000   1.0000
     1.0000   1.0000   1.0000   1.0000   1.0000   1.0000   1.0000   1.0000
     1.0000   1.0000   1.0000   1.0000   1.0000   1.0000  -0.0000  -0.0000
    -0.0000  -0.0000  -0.0000  -0.0000  -0.0000  -0.0000  -0.0000  -0.0000
    -0.0000  -0.0000  -0.0000  -0.0000  -0.0000  -0.0000  -0.0000  -0.0000

          k = 0.2887 0.6124-0.5000 (  4674 PWs)   bands (ev):

   -28.5449 -28.5449 -28.5448 -28.5448 -27.0804 -27.0804 -27.0803 -27.0803
   -27.0781 -27.0781  -9.5686  -9.5686  -9.5626  -9.5626  -7.0264  -7.0264
    -6.9975  -6.9975  -6.9759  -6.9759  -1.8355  -1.8355   0.9590   0.9590
     4.7361   4.7361   5.7778   5.7778   6.4668   6.4668  11.8734  11.8734
    12.5848  12.5848  13.4049  13.4049  13.9538  13.9538  18.0609  18.0609
    18.6842  18.6842  19.3995  19.3995  19.5097  19.5097  20.5660  20.5660

     occupation numbers 
     1.0000   1.0000   1.0000   1.0000   1.0000   1.0000   1.0000   1.0000
     1.0000   1.0000   1.0000   1.0000   1.0000   1.0000   1.0000   1.0000
     1.0000   1.0000   1.0000   1.0000   1.0000   1.0000   1.0000   1.0000
     1.0000   1.0000   1.0000   1.0000   1.0000   1.0000  -0.0000  -0.0000
    -0.0000  -0.0000  -0.0000  -0.0000  -0.0000  -0.0000  -0.0000  -0.0000
    -0.0000  -0.0000  -0.0000  -0.0000  -0.0000  -0.0000  -0.0000  -0.0000

          k = 0.1925 0.5443-0.3333 (  4674 PWs)   bands (ev):

   -28.5449 -28.5449 -28.5448 -28.5448 -27.0804 -27.0804 -27.0802 -27.0802
   -27.0781 -27.0781  -9.5676  -9.5676  -9.5631  -9.5631  -7.0192  -7.0192
    -6.9983  -6.9983  -6.9795  -6.9795  -1.7335  -1.7335   0.5276   0.5276
     4.7796   4.7796   6.3910   6.3910   7.0672   7.0672  10.7484  10.7484
    11.8141  11.8141  13.7518  13.7518  14.6614  14.6614  16.5906  16.5906
    16.9746  16.9746  18.8506  18.8506  21.6178  21.6178  21.8446  21.8446

     occupation numbers 
     1.0000   1.0000   1.0000   1.0000   1.0000   1.0000   1.0000   1.0000
     1.0000   1.0000   1.0000   1.0000   1.0000   1.0000   1.0000   1.0000
     1.0000   1.0000   1.0000   1.0000   1.0000   1.0000   1.0000   1.0000
     1.0000   1.0000   1.0000   1.0000   1.0000   1.0000  -0.0000  -0.0000
    -0.0000  -0.0000  -0.0000  -0.0000  -0.0000  -0.0000  -0.0000  -0.0000
    -0.0000  -0.0000  -0.0000  -0.0000  -0.0000  -0.0000  -0.0000  -0.0000

          k = 0.0962 0.4763-0.1667 (  4666 PWs)   bands (ev):

   -28.5450 -28.5450 -28.5448 -28.5448 -27.0805 -27.0805 -27.0802 -27.0802
   -27.0782 -27.0782  -9.5674  -9.5674  -9.5627  -9.5627  -7.0114  -7.0114
    -6.9969  -6.9969  -6.9831  -6.9831  -2.1132  -2.1132   0.5636   0.5636
     5.8511   5.8511   7.3281   7.3281   8.0198   8.0198   9.4302   9.4302
    10.4680  10.4680  12.3728  12.3728  15.3315  15.3315  16.1518  16.1518
    17.2678  17.2678  18.7232  18.7232  19.2032  19.2032  21.7590  21.7591

     occupation numbers 
     1.0000   1.0000   1.0000   1.0000   1.0000   1.0000   1.0000   1.0000
     1.0000   1.0000   1.0000   1.0000   1.0000   1.0000   1.0000   1.0000
     1.0000   1.0000   1.0000   1.0000   1.0000   1.0000   1.0000   1.0000
     1.0000   1.0000   1.0000   1.0000   1.0000   1.0000  -0.0000  -0.0000
    -0.0000  -0.0000  -0.0000  -0.0000  -0.0000  -0.0000  -0.0000  -0.0000
    -0.0000  -0.0000  -0.0000  -0.0000  -0.0000  -0.0000  -0.0000  -0.0000

          k = 0.0000-0.6124 0.0000 (  4664 PWs)   bands (ev):

   -28.5450 -28.5450 -28.5447 -28.5447 -27.0805 -27.0805 -27.0801 -27.0801
   -27.0782 -27.0782  -9.5681  -9.5681  -9.5615  -9.5615  -7.0128  -7.0128
    -6.9923  -6.9923  -6.9830  -6.9830  -1.9993  -1.9993   0.1319   0.1319
     7.2494   7.2494   7.8656   7.8656   8.4983   8.4983   8.5131   8.5131
     9.8047   9.8047  10.2959  10.2959  16.8059  16.8059  17.4124  17.4124
    17.9248  17.9248  17.9764  17.9764  19.0308  19.0308  19.0462  19.0462

     occupation numbers 
     1.0000   1.0000   1.0000   1.0000   1.0000   1.0000   1.0000   1.0000
     1.0000   1.0000   1.0000   1.0000   1.0000   1.0000   1.0000   1.0000
     1.0000   1.0000   1.0000   1.0000   1.0000   1.0000   1.0000   1.0000
     1.0000   1.0000   1.0000   1.0000   0.4927   0.4927   0.4013   0.4013
    -0.0000  -0.0000  -0.0000  -0.0000  -0.0000  -0.0000  -0.0000  -0.0000
    -0.0000  -0.0000  -0.0000  -0.0000  -0.0000  -0.0000  -0.0000  -0.0000

          k =-0.0962-0.6804 0.1667 (  4662 PWs)   bands (ev):

   -28.5449 -28.5449 -28.5448 -28.5448 -27.0805 -27.0805 -27.0802 -27.0802
   -27.0782 -27.0782  -9.5677  -9.5677  -9.5624  -9.5624  -7.0144  -7.0144
    -6.9962  -6.9962  -6.9817  -6.9817  -1.9545  -1.9545   0.3869   0.3869
     6.1806   6.1806   6.6840   6.6840   7.3822   7.3822  10.1634  10.1634
    11.1256  11.1256  11.7809  11.7809  14.8459  14.8459  17.3927  17.3927
    18.0256  18.0256  18.4261  18.4261  19.3697  19.3697  21.2924  21.2924

     occupation numbers 
     1.0000   1.0000   1.0000   1.0000   1.0000   1.0000   1.0000   1.0000
     1.0000   1.0000   1.0000   1.0000   1.0000   1.0000   1.0000   1.0000
     1.0000   1.0000   1.0000   1.0000   1.0000   1.0000   1.0000   1.0000
     1.0000   1.0000   1.0000   1.0000   1.0000   1.0000  -0.0000  -0.0000
    -0.0000  -0.0000  -0.0000  -0.0000  -0.0000  -0.0000  -0.0000  -0.0000
    -0.0000  -0.0000  -0.0000  -0.0000  -0.0000  -0.0000  -0.0000  -0.0000

          k =-0.1925-0.7485 0.3333 (  4674 PWs)   bands (ev):

   -28.5449 -28.5449 -28.5448 -28.5448 -27.0804 -27.0804 -27.0803 -27.0803
   -27.0781 -27.0781  -9.5686  -9.5686  -9.5626  -9.5626  -7.0264  -7.0264
    -6.9975  -6.9975  -6.9759  -6.9759  -1.8355  -1.8355   0.9590   0.9590
     4.7361   4.7361   5.7778   5.7778   6.4668   6.4668  11.8734  11.8734
    12.5848  12.5848  13.4049  13.4049  13.9538  13.9538  18.0609  18.0609
    18.6842  18.6842  19.3995  19.3995  19.5097  19.5097  20.5660  20.5660

     occupation numbers 
     1.0000   1.0000   1.0000   1.0000   1.0000   1.0000   1.0000   1.0000
     1.0000   1.0000   1.0000   1.0000   1.0000   1.0000   1.0000   1.0000
     1.0000   1.0000   1.0000   1.0000   1.0000   1.0000   1.0000   1.0000
     1.0000   1.0000   1.0000   1.0000   1.0000   1.0000  -0.0000  -0.0000
    -0.0000  -0.0000  -0.0000  -0.0000  -0.0000  -0.0000  -0.0000  -0.0000
    -0.0000  -0.0000  -0.0000  -0.0000  -0.0000  -0.0000  -0.0000  -0.0000

          k = 0.2887-0.4082-0.5000 (  4720 PWs)   bands (ev):

   -28.5450 -28.5450 -28.5448 -28.5448 -27.0804 -27.0804 -27.0804 -27.0804
   -27.0781 -27.0781  -9.5698  -9.5698  -9.5620  -9.5620  -7.0339  -7.0339
    -6.9974  -6.9974  -6.9719  -6.9719  -1.7603  -1.7603   1.3006   1.3006
     4.1545   4.1545   5.4229   5.4229   6.1298   6.1298  11.9146  11.9146
    12.8093  12.8093  14.4386  14.4386  14.9052  14.9052  18.6209  18.6209
    19.2026  19.2026  19.5455  19.5456  20.1076  20.1077  20.1650  20.1651

     occupation numbers 
     1.0000   1.0000   1.0000   1.0000   1.0000   1.0000   1.0000   1.0000
     1.0000   1.0000   1.0000   1.0000   1.0000   1.0000   1.0000   1.0000
     1.0000   1.0000   1.0000   1.0000   1.0000   1.0000   1.0000   1.0000
     1.0000   1.0000   1.0000   1.0000   1.0000   1.0000  -0.0000  -0.0000
    -0.0000  -0.0000  -0.0000  -0.0000  -0.0000  -0.0000  -0.0000  -0.0000
    -0.0000  -0.0000  -0.0000  -0.0000  -0.0000  -0.0000  -0.0000  -0.0000

          k = 0.1925-0.4763-0.3333 (  4674 PWs)   bands (ev):

   -28.5449 -28.5449 -28.5448 -28.5448 -27.0804 -27.0804 -27.0803 -27.0803
   -27.0781 -27.0781  -9.5686  -9.5686  -9.5626  -9.5626  -7.0264  -7.0264
    -6.9975  -6.9975  -6.9759  -6.9759  -1.8355  -1.8355   0.9590   0.9590
     4.7361   4.7361   5.7778   5.7778   6.4668   6.4668  11.8734  11.8734
    12.5848  12.5848  13.4049  13.4049  13.9538  13.9538  18.0609  18.0609
    18.6842  18.6842  19.3995  19.3995  19.5097  19.5097  20.5660  20.5661

     occupation numbers 
     1.0000   1.0000   1.0000   1.0000   1.0000   1.0000   1.0000   1.0000
     1.0000   1.0000   1.0000   1.0000   1.0000   1.0000   1.0000   1.0000
     1.0000   1.0000   1.0000   1.0000   1.0000   1.0000   1.0000   1.0000
     1.0000   1.0000   1.0000   1.0000   1.0000   1.0000  -0.0000  -0.0000
    -0.0000  -0.0000  -0.0000  -0.0000  -0.0000  -0.0000  -0.0000  -0.0000
    -0.0000  -0.0000  -0.0000  -0.0000  -0.0000  -0.0000  -0.0000  -0.0000

          k = 0.0962-0.5443-0.1667 (  4662 PWs)   bands (ev):

   -28.5449 -28.5449 -28.5448 -28.5448 -27.0805 -27.0805 -27.0802 -27.0802
   -27.0782 -27.0782  -9.5677  -9.5677  -9.5624  -9.5624  -7.0144  -7.0144
    -6.9962  -6.9962  -6.9817  -6.9817  -1.9545  -1.9545   0.3869   0.3869
     6.1806   6.1806   6.6840   6.6840   7.3822   7.3822  10.1634  10.1634
    11.1256  11.1256  11.7809  11.7809  14.8459  14.8459  17.3927  17.3927
    18.0256  18.0256  18.4261  18.4261  19.3697  19.3697  21.2924  21.2924

     occupation numbers 
     1.0000   1.0000   1.0000   1.0000   1.0000   1.0000   1.0000   1.0000
     1.0000   1.0000   1.0000   1.0000   1.0000   1.0000   1.0000   1.0000
     1.0000   1.0000   1.0000   1.0000   1.0000   1.0000   1.0000   1.0000
     1.0000   1.0000   1.0000   1.0000   1.0000   1.0000  -0.0000  -0.0000
    -0.0000  -0.0000  -0.0000  -0.0000  -0.0000  -0.0000  -0.0000  -0.0000
    -0.0000  -0.0000  -0.0000  -0.0000  -0.0000  -0.0000  -0.0000  -0.0000

          k = 0.0000-0.4082 0.0000 (  4693 PWs)   bands (ev):

   -28.5450 -28.5450 -28.5449 -28.5449 -27.0806 -27.0806 -27.0802 -27.0802
   -27.0783 -27.0783  -9.5675  -9.5675  -9.5626  -9.5626  -7.0092  -7.0092
    -6.9938  -6.9938  -6.9857  -6.9857  -2.4783  -2.4783   0.8933   0.8933
     6.9806   6.9806   7.7399   7.7399   8.1835   8.1835   9.1586   9.1586
    10.4411  10.4411  10.8392  10.8392  15.1163  15.1163  16.2134  16.2134
    16.2336  16.2336  19.0776  19.0776  20.3818  20.3821  20.6275  20.6278

     occupation numbers 
     1.0000   1.0000   1.0000   1.0000   1.0000   1.0000   1.0000   1.0000
     1.0000   1.0000   1.0000   1.0000   1.0000   1.0000   1.0000   1.0000
     1.0000   1.0000   1.0000   1.0000   1.0000   1.0000   1.0000   1.0000
     1.0000   1.0000   1.0000   1.0000   1.0026   1.0026  -0.0000  -0.0000
    -0.0000  -0.0000  -0.0000  -0.0000  -0.0000  -0.0000  -0.0000  -0.0000
    -0.0000  -0.0000  -0.0000  -0.0000  -0.0000  -0.0000  -0.0000  -0.0000

          k =-0.0962-0.4763 0.1667 (  4666 PWs)   bands (ev):

   -28.5450 -28.5450 -28.5448 -28.5448 -27.0805 -27.0805 -27.0802 -27.0802
   -27.0782 -27.0782  -9.5674  -9.5674  -9.5627  -9.5627  -7.0114  -7.0114
    -6.9969  -6.9969  -6.9831  -6.9831  -2.1132  -2.1132   0.5636   0.5636
     5.8511   5.8511   7.3281   7.3281   8.0198   8.0198   9.4302   9.4302
    10.4680  10.4680  12.3728  12.3728  15.3315  15.3315  16.1518  16.1518
    17.2678  17.2678  18.7232  18.7232  19.2032  19.2032  21.7592  21.7595

     occupation numbers 
     1.0000   1.0000   1.0000   1.0000   1.0000   1.0000   1.0000   1.0000
     1.0000   1.0000   1.0000   1.0000   1.0000   1.0000   1.0000   1.0000
     1.0000   1.0000   1.0000   1.0000   1.0000   1.0000   1.0000   1.0000
     1.0000   1.0000   1.0000   1.0000   1.0000   1.0000  -0.0000  -0.0000
    -0.0000  -0.0000  -0.0000  -0.0000  -0.0000  -0.0000  -0.0000  -0.0000
    -0.0000  -0.0000  -0.0000  -0.0000  -0.0000  -0.0000  -0.0000  -0.0000

          k =-0.1925-0.5443 0.3333 (  4674 PWs)   bands (ev):

   -28.5449 -28.5449 -28.5448 -28.5448 -27.0804 -27.0804 -27.0802 -27.0802
   -27.0781 -27.0781  -9.5676  -9.5676  -9.5631  -9.5631  -7.0192  -7.0192
    -6.9983  -6.9983  -6.9795  -6.9795  -1.7335  -1.7335   0.5276   0.5276
     4.7796   4.7796   6.3910   6.3910   7.0672   7.0672  10.7484  10.7484
    11.8141  11.8141  13.7518  13.7518  14.6614  14.6614  16.5906  16.5906
    16.9746  16.9746  18.8506  18.8506  21.6178  21.6178  21.8446  21.8446

     occupation numbers 
     1.0000   1.0000   1.0000   1.0000   1.0000   1.0000   1.0000   1.0000
     1.0000   1.0000   1.0000   1.0000   1.0000   1.0000   1.0000   1.0000
     1.0000   1.0000   1.0000   1.0000   1.0000   1.0000   1.0000   1.0000
     1.0000   1.0000   1.0000   1.0000   1.0000   1.0000  -0.0000  -0.0000
    -0.0000  -0.0000  -0.0000  -0.0000  -0.0000  -0.0000  -0.0000  -0.0000
    -0.0000  -0.0000  -0.0000  -0.0000  -0.0000  -0.0000  -0.0000  -0.0000

          k = 0.2887-0.2041-0.5000 (  4674 PWs)   bands (ev):

   -28.5449 -28.5449 -28.5448 -28.5448 -27.0804 -27.0804 -27.0803 -27.0803
   -27.0781 -27.0781  -9.5686  -9.5686  -9.5626  -9.5626  -7.0264  -7.0264
    -6.9975  -6.9975  -6.9759  -6.9759  -1.8355  -1.8355   0.9590   0.9590
     4.7361   4.7361   5.7778   5.7778   6.4668   6.4668  11.8734  11.8734
    12.5848  12.5848  13.4049  13.4049  13.9538  13.9538  18.0609  18.0609
    18.6842  18.6842  19.3995  19.3995  19.5097  19.5097  20.5660  20.5661

     occupation numbers 
     1.0000   1.0000   1.0000   1.0000   1.0000   1.0000   1.0000   1.0000
     1.0000   1.0000   1.0000   1.0000   1.0000   1.0000   1.0000   1.0000
     1.0000   1.0000   1.0000   1.0000   1.0000   1.0000   1.0000   1.0000
     1.0000   1.0000   1.0000   1.0000   1.0000   1.0000  -0.0000  -0.0000
    -0.0000  -0.0000  -0.0000  -0.0000  -0.0000  -0.0000  -0.0000  -0.0000
    -0.0000  -0.0000  -0.0000  -0.0000  -0.0000  -0.0000  -0.0000  -0.0000

          k = 0.1925-0.2722-0.3333 (  4672 PWs)   bands (ev):

   -28.5450 -28.5450 -28.5448 -28.5448 -27.0804 -27.0804 -27.0804 -27.0804
   -27.0782 -27.0782  -9.5682  -9.5682  -9.5630  -9.5630  -7.0220  -7.0220
    -6.9974  -6.9974  -6.9780  -6.9780  -2.2523  -2.2523   1.3942   1.3942
     5.6567   5.6567   5.7113   5.7113   6.4268   6.4268  12.0770  12.0770
    12.2531  12.2531  12.9491  12.9491  13.8677  13.8677  17.4754  17.4754
    17.6735  17.6735  18.3090  18.3090  18.6031  18.6031  21.1174  21.1176

     occupation numbers 
     1.0000   1.0000   1.0000   1.0000   1.0000   1.0000   1.0000   1.0000
     1.0000   1.0000   1.0000   1.0000   1.0000   1.0000   1.0000   1.0000
     1.0000   1.0000   1.0000   1.0000   1.0000   1.0000   1.0000   1.0000
     1.0000   1.0000   1.0000   1.0000   1.0000   1.0000  -0.0000  -0.0000
    -0.0000  -0.0000  -0.0000  -0.0000  -0.0000  -0.0000  -0.0000  -0.0000
    -0.0000  -0.0000  -0.0000  -0.0000  -0.0000  -0.0000  -0.0000  -0.0000

          k = 0.0962-0.3402-0.1667 (  4670 PWs)   bands (ev):

   -28.5450 -28.5450 -28.5449 -28.5449 -27.0805 -27.0805 -27.0803 -27.0803
   -27.0783 -27.0783  -9.5671  -9.5671  -9.5635  -9.5635  -7.0108  -7.0108
    -6.9969  -6.9969  -6.9841  -6.9841  -2.5313  -2.5313   1.2955   1.2955
     6.2532   6.2532   6.9412   6.9412   7.2891   7.2891  10.3971  10.3971
    11.5619  11.5619  12.3839  12.3839  13.4657  13.4657  16.6857  16.6857
    17.0199  17.0199  17.9921  17.9921  18.5186  18.5186  20.3681  20.3682

     occupation numbers 
     1.0000   1.0000   1.0000   1.0000   1.0000   1.0000   1.0000   1.0000
     1.0000   1.0000   1.0000   1.0000   1.0000   1.0000   1.0000   1.0000
     1.0000   1.0000   1.0000   1.0000   1.0000   1.0000   1.0000   1.0000
     1.0000   1.0000   1.0000   1.0000   1.0000   1.0000  -0.0000  -0.0000
    -0.0000  -0.0000  -0.0000  -0.0000  -0.0000  -0.0000  -0.0000  -0.0000
    -0.0000  -0.0000  -0.0000  -0.0000  -0.0000  -0.0000  -0.0000  -0.0000

          k = 0.0000-0.2041 0.0000 (  4699 PWs)   bands (ev):

   -28.5451 -28.5451 -28.5450 -28.5450 -27.0805 -27.0805 -27.0805 -27.0805
   -27.0785 -27.0785  -9.5664  -9.5664  -9.5647  -9.5647  -7.0019  -7.0019
    -6.9969  -6.9969  -6.9911  -6.9911  -3.0676  -3.0676   2.1580   2.1580
     6.6218   6.6218   7.5827   7.5827   7.7657   7.7657  10.2880  10.2880
    11.8718  11.8718  12.1162  12.1162  14.2300  14.2300  14.8384  14.8384
    14.8920  14.8920  17.3217  17.3217  17.7055  17.7055  17.9662  17.9662

     occupation numbers 
     1.0000   1.0000   1.0000   1.0000   1.0000   1.0000   1.0000   1.0000
     1.0000   1.0000   1.0000   1.0000   1.0000   1.0000   1.0000   1.0000
     1.0000   1.0000   1.0000   1.0000   1.0000   1.0000   1.0000   1.0000
     1.0000   1.0000   1.0000   1.0000   1.0000   1.0000  -0.0000  -0.0000
    -0.0000  -0.0000  -0.0000  -0.0000  -0.0000  -0.0000  -0.0000  -0.0000
    -0.0000  -0.0000  -0.0000  -0.0000  -0.0000  -0.0000  -0.0000  -0.0000

          k =-0.0962-0.2722 0.1667 (  4689 PWs)   bands (ev):

   -28.5450 -28.5450 -28.5449 -28.5449 -27.0805 -27.0805 -27.0803 -27.0803
   -27.0784 -27.0784  -9.5667  -9.5667  -9.5639  -9.5639  -7.0054  -7.0054
    -6.9976  -6.9976  -6.9872  -6.9872  -2.7218  -2.7218   1.4829   1.4829
     6.1709   6.1709   7.6699   7.6699   8.3461   8.3461   9.3875   9.3875
    10.6322  10.6322  12.6376  12.6376  14.4493  14.4493  15.0054  15.0054
    16.6970  16.6970  16.9724  16.9724  19.4530  19.4530  19.6529  19.6530

     occupation numbers 
     1.0000   1.0000   1.0000   1.0000   1.0000   1.0000   1.0000   1.0000
     1.0000   1.0000   1.0000   1.0000   1.0000   1.0000   1.0000   1.0000
     1.0000   1.0000   1.0000   1.0000   1.0000   1.0000   1.0000   1.0000
     1.0000   1.0000   1.0000   1.0000   1.0331   1.0331  -0.0000  -0.0000
    -0.0000  -0.0000  -0.0000  -0.0000  -0.0000  -0.0000  -0.0000  -0.0000
    -0.0000  -0.0000  -0.0000  -0.0000  -0.0000  -0.0000  -0.0000  -0.0000

          k =-0.1925-0.3402 0.3333 (  4666 PWs)   bands (ev):

   -28.5450 -28.5450 -28.5448 -28.5448 -27.0805 -27.0805 -27.0802 -27.0802
   -27.0782 -27.0782  -9.5674  -9.5674  -9.5627  -9.5627  -7.0114  -7.0114
    -6.9969  -6.9969  -6.9831  -6.9831  -2.1132  -2.1132   0.5636   0.5636
     5.8511   5.8511   7.3281   7.3281   8.0198   8.0198   9.4302   9.4302
    10.4680  10.4680  12.3728  12.3728  15.3315  15.3315  16.1518  16.1518
    17.2678  17.2678  18.7232  18.7232  19.2032  19.2032  21.7590  21.7591

     occupation numbers 
     1.0000   1.0000   1.0000   1.0000   1.0000   1.0000   1.0000   1.0000
     1.0000   1.0000   1.0000   1.0000   1.0000   1.0000   1.0000   1.0000
     1.0000   1.0000   1.0000   1.0000   1.0000   1.0000   1.0000   1.0000
     1.0000   1.0000   1.0000   1.0000   1.0000   1.0000  -0.0000  -0.0000
    -0.0000  -0.0000  -0.0000  -0.0000  -0.0000  -0.0000  -0.0000  -0.0000
    -0.0000  -0.0000  -0.0000  -0.0000  -0.0000  -0.0000  -0.0000  -0.0000

          k = 0.2887 0.0000-0.5000 (  4662 PWs)   bands (ev):

   -28.5449 -28.5449 -28.5448 -28.5448 -27.0805 -27.0805 -27.0802 -27.0802
   -27.0782 -27.0782  -9.5677  -9.5677  -9.5624  -9.5624  -7.0144  -7.0144
    -6.9962  -6.9962  -6.9817  -6.9817  -1.9545  -1.9545   0.3869   0.3869
     6.1806   6.1806   6.6840   6.6840   7.3822   7.3822  10.1634  10.1634
    11.1256  11.1256  11.7809  11.7809  14.8459  14.8459  17.3927  17.3927
    18.0256  18.0256  18.4261  18.4261  19.3697  19.3697  21.2924  21.2924

     occupation numbers 
     1.0000   1.0000   1.0000   1.0000   1.0000   1.0000   1.0000   1.0000
     1.0000   1.0000   1.0000   1.0000   1.0000   1.0000   1.0000   1.0000
     1.0000   1.0000   1.0000   1.0000   1.0000   1.0000   1.0000   1.0000
     1.0000   1.0000   1.0000   1.0000   1.0000   1.0000  -0.0000  -0.0000
    -0.0000  -0.0000  -0.0000  -0.0000  -0.0000  -0.0000  -0.0000  -0.0000
    -0.0000  -0.0000  -0.0000  -0.0000  -0.0000  -0.0000  -0.0000  -0.0000

          k = 0.1925-0.0680-0.3333 (  4670 PWs)   bands (ev):

   -28.5450 -28.5450 -28.5449 -28.5449 -27.0805 -27.0805 -27.0803 -27.0803
   -27.0783 -27.0783  -9.5671  -9.5671  -9.5635  -9.5635  -7.0108  -7.0108
    -6.9969  -6.9969  -6.9841  -6.9841  -2.5313  -2.5313   1.2955   1.2955
     6.2532   6.2532   6.9412   6.9412   7.2891   7.2891  10.3971  10.3971
    11.5619  11.5619  12.3839  12.3839  13.4657  13.4657  16.6857  16.6857
    17.0199  17.0199  17.9921  17.9921  18.5186  18.5186  20.3682  20.3683

     occupation numbers 
     1.0000   1.0000   1.0000   1.0000   1.0000   1.0000   1.0000   1.0000
     1.0000   1.0000   1.0000   1.0000   1.0000   1.0000   1.0000   1.0000
     1.0000   1.0000   1.0000   1.0000   1.0000   1.0000   1.0000   1.0000
     1.0000   1.0000   1.0000   1.0000   1.0000   1.0000  -0.0000  -0.0000
    -0.0000  -0.0000  -0.0000  -0.0000  -0.0000  -0.0000  -0.0000  -0.0000
    -0.0000  -0.0000  -0.0000  -0.0000  -0.0000  -0.0000  -0.0000  -0.0000

          k = 0.0962-0.1361-0.1667 (  4681 PWs)   bands (ev):

   -28.5450 -28.5450 -28.5450 -28.5450 -27.0805 -27.0805 -27.0805 -27.0805
   -27.0784 -27.0784  -9.5662  -9.5662  -9.5649  -9.5649  -7.0040  -7.0040
    -6.9975  -6.9975  -6.9893  -6.9893  -2.9952  -2.9952   2.1200   2.1200
     6.2973   6.2973   7.1171   7.1171   8.1477   8.1477   9.9218   9.9218
    12.1242  12.1242  13.1617  13.1617  13.2471  13.2471  15.5444  15.5444
    15.8006  15.8006  16.4431  16.4431  16.7997  16.7997  17.9062  17.9062

     occupation numbers 
     1.0000   1.0000   1.0000   1.0000   1.0000   1.0000   1.0000   1.0000
     1.0000   1.0000   1.0000   1.0000   1.0000   1.0000   1.0000   1.0000
     1.0000   1.0000   1.0000   1.0000   1.0000   1.0000   1.0000   1.0000
     1.0000   1.0000   1.0000   1.0000   1.0008   1.0008  -0.0000  -0.0000
    -0.0000  -0.0000  -0.0000  -0.0000  -0.0000  -0.0000  -0.0000  -0.0000
    -0.0000  -0.0000  -0.0000  -0.0000  -0.0000  -0.0000  -0.0000  -0.0000

          k = 0.1925-0.0680 0.0000 (  4699 PWs)   bands (ev):

   -28.5451 -28.5451 -28.5450 -28.5450 -27.0805 -27.0805 -27.0805 -27.0805
   -27.0785 -27.0785  -9.5664  -9.5664  -9.5647  -9.5647  -7.0019  -7.0019
    -6.9969  -6.9969  -6.9911  -6.9911  -3.0676  -3.0676   2.1580   2.1580
     6.6218   6.6218   7.5827   7.5827   7.7657   7.7657  10.2880  10.2880
    11.8718  11.8718  12.1162  12.1162  14.2300  14.2300  14.8384  14.8384
    14.8920  14.8920  17.3217  17.3217  17.7055  17.7055  17.9662  17.9662

     occupation numbers 
     1.0000   1.0000   1.0000   1.0000   1.0000   1.0000   1.0000   1.0000
     1.0000   1.0000   1.0000   1.0000   1.0000   1.0000   1.0000   1.0000
     1.0000   1.0000   1.0000   1.0000   1.0000   1.0000   1.0000   1.0000
     1.0000   1.0000   1.0000   1.0000   1.0000   1.0000  -0.0000  -0.0000
    -0.0000  -0.0000  -0.0000  -0.0000  -0.0000  -0.0000  -0.0000  -0.0000
    -0.0000  -0.0000  -0.0000  -0.0000  -0.0000  -0.0000  -0.0000  -0.0000

          k = 0.0962-0.1361 0.1667 (  4681 PWs)   bands (ev):

   -28.5450 -28.5450 -28.5450 -28.5450 -27.0805 -27.0805 -27.0805 -27.0805
   -27.0784 -27.0784  -9.5662  -9.5662  -9.5649  -9.5649  -7.0040  -7.0040
    -6.9975  -6.9975  -6.9893  -6.9893  -2.9952  -2.9952   2.1200   2.1200
     6.2973   6.2973   7.1171   7.1171   8.1477   8.1477   9.9218   9.9218
    12.1242  12.1242  13.1617  13.1617  13.2471  13.2471  15.5444  15.5444
    15.8006  15.8006  16.4431  16.4431  16.7997  16.7997  17.9062  17.9062

     occupation numbers 
     1.0000   1.0000   1.0000   1.0000   1.0000   1.0000   1.0000   1.0000
     1.0000   1.0000   1.0000   1.0000   1.0000   1.0000   1.0000   1.0000
     1.0000   1.0000   1.0000   1.0000   1.0000   1.0000   1.0000   1.0000
     1.0000   1.0000   1.0000   1.0000   1.0008   1.0008  -0.0000  -0.0000
    -0.0000  -0.0000  -0.0000  -0.0000  -0.0000  -0.0000  -0.0000  -0.0000
    -0.0000  -0.0000  -0.0000  -0.0000  -0.0000  -0.0000  -0.0000  -0.0000

          k = 0.0000-0.2041 0.3333 (  4670 PWs)   bands (ev):

   -28.5450 -28.5450 -28.5449 -28.5449 -27.0805 -27.0805 -27.0803 -27.0803
   -27.0783 -27.0783  -9.5671  -9.5671  -9.5635  -9.5635  -7.0108  -7.0108
    -6.9969  -6.9969  -6.9841  -6.9841  -2.5313  -2.5313   1.2955   1.2955
     6.2532   6.2532   6.9412   6.9412   7.2891   7.2891  10.3971  10.3971
    11.5619  11.5619  12.3839  12.3839  13.4657  13.4657  16.6857  16.6857
    17.0199  17.0199  17.9921  17.9921  18.5186  18.5186  20.3681  20.3682

     occupation numbers 
     1.0000   1.0000   1.0000   1.0000   1.0000   1.0000   1.0000   1.0000
     1.0000   1.0000   1.0000   1.0000   1.0000   1.0000   1.0000   1.0000
     1.0000   1.0000   1.0000   1.0000   1.0000   1.0000   1.0000   1.0000
     1.0000   1.0000   1.0000   1.0000   1.0000   1.0000  -0.0000  -0.0000
    -0.0000  -0.0000  -0.0000  -0.0000  -0.0000  -0.0000  -0.0000  -0.0000
    -0.0000  -0.0000  -0.0000  -0.0000  -0.0000  -0.0000  -0.0000  -0.0000

          k = 0.4811 0.1361-0.5000 (  4662 PWs)   bands (ev):

   -28.5449 -28.5449 -28.5448 -28.5448 -27.0805 -27.0805 -27.0802 -27.0802
   -27.0782 -27.0782  -9.5677  -9.5677  -9.5624  -9.5624  -7.0144  -7.0144
    -6.9962  -6.9962  -6.9817  -6.9817  -1.9545  -1.9545   0.3869   0.3869
     6.1806   6.1806   6.6840   6.6840   7.3822   7.3822  10.1634  10.1634
    11.1256  11.1256  11.7809  11.7809  14.8459  14.8459  17.3927  17.3927
    18.0256  18.0256  18.4261  18.4261  19.3697  19.3697  21.2924  21.2924

     occupation numbers 
     1.0000   1.0000   1.0000   1.0000   1.0000   1.0000   1.0000   1.0000
     1.0000   1.0000   1.0000   1.0000   1.0000   1.0000   1.0000   1.0000
     1.0000   1.0000   1.0000   1.0000   1.0000   1.0000   1.0000   1.0000
     1.0000   1.0000   1.0000   1.0000   1.0000   1.0000  -0.0000  -0.0000
    -0.0000  -0.0000  -0.0000  -0.0000  -0.0000  -0.0000  -0.0000  -0.0000
    -0.0000  -0.0000  -0.0000  -0.0000  -0.0000  -0.0000  -0.0000  -0.0000

          k = 0.3849 0.0680-0.3333 (  4666 PWs)   bands (ev):

   -28.5450 -28.5450 -28.5448 -28.5448 -27.0805 -27.0805 -27.0802 -27.0802
   -27.0782 -27.0782  -9.5674  -9.5674  -9.5627  -9.5627  -7.0114  -7.0114
    -6.9969  -6.9969  -6.9831  -6.9831  -2.1132  -2.1132   0.5636   0.5636
     5.8511   5.8511   7.3281   7.3281   8.0198   8.0198   9.4302   9.4302
    10.4680  10.4680  12.3728  12.3728  15.3315  15.3315  16.1518  16.1518
    17.2678  17.2678  18.7232  18.7232  19.2032  19.2032  21.7590  21.7591

     occupation numbers 
     1.0000   1.0000   1.0000   1.0000   1.0000   1.0000   1.0000   1.0000
     1.0000   1.0000   1.0000   1.0000   1.0000   1.0000   1.0000   1.0000
     1.0000   1.0000   1.0000   1.0000   1.0000   1.0000   1.0000   1.0000
     1.0000   1.0000   1.0000   1.0000   1.0000   1.0000  -0.0000  -0.0000
    -0.0000  -0.0000  -0.0000  -0.0000  -0.0000  -0.0000  -0.0000  -0.0000
    -0.0000  -0.0000  -0.0000  -0.0000  -0.0000  -0.0000  -0.0000  -0.0000

          k = 0.2887 0.0000-0.1667 (  4689 PWs)   bands (ev):

   -28.5450 -28.5450 -28.5449 -28.5449 -27.0805 -27.0805 -27.0803 -27.0803
   -27.0784 -27.0784  -9.5667  -9.5667  -9.5639  -9.5639  -7.0054  -7.0054
    -6.9976  -6.9976  -6.9872  -6.9872  -2.7218  -2.7218   1.4829   1.4829
     6.1709   6.1709   7.6699   7.6699   8.3461   8.3461   9.3875   9.3875
    10.6322  10.6322  12.6376  12.6376  14.4493  14.4493  15.0054  15.0054
    16.6970  16.6970  16.9724  16.9724  19.4530  19.4530  19.6529  19.6530

     occupation numbers 
     1.0000   1.0000   1.0000   1.0000   1.0000   1.0000   1.0000   1.0000
     1.0000   1.0000   1.0000   1.0000   1.0000   1.0000   1.0000   1.0000
     1.0000   1.0000   1.0000   1.0000   1.0000   1.0000   1.0000   1.0000
     1.0000   1.0000   1.0000   1.0000   1.0331   1.0331  -0.0000  -0.0000
    -0.0000  -0.0000  -0.0000  -0.0000  -0.0000  -0.0000  -0.0000  -0.0000
    -0.0000  -0.0000  -0.0000  -0.0000  -0.0000  -0.0000  -0.0000  -0.0000

          k = 0.1925 0.1361 0.0000 (  4681 PWs)   bands (ev):

   -28.5450 -28.5450 -28.5450 -28.5450 -27.0805 -27.0805 -27.0805 -27.0805
   -27.0784 -27.0784  -9.5662  -9.5662  -9.5649  -9.5649  -7.0040  -7.0040
    -6.9975  -6.9975  -6.9893  -6.9893  -2.9952  -2.9952   2.1200   2.1200
     6.2973   6.2973   7.1171   7.1171   8.1477   8.1477   9.9218   9.9218
    12.1242  12.1242  13.1617  13.1617  13.2471  13.2471  15.5444  15.5444
    15.8006  15.8006  16.4431  16.4431  16.7997  16.7997  17.9062  17.9062

     occupation numbers 
     1.0000   1.0000   1.0000   1.0000   1.0000   1.0000   1.0000   1.0000
     1.0000   1.0000   1.0000   1.0000   1.0000   1.0000   1.0000   1.0000
     1.0000   1.0000   1.0000   1.0000   1.0000   1.0000   1.0000   1.0000
     1.0000   1.0000   1.0000   1.0000   1.0008   1.0008  -0.0000  -0.0000
    -0.0000  -0.0000  -0.0000  -0.0000  -0.0000  -0.0000  -0.0000  -0.0000
    -0.0000  -0.0000  -0.0000  -0.0000  -0.0000  -0.0000  -0.0000  -0.0000

          k = 0.0962 0.0680 0.1667 (  4699 PWs)   bands (ev):

   -28.5451 -28.5451 -28.5450 -28.5450 -27.0805 -27.0805 -27.0805 -27.0805
   -27.0785 -27.0785  -9.5664  -9.5664  -9.5647  -9.5647  -7.0019  -7.0019
    -6.9969  -6.9969  -6.9911  -6.9911  -3.0676  -3.0676   2.1580   2.1580
     6.6218   6.6218   7.5827   7.5827   7.7657   7.7657  10.2880  10.2880
    11.8718  11.8718  12.1162  12.1162  14.2300  14.2300  14.8384  14.8384
    14.8920  14.8920  17.3217  17.3217  17.7055  17.7055  17.9662  17.9662

     occupation numbers 
     1.0000   1.0000   1.0000   1.0000   1.0000   1.0000   1.0000   1.0000
     1.0000   1.0000   1.0000   1.0000   1.0000   1.0000   1.0000   1.0000
     1.0000   1.0000   1.0000   1.0000   1.0000   1.0000   1.0000   1.0000
     1.0000   1.0000   1.0000   1.0000   1.0000   1.0000  -0.0000  -0.0000
    -0.0000  -0.0000  -0.0000  -0.0000  -0.0000  -0.0000  -0.0000  -0.0000
    -0.0000  -0.0000  -0.0000  -0.0000  -0.0000  -0.0000  -0.0000  -0.0000

          k = 0.0000 0.0000 0.3333 (  4689 PWs)   bands (ev):

   -28.5450 -28.5450 -28.5449 -28.5449 -27.0805 -27.0805 -27.0803 -27.0803
   -27.0784 -27.0784  -9.5667  -9.5667  -9.5639  -9.5639  -7.0054  -7.0054
    -6.9976  -6.9976  -6.9872  -6.9872  -2.7218  -2.7218   1.4829   1.4829
     6.1709   6.1709   7.6699   7.6699   8.3461   8.3461   9.3875   9.3875
    10.6322  10.6322  12.6376  12.6376  14.4493  14.4493  15.0054  15.0054
    16.6970  16.6970  16.9724  16.9724  19.4530  19.4530  19.6529  19.6529

     occupation numbers 
     1.0000   1.0000   1.0000   1.0000   1.0000   1.0000   1.0000   1.0000
     1.0000   1.0000   1.0000   1.0000   1.0000   1.0000   1.0000   1.0000
     1.0000   1.0000   1.0000   1.0000   1.0000   1.0000   1.0000   1.0000
     1.0000   1.0000   1.0000   1.0000   1.0331   1.0331  -0.0000  -0.0000
    -0.0000  -0.0000  -0.0000  -0.0000  -0.0000  -0.0000  -0.0000  -0.0000
    -0.0000  -0.0000  -0.0000  -0.0000  -0.0000  -0.0000  -0.0000  -0.0000

          k = 0.4811 0.3402-0.5000 (  4666 PWs)   bands (ev):

   -28.5450 -28.5450 -28.5448 -28.5448 -27.0805 -27.0805 -27.0802 -27.0802
   -27.0782 -27.0782  -9.5674  -9.5674  -9.5627  -9.5627  -7.0114  -7.0114
    -6.9969  -6.9969  -6.9831  -6.9831  -2.1132  -2.1132   0.5636   0.5636
     5.8511   5.8511   7.3281   7.3281   8.0198   8.0198   9.4302   9.4302
    10.4680  10.4680  12.3728  12.3728  15.3315  15.3315  16.1518  16.1518
    17.2678  17.2678  18.7232  18.7232  19.2032  19.2032  21.7590  21.7591

     occupation numbers 
     1.0000   1.0000   1.0000   1.0000   1.0000   1.0000   1.0000   1.0000
     1.0000   1.0000   1.0000   1.0000   1.0000   1.0000   1.0000   1.0000
     1.0000   1.0000   1.0000   1.0000   1.0000   1.0000   1.0000   1.0000
     1.0000   1.0000   1.0000   1.0000   1.0000   1.0000  -0.0000  -0.0000
    -0.0000  -0.0000  -0.0000  -0.0000  -0.0000  -0.0000  -0.0000  -0.0000
    -0.0000  -0.0000  -0.0000  -0.0000  -0.0000  -0.0000  -0.0000  -0.0000

          k = 0.3849 0.2722-0.3333 (  4662 PWs)   bands (ev):

   -28.5449 -28.5449 -28.5448 -28.5448 -27.0805 -27.0805 -27.0802 -27.0802
   -27.0782 -27.0782  -9.5677  -9.5677  -9.5624  -9.5624  -7.0144  -7.0144
    -6.9962  -6.9962  -6.9817  -6.9817  -1.9545  -1.9545   0.3869   0.3869
     6.1806   6.1806   6.6840   6.6840   7.3822   7.3822  10.1634  10.1634
    11.1256  11.1256  11.7809  11.7809  14.8459  14.8459  17.3927  17.3927
    18.0256  18.0256  18.4261  18.4261  19.3697  19.3697  21.2924  21.2924

     occupation numbers 
     1.0000   1.0000   1.0000   1.0000   1.0000   1.0000   1.0000   1.0000
     1.0000   1.0000   1.0000   1.0000   1.0000   1.0000   1.0000   1.0000
     1.0000   1.0000   1.0000   1.0000   1.0000   1.0000   1.0000   1.0000
     1.0000   1.0000   1.0000   1.0000   1.0000   1.0000  -0.0000  -0.0000
    -0.0000  -0.0000  -0.0000  -0.0000  -0.0000  -0.0000  -0.0000  -0.0000
    -0.0000  -0.0000  -0.0000  -0.0000  -0.0000  -0.0000  -0.0000  -0.0000

          k = 0.2887 0.2041-0.1667 (  4670 PWs)   bands (ev):

   -28.5450 -28.5450 -28.5449 -28.5449 -27.0805 -27.0805 -27.0803 -27.0803
   -27.0783 -27.0783  -9.5671  -9.5671  -9.5635  -9.5635  -7.0108  -7.0108
    -6.9969  -6.9969  -6.9841  -6.9841  -2.5313  -2.5313   1.2954   1.2954
     6.2532   6.2532   6.9412   6.9412   7.2891   7.2891  10.3971  10.3971
    11.5619  11.5619  12.3839  12.3839  13.4657  13.4657  16.6857  16.6857
    17.0199  17.0199  17.9921  17.9921  18.5186  18.5186  20.3681  20.3681

     occupation numbers 
     1.0000   1.0000   1.0000   1.0000   1.0000   1.0000   1.0000   1.0000
     1.0000   1.0000   1.0000   1.0000   1.0000   1.0000   1.0000   1.0000
     1.0000   1.0000   1.0000   1.0000   1.0000   1.0000   1.0000   1.0000
     1.0000   1.0000   1.0000   1.0000   1.0000   1.0000  -0.0000  -0.0000
    -0.0000  -0.0000  -0.0000  -0.0000  -0.0000  -0.0000  -0.0000  -0.0000
    -0.0000  -0.0000  -0.0000  -0.0000  -0.0000  -0.0000  -0.0000  -0.0000

          k = 0.1925 0.3402 0.0000 (  4670 PWs)   bands (ev):

   -28.5450 -28.5450 -28.5449 -28.5449 -27.0805 -27.0805 -27.0803 -27.0803
   -27.0783 -27.0783  -9.5671  -9.5671  -9.5635  -9.5635  -7.0108  -7.0108
    -6.9969  -6.9969  -6.9841  -6.9841  -2.5313  -2.5313   1.2954   1.2954
     6.2532   6.2532   6.9412   6.9412   7.2891   7.2891  10.3971  10.3971
    11.5619  11.5619  12.3839  12.3839  13.4657  13.4657  16.6857  16.6857
    17.0199  17.0199  17.9921  17.9921  18.5186  18.5186  20.3681  20.3682

     occupation numbers 
     1.0000   1.0000   1.0000   1.0000   1.0000   1.0000   1.0000   1.0000
     1.0000   1.0000   1.0000   1.0000   1.0000   1.0000   1.0000   1.0000
     1.0000   1.0000   1.0000   1.0000   1.0000   1.0000   1.0000   1.0000
     1.0000   1.0000   1.0000   1.0000   1.0000   1.0000  -0.0000  -0.0000
    -0.0000  -0.0000  -0.0000  -0.0000  -0.0000  -0.0000  -0.0000  -0.0000
    -0.0000  -0.0000  -0.0000  -0.0000  -0.0000  -0.0000  -0.0000  -0.0000

          k = 0.0962 0.2722 0.1667 (  4689 PWs)   bands (ev):

   -28.5450 -28.5450 -28.5449 -28.5449 -27.0805 -27.0805 -27.0803 -27.0803
   -27.0784 -27.0784  -9.5667  -9.5667  -9.5639  -9.5639  -7.0054  -7.0054
    -6.9976  -6.9976  -6.9872  -6.9872  -2.7218  -2.7218   1.4829   1.4829
     6.1709   6.1709   7.6699   7.6699   8.3461   8.3461   9.3875   9.3875
    10.6322  10.6322  12.6376  12.6376  14.4493  14.4493  15.0054  15.0054
    16.6970  16.6970  16.9724  16.9724  19.4530  19.4530  19.6529  19.6530

     occupation numbers 
     1.0000   1.0000   1.0000   1.0000   1.0000   1.0000   1.0000   1.0000
     1.0000   1.0000   1.0000   1.0000   1.0000   1.0000   1.0000   1.0000
     1.0000   1.0000   1.0000   1.0000   1.0000   1.0000   1.0000   1.0000
     1.0000   1.0000   1.0000   1.0000   1.0331   1.0331  -0.0000  -0.0000
    -0.0000  -0.0000  -0.0000  -0.0000  -0.0000  -0.0000  -0.0000  -0.0000
    -0.0000  -0.0000  -0.0000  -0.0000  -0.0000  -0.0000  -0.0000  -0.0000

          k = 0.0000 0.2041 0.3333 (  4670 PWs)   bands (ev):

   -28.5450 -28.5450 -28.5449 -28.5449 -27.0805 -27.0805 -27.0803 -27.0803
   -27.0783 -27.0783  -9.5671  -9.5671  -9.5635  -9.5635  -7.0108  -7.0108
    -6.9969  -6.9969  -6.9841  -6.9841  -2.5313  -2.5313   1.2955   1.2955
     6.2532   6.2532   6.9412   6.9412   7.2891   7.2891  10.3971  10.3971
    11.5619  11.5619  12.3839  12.3839  13.4657  13.4657  16.6857  16.6857
    17.0199  17.0199  17.9921  17.9921  18.5186  18.5186  20.3681  20.3682

     occupation numbers 
     1.0000   1.0000   1.0000   1.0000   1.0000   1.0000   1.0000   1.0000
     1.0000   1.0000   1.0000   1.0000   1.0000   1.0000   1.0000   1.0000
     1.0000   1.0000   1.0000   1.0000   1.0000   1.0000   1.0000   1.0000
     1.0000   1.0000   1.0000   1.0000   1.0000   1.0000  -0.0000  -0.0000
    -0.0000  -0.0000  -0.0000  -0.0000  -0.0000  -0.0000  -0.0000  -0.0000
    -0.0000  -0.0000  -0.0000  -0.0000  -0.0000  -0.0000  -0.0000  -0.0000

          k = 0.4811 0.5443-0.5000 (  4660 PWs)   bands (ev):

   -28.5449 -28.5449 -28.5448 -28.5448 -27.0804 -27.0804 -27.0802 -27.0802
   -27.0782 -27.0782  -9.5675  -9.5675  -9.5631  -9.5631  -7.0171  -7.0171
    -6.9975  -6.9975  -6.9806  -6.9806  -2.0575  -2.0575   0.8406   0.8406
     5.5040   5.5040   5.9440   5.9440   7.5350   7.5350  10.4050  10.4050
    12.1068  12.1068  12.9233  12.9233  14.1413  14.1413  17.3008  17.3008
    17.6534  17.6534  18.0793  18.0793  19.4306  19.4306  21.6381  21.6381

     occupation numbers 
     1.0000   1.0000   1.0000   1.0000   1.0000   1.0000   1.0000   1.0000
     1.0000   1.0000   1.0000   1.0000   1.0000   1.0000   1.0000   1.0000
     1.0000   1.0000   1.0000   1.0000   1.0000   1.0000   1.0000   1.0000
     1.0000   1.0000   1.0000   1.0000   1.0000   1.0000  -0.0000  -0.0000
    -0.0000  -0.0000  -0.0000  -0.0000  -0.0000  -0.0000  -0.0000  -0.0000
    -0.0000  -0.0000  -0.0000  -0.0000  -0.0000  -0.0000  -0.0000  -0.0000

          k = 0.3849 0.4763-0.3333 (  4666 PWs)   bands (ev):

   -28.5449 -28.5449 -28.5448 -28.5448 -27.0804 -27.0804 -27.0802 -27.0802
   -27.0781 -27.0781  -9.5676  -9.5676  -9.5631  -9.5631  -7.0196  -7.0196
    -6.9975  -6.9975  -6.9799  -6.9799  -1.7330  -1.7330   0.5231   0.5231
     5.2484   5.2484   5.3694   5.3694   8.0492   8.0492   9.7959   9.7959
    12.8111  12.8111  13.2191  13.2191  15.0260  15.0260  15.4177  15.4177
    18.8401  18.8401  18.9856  18.9856  20.2994  20.2994  20.8523  20.8523

     occupation numbers 
     1.0000   1.0000   1.0000   1.0000   1.0000   1.0000   1.0000   1.0000
     1.0000   1.0000   1.0000   1.0000   1.0000   1.0000   1.0000   1.0000
     1.0000   1.0000   1.0000   1.0000   1.0000   1.0000   1.0000   1.0000
     1.0000   1.0000   1.0000   1.0000   1.0000   1.0000  -0.0000  -0.0000
    -0.0000  -0.0000  -0.0000  -0.0000  -0.0000  -0.0000  -0.0000  -0.0000
    -0.0000  -0.0000  -0.0000  -0.0000  -0.0000  -0.0000  -0.0000  -0.0000

          k = 0.2887 0.4082-0.1667 (  4660 PWs)   bands (ev):

   -28.5449 -28.5449 -28.5448 -28.5448 -27.0804 -27.0804 -27.0802 -27.0802
   -27.0782 -27.0782  -9.5675  -9.5675  -9.5631  -9.5631  -7.0171  -7.0171
    -6.9975  -6.9975  -6.9806  -6.9806  -2.0575  -2.0575   0.8406   0.8406
     5.5040   5.5040   5.9440   5.9440   7.5350   7.5350  10.4050  10.4050
    12.1068  12.1068  12.9233  12.9233  14.1413  14.1413  17.3008  17.3008
    17.6534  17.6534  18.0793  18.0793  19.4306  19.4306  21.6380  21.6381

     occupation numbers 
     1.0000   1.0000   1.0000   1.0000   1.0000   1.0000   1.0000   1.0000
     1.0000   1.0000   1.0000   1.0000   1.0000   1.0000   1.0000   1.0000
     1.0000   1.0000   1.0000   1.0000   1.0000   1.0000   1.0000   1.0000
     1.0000   1.0000   1.0000   1.0000   1.0000   1.0000  -0.0000  -0.0000
    -0.0000  -0.0000  -0.0000  -0.0000  -0.0000  -0.0000  -0.0000  -0.0000
    -0.0000  -0.0000  -0.0000  -0.0000  -0.0000  -0.0000  -0.0000  -0.0000

          k = 0.1925-0.6804 0.0000 (  4662 PWs)   bands (ev):

   -28.5449 -28.5449 -28.5448 -28.5448 -27.0805 -27.0805 -27.0802 -27.0802
   -27.0782 -27.0782  -9.5677  -9.5677  -9.5624  -9.5624  -7.0144  -7.0144
    -6.9962  -6.9962  -6.9817  -6.9817  -1.9545  -1.9545   0.3869   0.3869
     6.1806   6.1806   6.6840   6.6840   7.3822   7.3822  10.1634  10.1634
    11.1256  11.1256  11.7809  11.7809  14.8459  14.8459  17.3927  17.3927
    18.0256  18.0256  18.4261  18.4261  19.3697  19.3697  21.2924  21.2924

     occupation numbers 
     1.0000   1.0000   1.0000   1.0000   1.0000   1.0000   1.0000   1.0000
     1.0000   1.0000   1.0000   1.0000   1.0000   1.0000   1.0000   1.0000
     1.0000   1.0000   1.0000   1.0000   1.0000   1.0000   1.0000   1.0000
     1.0000   1.0000   1.0000   1.0000   1.0000   1.0000  -0.0000  -0.0000
    -0.0000  -0.0000  -0.0000  -0.0000  -0.0000  -0.0000  -0.0000  -0.0000
    -0.0000  -0.0000  -0.0000  -0.0000  -0.0000  -0.0000  -0.0000  -0.0000

          k = 0.0962-0.7485 0.1667 (  4666 PWs)   bands (ev):

   -28.5450 -28.5450 -28.5448 -28.5448 -27.0805 -27.0805 -27.0802 -27.0802
   -27.0782 -27.0782  -9.5674  -9.5674  -9.5627  -9.5627  -7.0114  -7.0114
    -6.9969  -6.9969  -6.9831  -6.9831  -2.1132  -2.1132   0.5636   0.5636
     5.8511   5.8511   7.3281   7.3281   8.0198   8.0198   9.4302   9.4302
    10.4680  10.4680  12.3728  12.3728  15.3315  15.3315  16.1518  16.1518
    17.2678  17.2678  18.7232  18.7232  19.2032  19.2032  21.7589  21.7590

     occupation numbers 
     1.0000   1.0000   1.0000   1.0000   1.0000   1.0000   1.0000   1.0000
     1.0000   1.0000   1.0000   1.0000   1.0000   1.0000   1.0000   1.0000
     1.0000   1.0000   1.0000   1.0000   1.0000   1.0000   1.0000   1.0000
     1.0000   1.0000   1.0000   1.0000   1.0000   1.0000  -0.0000  -0.0000
    -0.0000  -0.0000  -0.0000  -0.0000  -0.0000  -0.0000  -0.0000  -0.0000
    -0.0000  -0.0000  -0.0000  -0.0000  -0.0000  -0.0000  -0.0000  -0.0000

          k = 0.0000-0.8165 0.3333 (  4660 PWs)   bands (ev):

   -28.5449 -28.5449 -28.5448 -28.5448 -27.0804 -27.0804 -27.0802 -27.0802
   -27.0782 -27.0782  -9.5675  -9.5675  -9.5631  -9.5631  -7.0171  -7.0171
    -6.9975  -6.9975  -6.9806  -6.9806  -2.0575  -2.0575   0.8406   0.8406
     5.5040   5.5040   5.9440   5.9440   7.5350   7.5350  10.4050  10.4050
    12.1068  12.1068  12.9233  12.9233  14.1413  14.1413  17.3008  17.3008
    17.6534  17.6534  18.0793  18.0793  19.4306  19.4306  21.6380  21.6380

     occupation numbers 
     1.0000   1.0000   1.0000   1.0000   1.0000   1.0000   1.0000   1.0000
     1.0000   1.0000   1.0000   1.0000   1.0000   1.0000   1.0000   1.0000
     1.0000   1.0000   1.0000   1.0000   1.0000   1.0000   1.0000   1.0000
     1.0000   1.0000   1.0000   1.0000   1.0000   1.0000  -0.0000  -0.0000
    -0.0000  -0.0000  -0.0000  -0.0000  -0.0000  -0.0000  -0.0000  -0.0000
    -0.0000  -0.0000  -0.0000  -0.0000  -0.0000  -0.0000  -0.0000  -0.0000

          k = 0.4811-0.4763-0.5000 (  4674 PWs)   bands (ev):

   -28.5449 -28.5449 -28.5448 -28.5448 -27.0804 -27.0804 -27.0803 -27.0803
   -27.0781 -27.0781  -9.5686  -9.5686  -9.5626  -9.5626  -7.0264  -7.0264
    -6.9975  -6.9975  -6.9759  -6.9759  -1.8355  -1.8355   0.9590   0.9590
     4.7361   4.7361   5.7778   5.7778   6.4668   6.4668  11.8734  11.8734
    12.5848  12.5848  13.4049  13.4049  13.9538  13.9538  18.0609  18.0609
    18.6842  18.6842  19.3995  19.3995  19.5097  19.5097  20.5660  20.5661

     occupation numbers 
     1.0000   1.0000   1.0000   1.0000   1.0000   1.0000   1.0000   1.0000
     1.0000   1.0000   1.0000   1.0000   1.0000   1.0000   1.0000   1.0000
     1.0000   1.0000   1.0000   1.0000   1.0000   1.0000   1.0000   1.0000
     1.0000   1.0000   1.0000   1.0000   1.0000   1.0000  -0.0000  -0.0000
    -0.0000  -0.0000  -0.0000  -0.0000  -0.0000  -0.0000  -0.0000  -0.0000
    -0.0000  -0.0000  -0.0000  -0.0000  -0.0000  -0.0000  -0.0000  -0.0000

          k = 0.3849-0.5443-0.3333 (  4670 PWs)   bands (ev):

   -28.5449 -28.5449 -28.5448 -28.5448 -27.0804 -27.0804 -27.0803 -27.0803
   -27.0781 -27.0781  -9.5684  -9.5684  -9.5628  -9.5628  -7.0267  -7.0267
    -6.9972  -6.9972  -6.9767  -6.9767  -1.6690  -1.6690   0.8311   0.8311
     4.4684   4.4684   5.2131   5.2131   7.2734   7.2734  10.9746  10.9746
    12.8832  12.8832  14.0825  14.0825  14.5050  14.5050  16.5898  16.5898
    19.1668  19.1668  20.0280  20.0280  20.1909  20.1909  20.2028  20.2028

     occupation numbers 
     1.0000   1.0000   1.0000   1.0000   1.0000   1.0000   1.0000   1.0000
     1.0000   1.0000   1.0000   1.0000   1.0000   1.0000   1.0000   1.0000
     1.0000   1.0000   1.0000   1.0000   1.0000   1.0000   1.0000   1.0000
     1.0000   1.0000   1.0000   1.0000   1.0000   1.0000  -0.0000  -0.0000
    -0.0000  -0.0000  -0.0000  -0.0000  -0.0000  -0.0000  -0.0000  -0.0000
    -0.0000  -0.0000  -0.0000  -0.0000  -0.0000  -0.0000  -0.0000  -0.0000

          k = 0.2887-0.6124-0.1667 (  4666 PWs)   bands (ev):

   -28.5449 -28.5449 -28.5448 -28.5448 -27.0804 -27.0804 -27.0802 -27.0802
   -27.0781 -27.0781  -9.5676  -9.5676  -9.5631  -9.5631  -7.0196  -7.0196
    -6.9975  -6.9975  -6.9799  -6.9799  -1.7330  -1.7330   0.5231   0.5231
     5.2484   5.2484   5.3694   5.3694   8.0492   8.0492   9.7959   9.7959
    12.8111  12.8111  13.2191  13.2191  15.0260  15.0260  15.4177  15.4177
    18.8401  18.8401  18.9856  18.9856  20.2994  20.2994  20.8523  20.8523

     occupation numbers 
     1.0000   1.0000   1.0000   1.0000   1.0000   1.0000   1.0000   1.0000
     1.0000   1.0000   1.0000   1.0000   1.0000   1.0000   1.0000   1.0000
     1.0000   1.0000   1.0000   1.0000   1.0000   1.0000   1.0000   1.0000
     1.0000   1.0000   1.0000   1.0000   1.0000   1.0000  -0.0000  -0.0000
    -0.0000  -0.0000  -0.0000  -0.0000  -0.0000  -0.0000  -0.0000  -0.0000
    -0.0000  -0.0000  -0.0000  -0.0000  -0.0000  -0.0000  -0.0000  -0.0000

          k = 0.1925-0.4763 0.0000 (  4666 PWs)   bands (ev):

   -28.5450 -28.5450 -28.5448 -28.5448 -27.0805 -27.0805 -27.0802 -27.0802
   -27.0782 -27.0782  -9.5674  -9.5674  -9.5627  -9.5627  -7.0114  -7.0114
    -6.9969  -6.9969  -6.9831  -6.9831  -2.1132  -2.1132   0.5636   0.5636
     5.8511   5.8511   7.3281   7.3281   8.0198   8.0198   9.4302   9.4302
    10.4680  10.4680  12.3728  12.3728  15.3315  15.3315  16.1518  16.1518
    17.2678  17.2678  18.7232  18.7232  19.2032  19.2032  21.7591  21.7591

     occupation numbers 
     1.0000   1.0000   1.0000   1.0000   1.0000   1.0000   1.0000   1.0000
     1.0000   1.0000   1.0000   1.0000   1.0000   1.0000   1.0000   1.0000
     1.0000   1.0000   1.0000   1.0000   1.0000   1.0000   1.0000   1.0000
     1.0000   1.0000   1.0000   1.0000   1.0000   1.0000  -0.0000  -0.0000
    -0.0000  -0.0000  -0.0000  -0.0000  -0.0000  -0.0000  -0.0000  -0.0000
    -0.0000  -0.0000  -0.0000  -0.0000  -0.0000  -0.0000  -0.0000  -0.0000

          k = 0.0962-0.5443 0.1667 (  4662 PWs)   bands (ev):

   -28.5449 -28.5449 -28.5448 -28.5448 -27.0805 -27.0805 -27.0802 -27.0802
   -27.0782 -27.0782  -9.5677  -9.5677  -9.5624  -9.5624  -7.0144  -7.0144
    -6.9962  -6.9962  -6.9817  -6.9817  -1.9545  -1.9545   0.3869   0.3869
     6.1806   6.1806   6.6840   6.6840   7.3822   7.3822  10.1634  10.1634
    11.1256  11.1256  11.7809  11.7809  14.8459  14.8459  17.3927  17.3927
    18.0256  18.0256  18.4261  18.4261  19.3697  19.3697  21.2924  21.2924

     occupation numbers 
     1.0000   1.0000   1.0000   1.0000   1.0000   1.0000   1.0000   1.0000
     1.0000   1.0000   1.0000   1.0000   1.0000   1.0000   1.0000   1.0000
     1.0000   1.0000   1.0000   1.0000   1.0000   1.0000   1.0000   1.0000
     1.0000   1.0000   1.0000   1.0000   1.0000   1.0000  -0.0000  -0.0000
    -0.0000  -0.0000  -0.0000  -0.0000  -0.0000  -0.0000  -0.0000  -0.0000
    -0.0000  -0.0000  -0.0000  -0.0000  -0.0000  -0.0000  -0.0000  -0.0000

          k = 0.0000-0.6124 0.3333 (  4666 PWs)   bands (ev):

   -28.5449 -28.5449 -28.5448 -28.5448 -27.0804 -27.0804 -27.0802 -27.0802
   -27.0781 -27.0781  -9.5676  -9.5676  -9.5631  -9.5631  -7.0196  -7.0196
    -6.9975  -6.9975  -6.9799  -6.9799  -1.7330  -1.7330   0.5231   0.5231
     5.2484   5.2484   5.3694   5.3694   8.0492   8.0492   9.7959   9.7959
    12.8111  12.8111  13.2191  13.2191  15.0260  15.0260  15.4177  15.4177
    18.8401  18.8401  18.9856  18.9856  20.2994  20.2994  20.8523  20.8523

     occupation numbers 
     1.0000   1.0000   1.0000   1.0000   1.0000   1.0000   1.0000   1.0000
     1.0000   1.0000   1.0000   1.0000   1.0000   1.0000   1.0000   1.0000
     1.0000   1.0000   1.0000   1.0000   1.0000   1.0000   1.0000   1.0000
     1.0000   1.0000   1.0000   1.0000   1.0000   1.0000  -0.0000  -0.0000
    -0.0000  -0.0000  -0.0000  -0.0000  -0.0000  -0.0000  -0.0000  -0.0000
    -0.0000  -0.0000  -0.0000  -0.0000  -0.0000  -0.0000  -0.0000  -0.0000

          k = 0.4811-0.2722-0.5000 (  4670 PWs)   bands (ev):

   -28.5449 -28.5449 -28.5448 -28.5448 -27.0804 -27.0804 -27.0803 -27.0803
   -27.0781 -27.0781  -9.5684  -9.5684  -9.5628  -9.5628  -7.0267  -7.0267
    -6.9972  -6.9972  -6.9767  -6.9767  -1.6690  -1.6690   0.8311   0.8311
     4.4684   4.4684   5.2131   5.2131   7.2734   7.2734  10.9746  10.9746
    12.8832  12.8832  14.0825  14.0825  14.5050  14.5050  16.5898  16.5898
    19.1668  19.1668  20.0280  20.0280  20.1909  20.1909  20.2028  20.2028

     occupation numbers 
     1.0000   1.0000   1.0000   1.0000   1.0000   1.0000   1.0000   1.0000
     1.0000   1.0000   1.0000   1.0000   1.0000   1.0000   1.0000   1.0000
     1.0000   1.0000   1.0000   1.0000   1.0000   1.0000   1.0000   1.0000
     1.0000   1.0000   1.0000   1.0000   1.0000   1.0000  -0.0000  -0.0000
    -0.0000  -0.0000  -0.0000  -0.0000  -0.0000  -0.0000  -0.0000  -0.0000
    -0.0000  -0.0000  -0.0000  -0.0000  -0.0000  -0.0000  -0.0000  -0.0000

          k = 0.3849-0.3402-0.3333 (  4674 PWs)   bands (ev):

   -28.5449 -28.5449 -28.5448 -28.5448 -27.0804 -27.0804 -27.0803 -27.0803
   -27.0781 -27.0781  -9.5686  -9.5686  -9.5626  -9.5626  -7.0264  -7.0264
    -6.9975  -6.9975  -6.9759  -6.9759  -1.8355  -1.8355   0.9590   0.9590
     4.7361   4.7361   5.7778   5.7778   6.4668   6.4668  11.8734  11.8734
    12.5848  12.5848  13.4049  13.4049  13.9538  13.9538  18.0609  18.0609
    18.6842  18.6842  19.3995  19.3995  19.5097  19.5097  20.5660  20.5661

     occupation numbers 
     1.0000   1.0000   1.0000   1.0000   1.0000   1.0000   1.0000   1.0000
     1.0000   1.0000   1.0000   1.0000   1.0000   1.0000   1.0000   1.0000
     1.0000   1.0000   1.0000   1.0000   1.0000   1.0000   1.0000   1.0000
     1.0000   1.0000   1.0000   1.0000   1.0000   1.0000  -0.0000  -0.0000
    -0.0000  -0.0000  -0.0000  -0.0000  -0.0000  -0.0000  -0.0000  -0.0000
    -0.0000  -0.0000  -0.0000  -0.0000  -0.0000  -0.0000  -0.0000  -0.0000

          k = 0.2887-0.4082-0.1667 (  4660 PWs)   bands (ev):

   -28.5449 -28.5449 -28.5448 -28.5448 -27.0804 -27.0804 -27.0802 -27.0802
   -27.0782 -27.0782  -9.5675  -9.5675  -9.5631  -9.5631  -7.0171  -7.0171
    -6.9975  -6.9975  -6.9806  -6.9806  -2.0575  -2.0575   0.8406   0.8406
     5.5040   5.5040   5.9440   5.9440   7.5350   7.5350  10.4050  10.4050
    12.1068  12.1068  12.9233  12.9233  14.1413  14.1413  17.3008  17.3008
    17.6534  17.6534  18.0793  18.0793  19.4306  19.4306  21.6380  21.6381

     occupation numbers 
     1.0000   1.0000   1.0000   1.0000   1.0000   1.0000   1.0000   1.0000
     1.0000   1.0000   1.0000   1.0000   1.0000   1.0000   1.0000   1.0000
     1.0000   1.0000   1.0000   1.0000   1.0000   1.0000   1.0000   1.0000
     1.0000   1.0000   1.0000   1.0000   1.0000   1.0000  -0.0000  -0.0000
    -0.0000  -0.0000  -0.0000  -0.0000  -0.0000  -0.0000  -0.0000  -0.0000
    -0.0000  -0.0000  -0.0000  -0.0000  -0.0000  -0.0000  -0.0000  -0.0000

          k = 0.1925-0.2722 0.0000 (  4689 PWs)   bands (ev):

   -28.5450 -28.5450 -28.5449 -28.5449 -27.0805 -27.0805 -27.0803 -27.0803
   -27.0784 -27.0784  -9.5667  -9.5667  -9.5639  -9.5639  -7.0054  -7.0054
    -6.9976  -6.9976  -6.9872  -6.9872  -2.7218  -2.7218   1.4829   1.4829
     6.1709   6.1709   7.6699   7.6699   8.3461   8.3461   9.3875   9.3875
    10.6322  10.6322  12.6376  12.6376  14.4493  14.4493  15.0054  15.0054
    16.6970  16.6970  16.9724  16.9724  19.4530  19.4530  19.6529  19.6530

     occupation numbers 
     1.0000   1.0000   1.0000   1.0000   1.0000   1.0000   1.0000   1.0000
     1.0000   1.0000   1.0000   1.0000   1.0000   1.0000   1.0000   1.0000
     1.0000   1.0000   1.0000   1.0000   1.0000   1.0000   1.0000   1.0000
     1.0000   1.0000   1.0000   1.0000   1.0331   1.0331  -0.0000  -0.0000
    -0.0000  -0.0000  -0.0000  -0.0000  -0.0000  -0.0000  -0.0000  -0.0000
    -0.0000  -0.0000  -0.0000  -0.0000  -0.0000  -0.0000  -0.0000  -0.0000

          k = 0.0962-0.3402 0.1667 (  4670 PWs)   bands (ev):

   -28.5450 -28.5450 -28.5449 -28.5449 -27.0805 -27.0805 -27.0803 -27.0803
   -27.0783 -27.0783  -9.5671  -9.5671  -9.5635  -9.5635  -7.0108  -7.0108
    -6.9969  -6.9969  -6.9841  -6.9841  -2.5313  -2.5313   1.2955   1.2955
     6.2532   6.2532   6.9412   6.9412   7.2891   7.2891  10.3971  10.3971
    11.5619  11.5619  12.3839  12.3839  13.4657  13.4657  16.6857  16.6857
    17.0199  17.0199  17.9921  17.9921  18.5186  18.5186  20.3681  20.3681

     occupation numbers 
     1.0000   1.0000   1.0000   1.0000   1.0000   1.0000   1.0000   1.0000
     1.0000   1.0000   1.0000   1.0000   1.0000   1.0000   1.0000   1.0000
     1.0000   1.0000   1.0000   1.0000   1.0000   1.0000   1.0000   1.0000
     1.0000   1.0000   1.0000   1.0000   1.0000   1.0000  -0.0000  -0.0000
    -0.0000  -0.0000  -0.0000  -0.0000  -0.0000  -0.0000  -0.0000  -0.0000
    -0.0000  -0.0000  -0.0000  -0.0000  -0.0000  -0.0000  -0.0000  -0.0000

          k = 0.0000-0.4082 0.3333 (  4660 PWs)   bands (ev):

   -28.5449 -28.5449 -28.5448 -28.5448 -27.0804 -27.0804 -27.0802 -27.0802
   -27.0782 -27.0782  -9.5675  -9.5675  -9.5631  -9.5631  -7.0171  -7.0171
    -6.9975  -6.9975  -6.9806  -6.9806  -2.0575  -2.0575   0.8406   0.8406
     5.5040   5.5040   5.9440   5.9440   7.5350   7.5350  10.4050  10.4050
    12.1068  12.1068  12.9233  12.9233  14.1413  14.1413  17.3008  17.3008
    17.6534  17.6534  18.0793  18.0793  19.4306  19.4306  21.6380  21.6380

     occupation numbers 
     1.0000   1.0000   1.0000   1.0000   1.0000   1.0000   1.0000   1.0000
     1.0000   1.0000   1.0000   1.0000   1.0000   1.0000   1.0000   1.0000
     1.0000   1.0000   1.0000   1.0000   1.0000   1.0000   1.0000   1.0000
     1.0000   1.0000   1.0000   1.0000   1.0000   1.0000  -0.0000  -0.0000
    -0.0000  -0.0000  -0.0000  -0.0000  -0.0000  -0.0000  -0.0000  -0.0000
    -0.0000  -0.0000  -0.0000  -0.0000  -0.0000  -0.0000  -0.0000  -0.0000

          k = 0.4811-0.0680-0.5000 (  4666 PWs)   bands (ev):

   -28.5449 -28.5449 -28.5448 -28.5448 -27.0804 -27.0804 -27.0802 -27.0802
   -27.0781 -27.0781  -9.5676  -9.5676  -9.5631  -9.5631  -7.0196  -7.0196
    -6.9975  -6.9975  -6.9799  -6.9799  -1.7330  -1.7330   0.5231   0.5231
     5.2484   5.2484   5.3694   5.3694   8.0492   8.0492   9.7959   9.7959
    12.8111  12.8111  13.2191  13.2191  15.0260  15.0260  15.4177  15.4177
    18.8401  18.8401  18.9856  18.9856  20.2994  20.2994  20.8523  20.8523

     occupation numbers 
     1.0000   1.0000   1.0000   1.0000   1.0000   1.0000   1.0000   1.0000
     1.0000   1.0000   1.0000   1.0000   1.0000   1.0000   1.0000   1.0000
     1.0000   1.0000   1.0000   1.0000   1.0000   1.0000   1.0000   1.0000
     1.0000   1.0000   1.0000   1.0000   1.0000   1.0000  -0.0000  -0.0000
    -0.0000  -0.0000  -0.0000  -0.0000  -0.0000  -0.0000  -0.0000  -0.0000
    -0.0000  -0.0000  -0.0000  -0.0000  -0.0000  -0.0000  -0.0000  -0.0000

          k = 0.3849-0.1361-0.3333 (  4660 PWs)   bands (ev):

   -28.5449 -28.5449 -28.5448 -28.5448 -27.0804 -27.0804 -27.0802 -27.0802
   -27.0782 -27.0782  -9.5675  -9.5675  -9.5631  -9.5631  -7.0171  -7.0171
    -6.9975  -6.9975  -6.9806  -6.9806  -2.0575  -2.0575   0.8406   0.8406
     5.5040   5.5040   5.9440   5.9440   7.5350   7.5350  10.4050  10.4050
    12.1068  12.1068  12.9233  12.9233  14.1413  14.1413  17.3008  17.3008
    17.6534  17.6534  18.0793  18.0793  19.4306  19.4306  21.6380  21.6380

     occupation numbers 
     1.0000   1.0000   1.0000   1.0000   1.0000   1.0000   1.0000   1.0000
     1.0000   1.0000   1.0000   1.0000   1.0000   1.0000   1.0000   1.0000
     1.0000   1.0000   1.0000   1.0000   1.0000   1.0000   1.0000   1.0000
     1.0000   1.0000   1.0000   1.0000   1.0000   1.0000  -0.0000  -0.0000
    -0.0000  -0.0000  -0.0000  -0.0000  -0.0000  -0.0000  -0.0000  -0.0000
    -0.0000  -0.0000  -0.0000  -0.0000  -0.0000  -0.0000  -0.0000  -0.0000

          k = 0.2887-0.2041-0.1667 (  4670 PWs)   bands (ev):

   -28.5450 -28.5450 -28.5449 -28.5449 -27.0805 -27.0805 -27.0803 -27.0803
   -27.0783 -27.0783  -9.5671  -9.5671  -9.5635  -9.5635  -7.0108  -7.0108
    -6.9969  -6.9969  -6.9841  -6.9841  -2.5313  -2.5313   1.2955   1.2955
     6.2532   6.2532   6.9412   6.9412   7.2891   7.2891  10.3971  10.3971
    11.5619  11.5619  12.3839  12.3839  13.4657  13.4657  16.6857  16.6857
    17.0199  17.0199  17.9921  17.9921  18.5186  18.5186  20.3681  20.3683

     occupation numbers 
     1.0000   1.0000   1.0000   1.0000   1.0000   1.0000   1.0000   1.0000
     1.0000   1.0000   1.0000   1.0000   1.0000   1.0000   1.0000   1.0000
     1.0000   1.0000   1.0000   1.0000   1.0000   1.0000   1.0000   1.0000
     1.0000   1.0000   1.0000   1.0000   1.0000   1.0000  -0.0000  -0.0000
    -0.0000  -0.0000  -0.0000  -0.0000  -0.0000  -0.0000  -0.0000  -0.0000
    -0.0000  -0.0000  -0.0000  -0.0000  -0.0000  -0.0000  -0.0000  -0.0000

          k = 0.3849-0.1361 0.0000 (  4693 PWs)   bands (ev):

   -28.5450 -28.5450 -28.5449 -28.5449 -27.0806 -27.0806 -27.0802 -27.0802
   -27.0783 -27.0783  -9.5675  -9.5675  -9.5626  -9.5626  -7.0092  -7.0092
    -6.9938  -6.9938  -6.9857  -6.9857  -2.4783  -2.4783   0.8933   0.8933
     6.9806   6.9806   7.7399   7.7399   8.1835   8.1835   9.1586   9.1586
    10.4411  10.4411  10.8392  10.8392  15.1163  15.1163  16.2134  16.2134
    16.2336  16.2336  19.0776  19.0776  20.3818  20.3818  20.6275  20.6275

     occupation numbers 
     1.0000   1.0000   1.0000   1.0000   1.0000   1.0000   1.0000   1.0000
     1.0000   1.0000   1.0000   1.0000   1.0000   1.0000   1.0000   1.0000
     1.0000   1.0000   1.0000   1.0000   1.0000   1.0000   1.0000   1.0000
     1.0000   1.0000   1.0000   1.0000   1.0026   1.0026  -0.0000  -0.0000
    -0.0000  -0.0000  -0.0000  -0.0000  -0.0000  -0.0000  -0.0000  -0.0000
    -0.0000  -0.0000  -0.0000  -0.0000  -0.0000  -0.0000  -0.0000  -0.0000

          k = 0.2887-0.2041 0.1667 (  4670 PWs)   bands (ev):

   -28.5450 -28.5450 -28.5449 -28.5449 -27.0805 -27.0805 -27.0803 -27.0803
   -27.0783 -27.0783  -9.5671  -9.5671  -9.5635  -9.5635  -7.0108  -7.0108
    -6.9969  -6.9969  -6.9841  -6.9841  -2.5313  -2.5313   1.2955   1.2955
     6.2532   6.2532   6.9412   6.9412   7.2891   7.2891  10.3971  10.3971
    11.5619  11.5619  12.3839  12.3839  13.4657  13.4657  16.6857  16.6857
    17.0199  17.0199  17.9921  17.9921  18.5186  18.5186  20.3681  20.3682

     occupation numbers 
     1.0000   1.0000   1.0000   1.0000   1.0000   1.0000   1.0000   1.0000
     1.0000   1.0000   1.0000   1.0000   1.0000   1.0000   1.0000   1.0000
     1.0000   1.0000   1.0000   1.0000   1.0000   1.0000   1.0000   1.0000
     1.0000   1.0000   1.0000   1.0000   1.0000   1.0000  -0.0000  -0.0000
    -0.0000  -0.0000  -0.0000  -0.0000  -0.0000  -0.0000  -0.0000  -0.0000
    -0.0000  -0.0000  -0.0000  -0.0000  -0.0000  -0.0000  -0.0000  -0.0000

          k = 0.1925-0.2722 0.3333 (  4672 PWs)   bands (ev):

   -28.5450 -28.5450 -28.5448 -28.5448 -27.0804 -27.0804 -27.0804 -27.0804
   -27.0782 -27.0782  -9.5682  -9.5682  -9.5630  -9.5630  -7.0220  -7.0220
    -6.9974  -6.9974  -6.9780  -6.9780  -2.2523  -2.2523   1.3942   1.3942
     5.6567   5.6567   5.7113   5.7113   6.4268   6.4268  12.0770  12.0770
    12.2531  12.2531  12.9491  12.9491  13.8677  13.8677  17.4754  17.4754
    17.6735  17.6735  18.3090  18.3090  18.6031  18.6031  21.1174  21.1176

     occupation numbers 
     1.0000   1.0000   1.0000   1.0000   1.0000   1.0000   1.0000   1.0000
     1.0000   1.0000   1.0000   1.0000   1.0000   1.0000   1.0000   1.0000
     1.0000   1.0000   1.0000   1.0000   1.0000   1.0000   1.0000   1.0000
     1.0000   1.0000   1.0000   1.0000   1.0000   1.0000  -0.0000  -0.0000
    -0.0000  -0.0000  -0.0000  -0.0000  -0.0000  -0.0000  -0.0000  -0.0000
    -0.0000  -0.0000  -0.0000  -0.0000  -0.0000  -0.0000  -0.0000  -0.0000

          k = 0.6736 0.0680-0.5000 (  4674 PWs)   bands (ev):

   -28.5449 -28.5449 -28.5448 -28.5448 -27.0804 -27.0804 -27.0803 -27.0803
   -27.0781 -27.0781  -9.5686  -9.5686  -9.5626  -9.5626  -7.0264  -7.0264
    -6.9975  -6.9975  -6.9759  -6.9759  -1.8355  -1.8355   0.9590   0.9590
     4.7361   4.7361   5.7778   5.7778   6.4668   6.4668  11.8734  11.8734
    12.5848  12.5848  13.4049  13.4049  13.9538  13.9538  18.0609  18.0609
    18.6842  18.6842  19.3995  19.3995  19.5097  19.5097  20.5660  20.5660

     occupation numbers 
     1.0000   1.0000   1.0000   1.0000   1.0000   1.0000   1.0000   1.0000
     1.0000   1.0000   1.0000   1.0000   1.0000   1.0000   1.0000   1.0000
     1.0000   1.0000   1.0000   1.0000   1.0000   1.0000   1.0000   1.0000
     1.0000   1.0000   1.0000   1.0000   1.0000   1.0000  -0.0000  -0.0000
    -0.0000  -0.0000  -0.0000  -0.0000  -0.0000  -0.0000  -0.0000  -0.0000
    -0.0000  -0.0000  -0.0000  -0.0000  -0.0000  -0.0000  -0.0000  -0.0000

          k = 0.5774 0.0000-0.3333 (  4674 PWs)   bands (ev):

   -28.5449 -28.5449 -28.5448 -28.5448 -27.0804 -27.0804 -27.0802 -27.0802
   -27.0781 -27.0781  -9.5676  -9.5676  -9.5631  -9.5631  -7.0192  -7.0192
    -6.9983  -6.9983  -6.9795  -6.9795  -1.7335  -1.7335   0.5276   0.5276
     4.7796   4.7796   6.3910   6.3910   7.0672   7.0672  10.7484  10.7484
    11.8141  11.8141  13.7518  13.7518  14.6614  14.6614  16.5906  16.5906
    16.9746  16.9746  18.8506  18.8506  21.6178  21.6179  21.8446  21.8447

     occupation numbers 
     1.0000   1.0000   1.0000   1.0000   1.0000   1.0000   1.0000   1.0000
     1.0000   1.0000   1.0000   1.0000   1.0000   1.0000   1.0000   1.0000
     1.0000   1.0000   1.0000   1.0000   1.0000   1.0000   1.0000   1.0000
     1.0000   1.0000   1.0000   1.0000   1.0000   1.0000  -0.0000  -0.0000
    -0.0000  -0.0000  -0.0000  -0.0000  -0.0000  -0.0000  -0.0000  -0.0000
    -0.0000  -0.0000  -0.0000  -0.0000  -0.0000  -0.0000  -0.0000  -0.0000

          k = 0.4811-0.0680-0.1667 (  4666 PWs)   bands (ev):

   -28.5450 -28.5450 -28.5448 -28.5448 -27.0805 -27.0805 -27.0802 -27.0802
   -27.0782 -27.0782  -9.5674  -9.5674  -9.5627  -9.5627  -7.0114  -7.0114
    -6.9969  -6.9969  -6.9831  -6.9831  -2.1132  -2.1132   0.5636   0.5636
     5.8511   5.8511   7.3281   7.3281   8.0198   8.0198   9.4302   9.4302
    10.4680  10.4680  12.3728  12.3728  15.3315  15.3315  16.1518  16.1518
    17.2678  17.2678  18.7232  18.7232  19.2032  19.2032  21.7590  21.7591

     occupation numbers 
     1.0000   1.0000   1.0000   1.0000   1.0000   1.0000   1.0000   1.0000
     1.0000   1.0000   1.0000   1.0000   1.0000   1.0000   1.0000   1.0000
     1.0000   1.0000   1.0000   1.0000   1.0000   1.0000   1.0000   1.0000
     1.0000   1.0000   1.0000   1.0000   1.0000   1.0000  -0.0000  -0.0000
    -0.0000  -0.0000  -0.0000  -0.0000  -0.0000  -0.0000  -0.0000  -0.0000
    -0.0000  -0.0000  -0.0000  -0.0000  -0.0000  -0.0000  -0.0000  -0.0000

          k = 0.3849 0.0680 0.0000 (  4670 PWs)   bands (ev):

   -28.5450 -28.5450 -28.5449 -28.5449 -27.0805 -27.0805 -27.0803 -27.0803
   -27.0783 -27.0783  -9.5671  -9.5671  -9.5635  -9.5635  -7.0108  -7.0108
    -6.9969  -6.9969  -6.9841  -6.9841  -2.5313  -2.5313   1.2954   1.2954
     6.2532   6.2532   6.9412   6.9412   7.2891   7.2891  10.3971  10.3971
    11.5619  11.5619  12.3839  12.3839  13.4657  13.4657  16.6857  16.6857
    17.0199  17.0199  17.9921  17.9921  18.5186  18.5186  20.3682  20.3684

     occupation numbers 
     1.0000   1.0000   1.0000   1.0000   1.0000   1.0000   1.0000   1.0000
     1.0000   1.0000   1.0000   1.0000   1.0000   1.0000   1.0000   1.0000
     1.0000   1.0000   1.0000   1.0000   1.0000   1.0000   1.0000   1.0000
     1.0000   1.0000   1.0000   1.0000   1.0000   1.0000  -0.0000  -0.0000
    -0.0000  -0.0000  -0.0000  -0.0000  -0.0000  -0.0000  -0.0000  -0.0000
    -0.0000  -0.0000  -0.0000  -0.0000  -0.0000  -0.0000  -0.0000  -0.0000

          k = 0.2887 0.0000 0.1667 (  4689 PWs)   bands (ev):

   -28.5450 -28.5450 -28.5449 -28.5449 -27.0805 -27.0805 -27.0803 -27.0803
   -27.0784 -27.0784  -9.5667  -9.5667  -9.5639  -9.5639  -7.0054  -7.0054
    -6.9976  -6.9976  -6.9872  -6.9872  -2.7218  -2.7218   1.4829   1.4829
     6.1709   6.1709   7.6699   7.6699   8.3461   8.3461   9.3875   9.3875
    10.6322  10.6322  12.6376  12.6376  14.4493  14.4493  15.0054  15.0054
    16.6970  16.6970  16.9724  16.9724  19.4530  19.4530  19.6529  19.6530

     occupation numbers 
     1.0000   1.0000   1.0000   1.0000   1.0000   1.0000   1.0000   1.0000
     1.0000   1.0000   1.0000   1.0000   1.0000   1.0000   1.0000   1.0000
     1.0000   1.0000   1.0000   1.0000   1.0000   1.0000   1.0000   1.0000
     1.0000   1.0000   1.0000   1.0000   1.0331   1.0331  -0.0000  -0.0000
    -0.0000  -0.0000  -0.0000  -0.0000  -0.0000  -0.0000  -0.0000  -0.0000
    -0.0000  -0.0000  -0.0000  -0.0000  -0.0000  -0.0000  -0.0000  -0.0000

          k = 0.1925-0.0680 0.3333 (  4670 PWs)   bands (ev):

   -28.5450 -28.5450 -28.5449 -28.5449 -27.0805 -27.0805 -27.0803 -27.0803
   -27.0783 -27.0783  -9.5671  -9.5671  -9.5635  -9.5635  -7.0108  -7.0108
    -6.9969  -6.9969  -6.9841  -6.9841  -2.5313  -2.5313   1.2955   1.2955
     6.2532   6.2532   6.9412   6.9412   7.2891   7.2891  10.3971  10.3971
    11.5619  11.5619  12.3839  12.3839  13.4657  13.4657  16.6857  16.6857
    17.0199  17.0199  17.9921  17.9921  18.5186  18.5186  20.3682  20.3682

     occupation numbers 
     1.0000   1.0000   1.0000   1.0000   1.0000   1.0000   1.0000   1.0000
     1.0000   1.0000   1.0000   1.0000   1.0000   1.0000   1.0000   1.0000
     1.0000   1.0000   1.0000   1.0000   1.0000   1.0000   1.0000   1.0000
     1.0000   1.0000   1.0000   1.0000   1.0000   1.0000  -0.0000  -0.0000
    -0.0000  -0.0000  -0.0000  -0.0000  -0.0000  -0.0000  -0.0000  -0.0000
    -0.0000  -0.0000  -0.0000  -0.0000  -0.0000  -0.0000  -0.0000  -0.0000

          k = 0.6736 0.2722-0.5000 (  4660 PWs)   bands (ev):

   -28.5449 -28.5449 -28.5448 -28.5448 -27.0804 -27.0804 -27.0802 -27.0802
   -27.0782 -27.0782  -9.5675  -9.5675  -9.5631  -9.5631  -7.0171  -7.0171
    -6.9975  -6.9975  -6.9806  -6.9806  -2.0575  -2.0575   0.8406   0.8406
     5.5040   5.5040   5.9440   5.9440   7.5350   7.5350  10.4050  10.4050
    12.1068  12.1068  12.9233  12.9233  14.1413  14.1413  17.3008  17.3008
    17.6534  17.6534  18.0793  18.0793  19.4306  19.4306  21.6380  21.6380

     occupation numbers 
     1.0000   1.0000   1.0000   1.0000   1.0000   1.0000   1.0000   1.0000
     1.0000   1.0000   1.0000   1.0000   1.0000   1.0000   1.0000   1.0000
     1.0000   1.0000   1.0000   1.0000   1.0000   1.0000   1.0000   1.0000
     1.0000   1.0000   1.0000   1.0000   1.0000   1.0000  -0.0000  -0.0000
    -0.0000  -0.0000  -0.0000  -0.0000  -0.0000  -0.0000  -0.0000  -0.0000
    -0.0000  -0.0000  -0.0000  -0.0000  -0.0000  -0.0000  -0.0000  -0.0000

          k = 0.5774 0.2041-0.3333 (  4666 PWs)   bands (ev):

   -28.5449 -28.5449 -28.5448 -28.5448 -27.0804 -27.0804 -27.0802 -27.0802
   -27.0781 -27.0781  -9.5676  -9.5676  -9.5631  -9.5631  -7.0196  -7.0196
    -6.9975  -6.9975  -6.9799  -6.9799  -1.7330  -1.7330   0.5231   0.5231
     5.2484   5.2484   5.3694   5.3694   8.0492   8.0492   9.7959   9.7959
    12.8111  12.8111  13.2191  13.2191  15.0260  15.0260  15.4177  15.4177
    18.8401  18.8401  18.9856  18.9856  20.2994  20.2994  20.8523  20.8523

     occupation numbers 
     1.0000   1.0000   1.0000   1.0000   1.0000   1.0000   1.0000   1.0000
     1.0000   1.0000   1.0000   1.0000   1.0000   1.0000   1.0000   1.0000
     1.0000   1.0000   1.0000   1.0000   1.0000   1.0000   1.0000   1.0000
     1.0000   1.0000   1.0000   1.0000   1.0000   1.0000  -0.0000  -0.0000
    -0.0000  -0.0000  -0.0000  -0.0000  -0.0000  -0.0000  -0.0000  -0.0000
    -0.0000  -0.0000  -0.0000  -0.0000  -0.0000  -0.0000  -0.0000  -0.0000

          k = 0.4811 0.1361-0.1667 (  4660 PWs)   bands (ev):

   -28.5449 -28.5449 -28.5448 -28.5448 -27.0804 -27.0804 -27.0802 -27.0802
   -27.0782 -27.0782  -9.5675  -9.5675  -9.5631  -9.5631  -7.0171  -7.0171
    -6.9975  -6.9975  -6.9806  -6.9806  -2.0575  -2.0575   0.8406   0.8406
     5.5040   5.5040   5.9440   5.9440   7.5350   7.5350  10.4050  10.4050
    12.1068  12.1068  12.9233  12.9233  14.1413  14.1413  17.3008  17.3008
    17.6534  17.6534  18.0793  18.0793  19.4306  19.4306  21.6380  21.6381

     occupation numbers 
     1.0000   1.0000   1.0000   1.0000   1.0000   1.0000   1.0000   1.0000
     1.0000   1.0000   1.0000   1.0000   1.0000   1.0000   1.0000   1.0000
     1.0000   1.0000   1.0000   1.0000   1.0000   1.0000   1.0000   1.0000
     1.0000   1.0000   1.0000   1.0000   1.0000   1.0000  -0.0000  -0.0000
    -0.0000  -0.0000  -0.0000  -0.0000  -0.0000  -0.0000  -0.0000  -0.0000
    -0.0000  -0.0000  -0.0000  -0.0000  -0.0000  -0.0000  -0.0000  -0.0000

          k = 0.3849 0.2722 0.0000 (  4672 PWs)   bands (ev):

   -28.5450 -28.5450 -28.5448 -28.5448 -27.0804 -27.0804 -27.0804 -27.0804
   -27.0782 -27.0782  -9.5682  -9.5682  -9.5630  -9.5630  -7.0220  -7.0220
    -6.9974  -6.9974  -6.9780  -6.9780  -2.2523  -2.2523   1.3942   1.3942
     5.6567   5.6567   5.7113   5.7113   6.4268   6.4268  12.0770  12.0770
    12.2531  12.2531  12.9491  12.9491  13.8677  13.8677  17.4754  17.4754
    17.6735  17.6735  18.3090  18.3090  18.6031  18.6031  21.1174  21.1174

     occupation numbers 
     1.0000   1.0000   1.0000   1.0000   1.0000   1.0000   1.0000   1.0000
     1.0000   1.0000   1.0000   1.0000   1.0000   1.0000   1.0000   1.0000
     1.0000   1.0000   1.0000   1.0000   1.0000   1.0000   1.0000   1.0000
     1.0000   1.0000   1.0000   1.0000   1.0000   1.0000  -0.0000  -0.0000
    -0.0000  -0.0000  -0.0000  -0.0000  -0.0000  -0.0000  -0.0000  -0.0000
    -0.0000  -0.0000  -0.0000  -0.0000  -0.0000  -0.0000  -0.0000  -0.0000

          k = 0.2887 0.2041 0.1667 (  4670 PWs)   bands (ev):

   -28.5450 -28.5450 -28.5449 -28.5449 -27.0805 -27.0805 -27.0803 -27.0803
   -27.0783 -27.0783  -9.5671  -9.5671  -9.5635  -9.5635  -7.0108  -7.0108
    -6.9969  -6.9969  -6.9841  -6.9841  -2.5313  -2.5313   1.2954   1.2954
     6.2532   6.2532   6.9412   6.9412   7.2891   7.2891  10.3971  10.3971
    11.5619  11.5619  12.3839  12.3839  13.4657  13.4657  16.6857  16.6857
    17.0199  17.0199  17.9921  17.9921  18.5186  18.5186  20.3681  20.3682

     occupation numbers 
     1.0000   1.0000   1.0000   1.0000   1.0000   1.0000   1.0000   1.0000
     1.0000   1.0000   1.0000   1.0000   1.0000   1.0000   1.0000   1.0000
     1.0000   1.0000   1.0000   1.0000   1.0000   1.0000   1.0000   1.0000
     1.0000   1.0000   1.0000   1.0000   1.0000   1.0000  -0.0000  -0.0000
    -0.0000  -0.0000  -0.0000  -0.0000  -0.0000  -0.0000  -0.0000  -0.0000
    -0.0000  -0.0000  -0.0000  -0.0000  -0.0000  -0.0000  -0.0000  -0.0000

          k = 0.1925 0.1361 0.3333 (  4693 PWs)   bands (ev):

   -28.5450 -28.5450 -28.5449 -28.5449 -27.0806 -27.0806 -27.0802 -27.0802
   -27.0783 -27.0783  -9.5675  -9.5675  -9.5626  -9.5626  -7.0092  -7.0092
    -6.9938  -6.9938  -6.9857  -6.9857  -2.4783  -2.4783   0.8933   0.8933
     6.9806   6.9806   7.7399   7.7399   8.1835   8.1835   9.1586   9.1586
    10.4411  10.4411  10.8392  10.8392  15.1163  15.1163  16.2134  16.2134
    16.2336  16.2336  19.0776  19.0776  20.3818  20.3819  20.6276  20.6277

     occupation numbers 
     1.0000   1.0000   1.0000   1.0000   1.0000   1.0000   1.0000   1.0000
     1.0000   1.0000   1.0000   1.0000   1.0000   1.0000   1.0000   1.0000
     1.0000   1.0000   1.0000   1.0000   1.0000   1.0000   1.0000   1.0000
     1.0000   1.0000   1.0000   1.0000   1.0026   1.0026  -0.0000  -0.0000
    -0.0000  -0.0000  -0.0000  -0.0000  -0.0000  -0.0000  -0.0000  -0.0000
    -0.0000  -0.0000  -0.0000  -0.0000  -0.0000  -0.0000  -0.0000  -0.0000

          k = 0.6736 0.4763-0.5000 (  4666 PWs)   bands (ev):

   -28.5450 -28.5450 -28.5448 -28.5448 -27.0805 -27.0805 -27.0802 -27.0802
   -27.0782 -27.0782  -9.5674  -9.5674  -9.5627  -9.5627  -7.0114  -7.0114
    -6.9969  -6.9969  -6.9831  -6.9831  -2.1132  -2.1132   0.5636   0.5636
     5.8511   5.8511   7.3281   7.3281   8.0198   8.0198   9.4302   9.4302
    10.4680  10.4680  12.3728  12.3728  15.3315  15.3315  16.1518  16.1518
    17.2678  17.2678  18.7232  18.7232  19.2032  19.2032  21.7591  21.7593

     occupation numbers 
     1.0000   1.0000   1.0000   1.0000   1.0000   1.0000   1.0000   1.0000
     1.0000   1.0000   1.0000   1.0000   1.0000   1.0000   1.0000   1.0000
     1.0000   1.0000   1.0000   1.0000   1.0000   1.0000   1.0000   1.0000
     1.0000   1.0000   1.0000   1.0000   1.0000   1.0000  -0.0000  -0.0000
    -0.0000  -0.0000  -0.0000  -0.0000  -0.0000  -0.0000  -0.0000  -0.0000
    -0.0000  -0.0000  -0.0000  -0.0000  -0.0000  -0.0000  -0.0000  -0.0000

          k = 0.5774 0.4082-0.3333 (  4674 PWs)   bands (ev):

   -28.5449 -28.5449 -28.5448 -28.5448 -27.0804 -27.0804 -27.0802 -27.0802
   -27.0781 -27.0781  -9.5676  -9.5676  -9.5631  -9.5631  -7.0192  -7.0192
    -6.9983  -6.9983  -6.9795  -6.9795  -1.7335  -1.7335   0.5276   0.5276
     4.7796   4.7796   6.3910   6.3910   7.0672   7.0672  10.7484  10.7484
    11.8141  11.8141  13.7518  13.7518  14.6614  14.6614  16.5906  16.5906
    16.9746  16.9746  18.8506  18.8506  21.6178  21.6178  21.8446  21.8446

     occupation numbers 
     1.0000   1.0000   1.0000   1.0000   1.0000   1.0000   1.0000   1.0000
     1.0000   1.0000   1.0000   1.0000   1.0000   1.0000   1.0000   1.0000
     1.0000   1.0000   1.0000   1.0000   1.0000   1.0000   1.0000   1.0000
     1.0000   1.0000   1.0000   1.0000   1.0000   1.0000  -0.0000  -0.0000
    -0.0000  -0.0000  -0.0000  -0.0000  -0.0000  -0.0000  -0.0000  -0.0000
    -0.0000  -0.0000  -0.0000  -0.0000  -0.0000  -0.0000  -0.0000  -0.0000

          k = 0.4811 0.3402-0.1667 (  4674 PWs)   bands (ev):

   -28.5449 -28.5449 -28.5448 -28.5448 -27.0804 -27.0804 -27.0803 -27.0803
   -27.0781 -27.0781  -9.5686  -9.5686  -9.5626  -9.5626  -7.0264  -7.0264
    -6.9975  -6.9975  -6.9759  -6.9759  -1.8355  -1.8355   0.9590   0.9590
     4.7361   4.7361   5.7778   5.7778   6.4668   6.4668  11.8734  11.8734
    12.5848  12.5848  13.4049  13.4049  13.9538  13.9538  18.0609  18.0609
    18.6842  18.6842  19.3995  19.3995  19.5097  19.5097  20.5660  20.5660

     occupation numbers 
     1.0000   1.0000   1.0000   1.0000   1.0000   1.0000   1.0000   1.0000
     1.0000   1.0000   1.0000   1.0000   1.0000   1.0000   1.0000   1.0000
     1.0000   1.0000   1.0000   1.0000   1.0000   1.0000   1.0000   1.0000
     1.0000   1.0000   1.0000   1.0000   1.0000   1.0000  -0.0000  -0.0000
    -0.0000  -0.0000  -0.0000  -0.0000  -0.0000  -0.0000  -0.0000  -0.0000
    -0.0000  -0.0000  -0.0000  -0.0000  -0.0000  -0.0000  -0.0000  -0.0000

          k = 0.3849-0.7485 0.0000 (  4674 PWs)   bands (ev):

   -28.5449 -28.5449 -28.5448 -28.5448 -27.0804 -27.0804 -27.0803 -27.0803
   -27.0781 -27.0781  -9.5686  -9.5686  -9.5626  -9.5626  -7.0264  -7.0264
    -6.9975  -6.9975  -6.9759  -6.9759  -1.8355  -1.8355   0.9590   0.9590
     4.7361   4.7361   5.7778   5.7778   6.4668   6.4668  11.8734  11.8734
    12.5848  12.5848  13.4049  13.4049  13.9538  13.9538  18.0609  18.0609
    18.6842  18.6842  19.3995  19.3995  19.5097  19.5097  20.5660  20.5660

     occupation numbers 
     1.0000   1.0000   1.0000   1.0000   1.0000   1.0000   1.0000   1.0000
     1.0000   1.0000   1.0000   1.0000   1.0000   1.0000   1.0000   1.0000
     1.0000   1.0000   1.0000   1.0000   1.0000   1.0000   1.0000   1.0000
     1.0000   1.0000   1.0000   1.0000   1.0000   1.0000  -0.0000  -0.0000
    -0.0000  -0.0000  -0.0000  -0.0000  -0.0000  -0.0000  -0.0000  -0.0000
    -0.0000  -0.0000  -0.0000  -0.0000  -0.0000  -0.0000  -0.0000  -0.0000

          k = 0.2887-0.8165 0.1667 (  4660 PWs)   bands (ev):

   -28.5449 -28.5449 -28.5448 -28.5448 -27.0804 -27.0804 -27.0802 -27.0802
   -27.0782 -27.0782  -9.5675  -9.5675  -9.5631  -9.5631  -7.0171  -7.0171
    -6.9975  -6.9975  -6.9806  -6.9806  -2.0575  -2.0575   0.8406   0.8406
     5.5040   5.5040   5.9440   5.9440   7.5350   7.5350  10.4050  10.4050
    12.1068  12.1068  12.9233  12.9233  14.1413  14.1413  17.3008  17.3008
    17.6534  17.6534  18.0793  18.0793  19.4306  19.4306  21.6380  21.6383

     occupation numbers 
     1.0000   1.0000   1.0000   1.0000   1.0000   1.0000   1.0000   1.0000
     1.0000   1.0000   1.0000   1.0000   1.0000   1.0000   1.0000   1.0000
     1.0000   1.0000   1.0000   1.0000   1.0000   1.0000   1.0000   1.0000
     1.0000   1.0000   1.0000   1.0000   1.0000   1.0000  -0.0000  -0.0000
    -0.0000  -0.0000  -0.0000  -0.0000  -0.0000  -0.0000  -0.0000  -0.0000
    -0.0000  -0.0000  -0.0000  -0.0000  -0.0000  -0.0000  -0.0000  -0.0000

          k = 0.1925-0.8845 0.3333 (  4666 PWs)   bands (ev):

   -28.5450 -28.5450 -28.5448 -28.5448 -27.0805 -27.0805 -27.0802 -27.0802
   -27.0782 -27.0782  -9.5674  -9.5674  -9.5627  -9.5627  -7.0114  -7.0114
    -6.9969  -6.9969  -6.9831  -6.9831  -2.1132  -2.1132   0.5636   0.5636
     5.8511   5.8511   7.3281   7.3281   8.0198   8.0198   9.4302   9.4302
    10.4680  10.4680  12.3728  12.3728  15.3315  15.3315  16.1518  16.1518
    17.2678  17.2678  18.7232  18.7232  19.2032  19.2032  21.7590  21.7591

     occupation numbers 
     1.0000   1.0000   1.0000   1.0000   1.0000   1.0000   1.0000   1.0000
     1.0000   1.0000   1.0000   1.0000   1.0000   1.0000   1.0000   1.0000
     1.0000   1.0000   1.0000   1.0000   1.0000   1.0000   1.0000   1.0000
     1.0000   1.0000   1.0000   1.0000   1.0000   1.0000  -0.0000  -0.0000
    -0.0000  -0.0000  -0.0000  -0.0000  -0.0000  -0.0000  -0.0000  -0.0000
    -0.0000  -0.0000  -0.0000  -0.0000  -0.0000  -0.0000  -0.0000  -0.0000

          k = 0.6736-0.5443-0.5000 (  4662 PWs)   bands (ev):

   -28.5449 -28.5449 -28.5448 -28.5448 -27.0805 -27.0805 -27.0802 -27.0802
   -27.0782 -27.0782  -9.5677  -9.5677  -9.5624  -9.5624  -7.0144  -7.0144
    -6.9962  -6.9962  -6.9817  -6.9817  -1.9545  -1.9545   0.3869   0.3869
     6.1806   6.1806   6.6840   6.6840   7.3822   7.3822  10.1634  10.1634
    11.1256  11.1256  11.7809  11.7809  14.8459  14.8459  17.3927  17.3927
    18.0256  18.0256  18.4261  18.4261  19.3697  19.3697  21.2924  21.2924

     occupation numbers 
     1.0000   1.0000   1.0000   1.0000   1.0000   1.0000   1.0000   1.0000
     1.0000   1.0000   1.0000   1.0000   1.0000   1.0000   1.0000   1.0000
     1.0000   1.0000   1.0000   1.0000   1.0000   1.0000   1.0000   1.0000
     1.0000   1.0000   1.0000   1.0000   1.0000   1.0000  -0.0000  -0.0000
    -0.0000  -0.0000  -0.0000  -0.0000  -0.0000  -0.0000  -0.0000  -0.0000
    -0.0000  -0.0000  -0.0000  -0.0000  -0.0000  -0.0000  -0.0000  -0.0000

          k = 0.5774-0.6124-0.3333 (  4666 PWs)   bands (ev):

   -28.5449 -28.5449 -28.5448 -28.5448 -27.0804 -27.0804 -27.0802 -27.0802
   -27.0781 -27.0781  -9.5676  -9.5676  -9.5631  -9.5631  -7.0196  -7.0196
    -6.9975  -6.9975  -6.9799  -6.9799  -1.7330  -1.7330   0.5231   0.5231
     5.2484   5.2484   5.3694   5.3694   8.0492   8.0492   9.7959   9.7959
    12.8111  12.8111  13.2191  13.2191  15.0260  15.0260  15.4177  15.4177
    18.8401  18.8401  18.9856  18.9856  20.2994  20.2994  20.8523  20.8523

     occupation numbers 
     1.0000   1.0000   1.0000   1.0000   1.0000   1.0000   1.0000   1.0000
     1.0000   1.0000   1.0000   1.0000   1.0000   1.0000   1.0000   1.0000
     1.0000   1.0000   1.0000   1.0000   1.0000   1.0000   1.0000   1.0000
     1.0000   1.0000   1.0000   1.0000   1.0000   1.0000  -0.0000  -0.0000
    -0.0000  -0.0000  -0.0000  -0.0000  -0.0000  -0.0000  -0.0000  -0.0000
    -0.0000  -0.0000  -0.0000  -0.0000  -0.0000  -0.0000  -0.0000  -0.0000

          k = 0.4811-0.6804-0.1667 (  4670 PWs)   bands (ev):

   -28.5449 -28.5449 -28.5448 -28.5448 -27.0804 -27.0804 -27.0803 -27.0803
   -27.0781 -27.0781  -9.5684  -9.5684  -9.5628  -9.5628  -7.0267  -7.0267
    -6.9972  -6.9972  -6.9767  -6.9767  -1.6690  -1.6690   0.8311   0.8311
     4.4684   4.4684   5.2131   5.2131   7.2734   7.2734  10.9746  10.9746
    12.8832  12.8832  14.0825  14.0825  14.5050  14.5050  16.5898  16.5898
    19.1668  19.1668  20.0280  20.0280  20.1909  20.1909  20.2028  20.2029

     occupation numbers 
     1.0000   1.0000   1.0000   1.0000   1.0000   1.0000   1.0000   1.0000
     1.0000   1.0000   1.0000   1.0000   1.0000   1.0000   1.0000   1.0000
     1.0000   1.0000   1.0000   1.0000   1.0000   1.0000   1.0000   1.0000
     1.0000   1.0000   1.0000   1.0000   1.0000   1.0000  -0.0000  -0.0000
    -0.0000  -0.0000  -0.0000  -0.0000  -0.0000  -0.0000  -0.0000  -0.0000
    -0.0000  -0.0000  -0.0000  -0.0000  -0.0000  -0.0000  -0.0000  -0.0000

          k = 0.3849-0.5443 0.0000 (  4674 PWs)   bands (ev):

   -28.5449 -28.5449 -28.5448 -28.5448 -27.0804 -27.0804 -27.0802 -27.0802
   -27.0781 -27.0781  -9.5676  -9.5676  -9.5631  -9.5631  -7.0192  -7.0192
    -6.9983  -6.9983  -6.9795  -6.9795  -1.7335  -1.7335   0.5276   0.5276
     4.7796   4.7796   6.3910   6.3910   7.0672   7.0672  10.7484  10.7484
    11.8141  11.8141  13.7518  13.7518  14.6614  14.6614  16.5906  16.5906
    16.9746  16.9746  18.8506  18.8506  21.6178  21.6178  21.8446  21.8446

     occupation numbers 
     1.0000   1.0000   1.0000   1.0000   1.0000   1.0000   1.0000   1.0000
     1.0000   1.0000   1.0000   1.0000   1.0000   1.0000   1.0000   1.0000
     1.0000   1.0000   1.0000   1.0000   1.0000   1.0000   1.0000   1.0000
     1.0000   1.0000   1.0000   1.0000   1.0000   1.0000  -0.0000  -0.0000
    -0.0000  -0.0000  -0.0000  -0.0000  -0.0000  -0.0000  -0.0000  -0.0000
    -0.0000  -0.0000  -0.0000  -0.0000  -0.0000  -0.0000  -0.0000  -0.0000

          k = 0.2887-0.6124 0.1667 (  4666 PWs)   bands (ev):

   -28.5449 -28.5449 -28.5448 -28.5448 -27.0804 -27.0804 -27.0802 -27.0802
   -27.0781 -27.0781  -9.5676  -9.5676  -9.5631  -9.5631  -7.0196  -7.0196
    -6.9975  -6.9975  -6.9799  -6.9799  -1.7330  -1.7330   0.5231   0.5231
     5.2484   5.2484   5.3694   5.3694   8.0492   8.0492   9.7959   9.7959
    12.8111  12.8111  13.2191  13.2191  15.0260  15.0260  15.4177  15.4177
    18.8401  18.8401  18.9856  18.9856  20.2994  20.2994  20.8523  20.8523

     occupation numbers 
     1.0000   1.0000   1.0000   1.0000   1.0000   1.0000   1.0000   1.0000
     1.0000   1.0000   1.0000   1.0000   1.0000   1.0000   1.0000   1.0000
     1.0000   1.0000   1.0000   1.0000   1.0000   1.0000   1.0000   1.0000
     1.0000   1.0000   1.0000   1.0000   1.0000   1.0000  -0.0000  -0.0000
    -0.0000  -0.0000  -0.0000  -0.0000  -0.0000  -0.0000  -0.0000  -0.0000
    -0.0000  -0.0000  -0.0000  -0.0000  -0.0000  -0.0000  -0.0000  -0.0000

          k = 0.1925-0.6804 0.3333 (  4674 PWs)   bands (ev):

   -28.5449 -28.5449 -28.5448 -28.5448 -27.0804 -27.0804 -27.0802 -27.0802
   -27.0781 -27.0781  -9.5676  -9.5676  -9.5631  -9.5631  -7.0192  -7.0192
    -6.9983  -6.9983  -6.9795  -6.9795  -1.7335  -1.7335   0.5276   0.5276
     4.7796   4.7796   6.3910   6.3910   7.0672   7.0672  10.7484  10.7484
    11.8141  11.8141  13.7518  13.7518  14.6614  14.6614  16.5906  16.5906
    16.9746  16.9746  18.8506  18.8506  21.6178  21.6178  21.8446  21.8446

     occupation numbers 
     1.0000   1.0000   1.0000   1.0000   1.0000   1.0000   1.0000   1.0000
     1.0000   1.0000   1.0000   1.0000   1.0000   1.0000   1.0000   1.0000
     1.0000   1.0000   1.0000   1.0000   1.0000   1.0000   1.0000   1.0000
     1.0000   1.0000   1.0000   1.0000   1.0000   1.0000  -0.0000  -0.0000
    -0.0000  -0.0000  -0.0000  -0.0000  -0.0000  -0.0000  -0.0000  -0.0000
    -0.0000  -0.0000  -0.0000  -0.0000  -0.0000  -0.0000  -0.0000  -0.0000

          k = 0.6736-0.3402-0.5000 (  4666 PWs)   bands (ev):

   -28.5449 -28.5449 -28.5448 -28.5448 -27.0804 -27.0804 -27.0802 -27.0802
   -27.0781 -27.0781  -9.5676  -9.5676  -9.5631  -9.5631  -7.0196  -7.0196
    -6.9975  -6.9975  -6.9799  -6.9799  -1.7330  -1.7330   0.5231   0.5231
     5.2484   5.2484   5.3694   5.3694   8.0492   8.0492   9.7959   9.7959
    12.8111  12.8111  13.2191  13.2191  15.0260  15.0260  15.4177  15.4177
    18.8401  18.8401  18.9856  18.9856  20.2994  20.2994  20.8523  20.8523

     occupation numbers 
     1.0000   1.0000   1.0000   1.0000   1.0000   1.0000   1.0000   1.0000
     1.0000   1.0000   1.0000   1.0000   1.0000   1.0000   1.0000   1.0000
     1.0000   1.0000   1.0000   1.0000   1.0000   1.0000   1.0000   1.0000
     1.0000   1.0000   1.0000   1.0000   1.0000   1.0000  -0.0000  -0.0000
    -0.0000  -0.0000  -0.0000  -0.0000  -0.0000  -0.0000  -0.0000  -0.0000
    -0.0000  -0.0000  -0.0000  -0.0000  -0.0000  -0.0000  -0.0000  -0.0000

          k = 0.5774-0.4082-0.3333 (  4674 PWs)   bands (ev):

   -28.5449 -28.5449 -28.5448 -28.5448 -27.0804 -27.0804 -27.0802 -27.0802
   -27.0781 -27.0781  -9.5676  -9.5676  -9.5631  -9.5631  -7.0192  -7.0192
    -6.9983  -6.9983  -6.9795  -6.9795  -1.7335  -1.7335   0.5276   0.5276
     4.7796   4.7796   6.3910   6.3910   7.0672   7.0672  10.7484  10.7484
    11.8141  11.8141  13.7518  13.7518  14.6614  14.6614  16.5906  16.5906
    16.9746  16.9746  18.8506  18.8506  21.6179  21.6179  21.8446  21.8446

     occupation numbers 
     1.0000   1.0000   1.0000   1.0000   1.0000   1.0000   1.0000   1.0000
     1.0000   1.0000   1.0000   1.0000   1.0000   1.0000   1.0000   1.0000
     1.0000   1.0000   1.0000   1.0000   1.0000   1.0000   1.0000   1.0000
     1.0000   1.0000   1.0000   1.0000   1.0000   1.0000  -0.0000  -0.0000
    -0.0000  -0.0000  -0.0000  -0.0000  -0.0000  -0.0000  -0.0000  -0.0000
    -0.0000  -0.0000  -0.0000  -0.0000  -0.0000  -0.0000  -0.0000  -0.0000

          k = 0.4811-0.4763-0.1667 (  4666 PWs)   bands (ev):

   -28.5449 -28.5449 -28.5448 -28.5448 -27.0804 -27.0804 -27.0802 -27.0802
   -27.0781 -27.0781  -9.5676  -9.5676  -9.5631  -9.5631  -7.0196  -7.0196
    -6.9975  -6.9975  -6.9799  -6.9799  -1.7330  -1.7330   0.5231   0.5231
     5.2484   5.2484   5.3694   5.3694   8.0492   8.0492   9.7959   9.7959
    12.8111  12.8111  13.2191  13.2191  15.0260  15.0260  15.4177  15.4177
    18.8401  18.8401  18.9856  18.9856  20.2994  20.2994  20.8523  20.8523

     occupation numbers 
     1.0000   1.0000   1.0000   1.0000   1.0000   1.0000   1.0000   1.0000
     1.0000   1.0000   1.0000   1.0000   1.0000   1.0000   1.0000   1.0000
     1.0000   1.0000   1.0000   1.0000   1.0000   1.0000   1.0000   1.0000
     1.0000   1.0000   1.0000   1.0000   1.0000   1.0000  -0.0000  -0.0000
    -0.0000  -0.0000  -0.0000  -0.0000  -0.0000  -0.0000  -0.0000  -0.0000
    -0.0000  -0.0000  -0.0000  -0.0000  -0.0000  -0.0000  -0.0000  -0.0000

          k = 0.3849-0.3402 0.0000 (  4666 PWs)   bands (ev):

   -28.5450 -28.5450 -28.5448 -28.5448 -27.0805 -27.0805 -27.0802 -27.0802
   -27.0782 -27.0782  -9.5674  -9.5674  -9.5627  -9.5627  -7.0114  -7.0114
    -6.9969  -6.9969  -6.9831  -6.9831  -2.1132  -2.1132   0.5636   0.5636
     5.8511   5.8511   7.3281   7.3281   8.0198   8.0198   9.4302   9.4302
    10.4680  10.4680  12.3728  12.3728  15.3315  15.3315  16.1518  16.1518
    17.2678  17.2678  18.7232  18.7232  19.2032  19.2032  21.7590  21.7592

     occupation numbers 
     1.0000   1.0000   1.0000   1.0000   1.0000   1.0000   1.0000   1.0000
     1.0000   1.0000   1.0000   1.0000   1.0000   1.0000   1.0000   1.0000
     1.0000   1.0000   1.0000   1.0000   1.0000   1.0000   1.0000   1.0000
     1.0000   1.0000   1.0000   1.0000   1.0000   1.0000  -0.0000  -0.0000
    -0.0000  -0.0000  -0.0000  -0.0000  -0.0000  -0.0000  -0.0000  -0.0000
    -0.0000  -0.0000  -0.0000  -0.0000  -0.0000  -0.0000  -0.0000  -0.0000

          k = 0.2887-0.4082 0.1667 (  4660 PWs)   bands (ev):

   -28.5449 -28.5449 -28.5448 -28.5448 -27.0804 -27.0804 -27.0802 -27.0802
   -27.0782 -27.0782  -9.5675  -9.5675  -9.5631  -9.5631  -7.0171  -7.0171
    -6.9975  -6.9975  -6.9806  -6.9806  -2.0575  -2.0575   0.8406   0.8406
     5.5040   5.5040   5.9440   5.9440   7.5350   7.5350  10.4050  10.4050
    12.1068  12.1068  12.9233  12.9233  14.1413  14.1413  17.3008  17.3008
    17.6534  17.6534  18.0793  18.0793  19.4306  19.4306  21.6381  21.6381

     occupation numbers 
     1.0000   1.0000   1.0000   1.0000   1.0000   1.0000   1.0000   1.0000
     1.0000   1.0000   1.0000   1.0000   1.0000   1.0000   1.0000   1.0000
     1.0000   1.0000   1.0000   1.0000   1.0000   1.0000   1.0000   1.0000
     1.0000   1.0000   1.0000   1.0000   1.0000   1.0000  -0.0000  -0.0000
    -0.0000  -0.0000  -0.0000  -0.0000  -0.0000  -0.0000  -0.0000  -0.0000
    -0.0000  -0.0000  -0.0000  -0.0000  -0.0000  -0.0000  -0.0000  -0.0000

          k = 0.1925-0.4763 0.3333 (  4674 PWs)   bands (ev):

   -28.5449 -28.5449 -28.5448 -28.5448 -27.0804 -27.0804 -27.0803 -27.0803
   -27.0781 -27.0781  -9.5686  -9.5686  -9.5626  -9.5626  -7.0264  -7.0264
    -6.9975  -6.9975  -6.9759  -6.9759  -1.8355  -1.8355   0.9590   0.9590
     4.7361   4.7361   5.7778   5.7778   6.4668   6.4668  11.8734  11.8734
    12.5848  12.5848  13.4049  13.4049  13.9538  13.9538  18.0609  18.0609
    18.6842  18.6842  19.3995  19.3995  19.5097  19.5097  20.5660  20.5660

     occupation numbers 
     1.0000   1.0000   1.0000   1.0000   1.0000   1.0000   1.0000   1.0000
     1.0000   1.0000   1.0000   1.0000   1.0000   1.0000   1.0000   1.0000
     1.0000   1.0000   1.0000   1.0000   1.0000   1.0000   1.0000   1.0000
     1.0000   1.0000   1.0000   1.0000   1.0000   1.0000  -0.0000  -0.0000
    -0.0000  -0.0000  -0.0000  -0.0000  -0.0000  -0.0000  -0.0000  -0.0000
    -0.0000  -0.0000  -0.0000  -0.0000  -0.0000  -0.0000  -0.0000  -0.0000

          k = 0.6736-0.1361-0.5000 (  4670 PWs)   bands (ev):

   -28.5449 -28.5449 -28.5448 -28.5448 -27.0804 -27.0804 -27.0803 -27.0803
   -27.0781 -27.0781  -9.5684  -9.5684  -9.5628  -9.5628  -7.0267  -7.0267
    -6.9972  -6.9972  -6.9767  -6.9767  -1.6690  -1.6690   0.8311   0.8311
     4.4684   4.4684   5.2131   5.2131   7.2734   7.2734  10.9746  10.9746
    12.8832  12.8832  14.0825  14.0825  14.5050  14.5050  16.5898  16.5898
    19.1668  19.1668  20.0280  20.0280  20.1909  20.1909  20.2028  20.2028

     occupation numbers 
     1.0000   1.0000   1.0000   1.0000   1.0000   1.0000   1.0000   1.0000
     1.0000   1.0000   1.0000   1.0000   1.0000   1.0000   1.0000   1.0000
     1.0000   1.0000   1.0000   1.0000   1.0000   1.0000   1.0000   1.0000
     1.0000   1.0000   1.0000   1.0000   1.0000   1.0000  -0.0000  -0.0000
    -0.0000  -0.0000  -0.0000  -0.0000  -0.0000  -0.0000  -0.0000  -0.0000
    -0.0000  -0.0000  -0.0000  -0.0000  -0.0000  -0.0000  -0.0000  -0.0000

          k = 0.5774-0.2041-0.3333 (  4666 PWs)   bands (ev):

   -28.5449 -28.5449 -28.5448 -28.5448 -27.0804 -27.0804 -27.0802 -27.0802
   -27.0781 -27.0781  -9.5676  -9.5676  -9.5631  -9.5631  -7.0196  -7.0196
    -6.9975  -6.9975  -6.9799  -6.9799  -1.7330  -1.7330   0.5231   0.5231
     5.2484   5.2484   5.3694   5.3694   8.0492   8.0492   9.7959   9.7959
    12.8111  12.8111  13.2191  13.2191  15.0260  15.0260  15.4177  15.4177
    18.8401  18.8401  18.9856  18.9856  20.2994  20.2994  20.8523  20.8523

     occupation numbers 
     1.0000   1.0000   1.0000   1.0000   1.0000   1.0000   1.0000   1.0000
     1.0000   1.0000   1.0000   1.0000   1.0000   1.0000   1.0000   1.0000
     1.0000   1.0000   1.0000   1.0000   1.0000   1.0000   1.0000   1.0000
     1.0000   1.0000   1.0000   1.0000   1.0000   1.0000  -0.0000  -0.0000
    -0.0000  -0.0000  -0.0000  -0.0000  -0.0000  -0.0000  -0.0000  -0.0000
    -0.0000  -0.0000  -0.0000  -0.0000  -0.0000  -0.0000  -0.0000  -0.0000

          k = 0.4811-0.2722-0.1667 (  4662 PWs)   bands (ev):

   -28.5449 -28.5449 -28.5448 -28.5448 -27.0805 -27.0805 -27.0802 -27.0802
   -27.0782 -27.0782  -9.5677  -9.5677  -9.5624  -9.5624  -7.0144  -7.0144
    -6.9962  -6.9962  -6.9817  -6.9817  -1.9545  -1.9545   0.3869   0.3869
     6.1806   6.1806   6.6840   6.6840   7.3822   7.3822  10.1634  10.1634
    11.1256  11.1256  11.7809  11.7809  14.8459  14.8459  17.3927  17.3927
    18.0256  18.0256  18.4261  18.4261  19.3697  19.3697  21.2924  21.2924

     occupation numbers 
     1.0000   1.0000   1.0000   1.0000   1.0000   1.0000   1.0000   1.0000
     1.0000   1.0000   1.0000   1.0000   1.0000   1.0000   1.0000   1.0000
     1.0000   1.0000   1.0000   1.0000   1.0000   1.0000   1.0000   1.0000
     1.0000   1.0000   1.0000   1.0000   1.0000   1.0000  -0.0000  -0.0000
    -0.0000  -0.0000  -0.0000  -0.0000  -0.0000  -0.0000  -0.0000  -0.0000
    -0.0000  -0.0000  -0.0000  -0.0000  -0.0000  -0.0000  -0.0000  -0.0000

          k =-0.5774 0.2041 0.0000 (  4664 PWs)   bands (ev):

   -28.5450 -28.5450 -28.5447 -28.5447 -27.0805 -27.0805 -27.0801 -27.0801
   -27.0782 -27.0782  -9.5681  -9.5681  -9.5615  -9.5615  -7.0128  -7.0128
    -6.9923  -6.9923  -6.9830  -6.9830  -1.9993  -1.9993   0.1319   0.1319
     7.2494   7.2494   7.8656   7.8656   8.4983   8.4983   8.5131   8.5131
     9.8047   9.8047  10.2959  10.2959  16.8059  16.8059  17.4124  17.4124
    17.9248  17.9248  17.9764  17.9764  19.0308  19.0308  19.0462  19.0462

     occupation numbers 
     1.0000   1.0000   1.0000   1.0000   1.0000   1.0000   1.0000   1.0000
     1.0000   1.0000   1.0000   1.0000   1.0000   1.0000   1.0000   1.0000
     1.0000   1.0000   1.0000   1.0000   1.0000   1.0000   1.0000   1.0000
     1.0000   1.0000   1.0000   1.0000   0.4927   0.4927   0.4013   0.4013
    -0.0000  -0.0000  -0.0000  -0.0000  -0.0000  -0.0000  -0.0000  -0.0000
    -0.0000  -0.0000  -0.0000  -0.0000  -0.0000  -0.0000  -0.0000  -0.0000

          k =-0.6736 0.1361 0.1667 (  4662 PWs)   bands (ev):

   -28.5449 -28.5449 -28.5448 -28.5448 -27.0805 -27.0805 -27.0802 -27.0802
   -27.0782 -27.0782  -9.5677  -9.5677  -9.5624  -9.5624  -7.0144  -7.0144
    -6.9962  -6.9962  -6.9817  -6.9817  -1.9545  -1.9545   0.3869   0.3869
     6.1806   6.1806   6.6840   6.6840   7.3822   7.3822  10.1634  10.1634
    11.1256  11.1256  11.7809  11.7809  14.8459  14.8459  17.3927  17.3927
    18.0256  18.0256  18.4261  18.4261  19.3697  19.3697  21.2924  21.2924

     occupation numbers 
     1.0000   1.0000   1.0000   1.0000   1.0000   1.0000   1.0000   1.0000
     1.0000   1.0000   1.0000   1.0000   1.0000   1.0000   1.0000   1.0000
     1.0000   1.0000   1.0000   1.0000   1.0000   1.0000   1.0000   1.0000
     1.0000   1.0000   1.0000   1.0000   1.0000   1.0000  -0.0000  -0.0000
    -0.0000  -0.0000  -0.0000  -0.0000  -0.0000  -0.0000  -0.0000  -0.0000
    -0.0000  -0.0000  -0.0000  -0.0000  -0.0000  -0.0000  -0.0000  -0.0000

          k =-0.7698 0.0680 0.3333 (  4674 PWs)   bands (ev):

   -28.5449 -28.5449 -28.5448 -28.5448 -27.0804 -27.0804 -27.0803 -27.0803
   -27.0781 -27.0781  -9.5686  -9.5686  -9.5626  -9.5626  -7.0264  -7.0264
    -6.9975  -6.9975  -6.9759  -6.9759  -1.8355  -1.8355   0.9590   0.9590
     4.7361   4.7361   5.7778   5.7778   6.4668   6.4668  11.8734  11.8734
    12.5848  12.5848  13.4049  13.4049  13.9538  13.9538  18.0609  18.0609
    18.6842  18.6842  19.3995  19.3995  19.5097  19.5097  20.5660  20.5661

     occupation numbers 
     1.0000   1.0000   1.0000   1.0000   1.0000   1.0000   1.0000   1.0000
     1.0000   1.0000   1.0000   1.0000   1.0000   1.0000   1.0000   1.0000
     1.0000   1.0000   1.0000   1.0000   1.0000   1.0000   1.0000   1.0000
     1.0000   1.0000   1.0000   1.0000   1.0000   1.0000  -0.0000  -0.0000
    -0.0000  -0.0000  -0.0000  -0.0000  -0.0000  -0.0000  -0.0000  -0.0000
    -0.0000  -0.0000  -0.0000  -0.0000  -0.0000  -0.0000  -0.0000  -0.0000

          k =-0.2887 0.4082-0.5000 (  4720 PWs)   bands (ev):

   -28.5450 -28.5450 -28.5448 -28.5448 -27.0804 -27.0804 -27.0804 -27.0804
   -27.0781 -27.0781  -9.5698  -9.5698  -9.5620  -9.5620  -7.0339  -7.0339
    -6.9974  -6.9974  -6.9719  -6.9719  -1.7603  -1.7603   1.3006   1.3006
     4.1545   4.1545   5.4229   5.4229   6.1298   6.1298  11.9146  11.9146
    12.8093  12.8093  14.4386  14.4386  14.9052  14.9052  18.6209  18.6209
    19.2026  19.2026  19.5455  19.5455  20.1076  20.1077  20.1650  20.1650

     occupation numbers 
     1.0000   1.0000   1.0000   1.0000   1.0000   1.0000   1.0000   1.0000
     1.0000   1.0000   1.0000   1.0000   1.0000   1.0000   1.0000   1.0000
     1.0000   1.0000   1.0000   1.0000   1.0000   1.0000   1.0000   1.0000
     1.0000   1.0000   1.0000   1.0000   1.0000   1.0000  -0.0000  -0.0000
    -0.0000  -0.0000  -0.0000  -0.0000  -0.0000  -0.0000  -0.0000  -0.0000
    -0.0000  -0.0000  -0.0000  -0.0000  -0.0000  -0.0000  -0.0000  -0.0000

          k =-0.3849 0.3402-0.3333 (  4674 PWs)   bands (ev):

   -28.5449 -28.5449 -28.5448 -28.5448 -27.0804 -27.0804 -27.0803 -27.0803
   -27.0781 -27.0781  -9.5686  -9.5686  -9.5626  -9.5626  -7.0264  -7.0264
    -6.9975  -6.9975  -6.9759  -6.9759  -1.8355  -1.8355   0.9590   0.9590
     4.7361   4.7361   5.7778   5.7778   6.4668   6.4668  11.8734  11.8734
    12.5848  12.5848  13.4049  13.4049  13.9538  13.9538  18.0609  18.0609
    18.6842  18.6842  19.3995  19.3995  19.5097  19.5097  20.5660  20.5661

     occupation numbers 
     1.0000   1.0000   1.0000   1.0000   1.0000   1.0000   1.0000   1.0000
     1.0000   1.0000   1.0000   1.0000   1.0000   1.0000   1.0000   1.0000
     1.0000   1.0000   1.0000   1.0000   1.0000   1.0000   1.0000   1.0000
     1.0000   1.0000   1.0000   1.0000   1.0000   1.0000  -0.0000  -0.0000
    -0.0000  -0.0000  -0.0000  -0.0000  -0.0000  -0.0000  -0.0000  -0.0000
    -0.0000  -0.0000  -0.0000  -0.0000  -0.0000  -0.0000  -0.0000  -0.0000

          k =-0.4811 0.2722-0.1667 (  4662 PWs)   bands (ev):

   -28.5449 -28.5449 -28.5448 -28.5448 -27.0805 -27.0805 -27.0802 -27.0802
   -27.0782 -27.0782  -9.5677  -9.5677  -9.5624  -9.5624  -7.0144  -7.0144
    -6.9962  -6.9962  -6.9817  -6.9817  -1.9545  -1.9545   0.3869   0.3869
     6.1806   6.1806   6.6840   6.6840   7.3822   7.3822  10.1634  10.1634
    11.1256  11.1256  11.7809  11.7809  14.8459  14.8459  17.3927  17.3927
    18.0256  18.0256  18.4261  18.4261  19.3697  19.3697  21.2924  21.2924

     occupation numbers 
     1.0000   1.0000   1.0000   1.0000   1.0000   1.0000   1.0000   1.0000
     1.0000   1.0000   1.0000   1.0000   1.0000   1.0000   1.0000   1.0000
     1.0000   1.0000   1.0000   1.0000   1.0000   1.0000   1.0000   1.0000
     1.0000   1.0000   1.0000   1.0000   1.0000   1.0000  -0.0000  -0.0000
    -0.0000  -0.0000  -0.0000  -0.0000  -0.0000  -0.0000  -0.0000  -0.0000
    -0.0000  -0.0000  -0.0000  -0.0000  -0.0000  -0.0000  -0.0000  -0.0000

          k =-0.5774 0.4082 0.0000 (  4662 PWs)   bands (ev):

   -28.5449 -28.5449 -28.5448 -28.5448 -27.0805 -27.0805 -27.0802 -27.0802
   -27.0782 -27.0782  -9.5677  -9.5677  -9.5624  -9.5624  -7.0144  -7.0144
    -6.9962  -6.9962  -6.9817  -6.9817  -1.9545  -1.9545   0.3869   0.3869
     6.1806   6.1806   6.6840   6.6840   7.3822   7.3822  10.1634  10.1634
    11.1256  11.1256  11.7809  11.7809  14.8459  14.8459  17.3927  17.3927
    18.0256  18.0256  18.4261  18.4261  19.3697  19.3697  21.2924  21.2925

     occupation numbers 
     1.0000   1.0000   1.0000   1.0000   1.0000   1.0000   1.0000   1.0000
     1.0000   1.0000   1.0000   1.0000   1.0000   1.0000   1.0000   1.0000
     1.0000   1.0000   1.0000   1.0000   1.0000   1.0000   1.0000   1.0000
     1.0000   1.0000   1.0000   1.0000   1.0000   1.0000  -0.0000  -0.0000
    -0.0000  -0.0000  -0.0000  -0.0000  -0.0000  -0.0000  -0.0000  -0.0000
    -0.0000  -0.0000  -0.0000  -0.0000  -0.0000  -0.0000  -0.0000  -0.0000

          k =-0.6736 0.3402 0.1667 (  4666 PWs)   bands (ev):

   -28.5450 -28.5450 -28.5448 -28.5448 -27.0805 -27.0805 -27.0802 -27.0802
   -27.0782 -27.0782  -9.5674  -9.5674  -9.5627  -9.5627  -7.0114  -7.0114
    -6.9969  -6.9969  -6.9831  -6.9831  -2.1132  -2.1132   0.5636   0.5636
     5.8511   5.8511   7.3281   7.3281   8.0198   8.0198   9.4302   9.4302
    10.4680  10.4680  12.3728  12.3728  15.3315  15.3315  16.1518  16.1518
    17.2678  17.2678  18.7232  18.7232  19.2032  19.2032  21.7590  21.7590

     occupation numbers 
     1.0000   1.0000   1.0000   1.0000   1.0000   1.0000   1.0000   1.0000
     1.0000   1.0000   1.0000   1.0000   1.0000   1.0000   1.0000   1.0000
     1.0000   1.0000   1.0000   1.0000   1.0000   1.0000   1.0000   1.0000
     1.0000   1.0000   1.0000   1.0000   1.0000   1.0000  -0.0000  -0.0000
    -0.0000  -0.0000  -0.0000  -0.0000  -0.0000  -0.0000  -0.0000  -0.0000
    -0.0000  -0.0000  -0.0000  -0.0000  -0.0000  -0.0000  -0.0000  -0.0000

          k =-0.7698 0.2722 0.3333 (  4660 PWs)   bands (ev):

   -28.5449 -28.5449 -28.5448 -28.5448 -27.0804 -27.0804 -27.0802 -27.0802
   -27.0782 -27.0782  -9.5675  -9.5675  -9.5631  -9.5631  -7.0171  -7.0171
    -6.9975  -6.9975  -6.9806  -6.9806  -2.0575  -2.0575   0.8406   0.8406
     5.5040   5.5040   5.9440   5.9440   7.5350   7.5350  10.4050  10.4050
    12.1068  12.1068  12.9233  12.9233  14.1413  14.1413  17.3008  17.3008
    17.6534  17.6534  18.0793  18.0793  19.4306  19.4306  21.6380  21.6380

     occupation numbers 
     1.0000   1.0000   1.0000   1.0000   1.0000   1.0000   1.0000   1.0000
     1.0000   1.0000   1.0000   1.0000   1.0000   1.0000   1.0000   1.0000
     1.0000   1.0000   1.0000   1.0000   1.0000   1.0000   1.0000   1.0000
     1.0000   1.0000   1.0000   1.0000   1.0000   1.0000  -0.0000  -0.0000
    -0.0000  -0.0000  -0.0000  -0.0000  -0.0000  -0.0000  -0.0000  -0.0000
    -0.0000  -0.0000  -0.0000  -0.0000  -0.0000  -0.0000  -0.0000  -0.0000

          k =-0.2887 0.6124-0.5000 (  4674 PWs)   bands (ev):

   -28.5449 -28.5449 -28.5448 -28.5448 -27.0804 -27.0804 -27.0803 -27.0803
   -27.0781 -27.0781  -9.5686  -9.5686  -9.5626  -9.5626  -7.0264  -7.0264
    -6.9975  -6.9975  -6.9759  -6.9759  -1.8355  -1.8355   0.9590   0.9590
     4.7361   4.7361   5.7778   5.7778   6.4668   6.4668  11.8734  11.8734
    12.5848  12.5848  13.4049  13.4049  13.9538  13.9538  18.0609  18.0609
    18.6842  18.6842  19.3995  19.3995  19.5097  19.5097  20.5660  20.5660

     occupation numbers 
     1.0000   1.0000   1.0000   1.0000   1.0000   1.0000   1.0000   1.0000
     1.0000   1.0000   1.0000   1.0000   1.0000   1.0000   1.0000   1.0000
     1.0000   1.0000   1.0000   1.0000   1.0000   1.0000   1.0000   1.0000
     1.0000   1.0000   1.0000   1.0000   1.0000   1.0000  -0.0000  -0.0000
    -0.0000  -0.0000  -0.0000  -0.0000  -0.0000  -0.0000  -0.0000  -0.0000
    -0.0000  -0.0000  -0.0000  -0.0000  -0.0000  -0.0000  -0.0000  -0.0000

          k =-0.3849 0.5443-0.3333 (  4670 PWs)   bands (ev):

   -28.5449 -28.5449 -28.5448 -28.5448 -27.0804 -27.0804 -27.0803 -27.0803
   -27.0781 -27.0781  -9.5684  -9.5684  -9.5628  -9.5628  -7.0267  -7.0267
    -6.9972  -6.9972  -6.9767  -6.9767  -1.6690  -1.6690   0.8311   0.8311
     4.4684   4.4684   5.2131   5.2131   7.2734   7.2734  10.9746  10.9746
    12.8832  12.8832  14.0825  14.0825  14.5050  14.5050  16.5898  16.5898
    19.1668  19.1668  20.0280  20.0280  20.1909  20.1909  20.2028  20.2028

     occupation numbers 
     1.0000   1.0000   1.0000   1.0000   1.0000   1.0000   1.0000   1.0000
     1.0000   1.0000   1.0000   1.0000   1.0000   1.0000   1.0000   1.0000
     1.0000   1.0000   1.0000   1.0000   1.0000   1.0000   1.0000   1.0000
     1.0000   1.0000   1.0000   1.0000   1.0000   1.0000  -0.0000  -0.0000
    -0.0000  -0.0000  -0.0000  -0.0000  -0.0000  -0.0000  -0.0000  -0.0000
    -0.0000  -0.0000  -0.0000  -0.0000  -0.0000  -0.0000  -0.0000  -0.0000

          k =-0.4811 0.4763-0.1667 (  4666 PWs)   bands (ev):

   -28.5449 -28.5449 -28.5448 -28.5448 -27.0804 -27.0804 -27.0802 -27.0802
   -27.0781 -27.0781  -9.5676  -9.5676  -9.5631  -9.5631  -7.0196  -7.0196
    -6.9975  -6.9975  -6.9799  -6.9799  -1.7330  -1.7330   0.5231   0.5231
     5.2484   5.2484   5.3694   5.3694   8.0492   8.0492   9.7959   9.7959
    12.8111  12.8111  13.2191  13.2191  15.0260  15.0260  15.4177  15.4177
    18.8401  18.8401  18.9856  18.9856  20.2994  20.2994  20.8523  20.8523

     occupation numbers 
     1.0000   1.0000   1.0000   1.0000   1.0000   1.0000   1.0000   1.0000
     1.0000   1.0000   1.0000   1.0000   1.0000   1.0000   1.0000   1.0000
     1.0000   1.0000   1.0000   1.0000   1.0000   1.0000   1.0000   1.0000
     1.0000   1.0000   1.0000   1.0000   1.0000   1.0000  -0.0000  -0.0000
    -0.0000  -0.0000  -0.0000  -0.0000  -0.0000  -0.0000  -0.0000  -0.0000
    -0.0000  -0.0000  -0.0000  -0.0000  -0.0000  -0.0000  -0.0000  -0.0000

          k =-0.5774 0.6124 0.0000 (  4674 PWs)   bands (ev):

   -28.5449 -28.5449 -28.5448 -28.5448 -27.0804 -27.0804 -27.0803 -27.0803
   -27.0781 -27.0781  -9.5686  -9.5686  -9.5626  -9.5626  -7.0264  -7.0264
    -6.9975  -6.9975  -6.9759  -6.9759  -1.8355  -1.8355   0.9590   0.9590
     4.7361   4.7361   5.7778   5.7778   6.4668   6.4668  11.8734  11.8734
    12.5848  12.5848  13.4049  13.4049  13.9538  13.9538  18.0609  18.0609
    18.6842  18.6842  19.3995  19.3995  19.5097  19.5097  20.5660  20.5661

     occupation numbers 
     1.0000   1.0000   1.0000   1.0000   1.0000   1.0000   1.0000   1.0000
     1.0000   1.0000   1.0000   1.0000   1.0000   1.0000   1.0000   1.0000
     1.0000   1.0000   1.0000   1.0000   1.0000   1.0000   1.0000   1.0000
     1.0000   1.0000   1.0000   1.0000   1.0000   1.0000  -0.0000  -0.0000
    -0.0000  -0.0000  -0.0000  -0.0000  -0.0000  -0.0000  -0.0000  -0.0000
    -0.0000  -0.0000  -0.0000  -0.0000  -0.0000  -0.0000  -0.0000  -0.0000

          k =-0.6736 0.5443 0.1667 (  4660 PWs)   bands (ev):

   -28.5449 -28.5449 -28.5448 -28.5448 -27.0804 -27.0804 -27.0802 -27.0802
   -27.0782 -27.0782  -9.5675  -9.5675  -9.5631  -9.5631  -7.0171  -7.0171
    -6.9975  -6.9975  -6.9806  -6.9806  -2.0575  -2.0575   0.8406   0.8406
     5.5040   5.5040   5.9440   5.9440   7.5350   7.5350  10.4050  10.4050
    12.1068  12.1068  12.9233  12.9233  14.1413  14.1413  17.3008  17.3008
    17.6534  17.6534  18.0793  18.0793  19.4306  19.4306  21.6380  21.6381

     occupation numbers 
     1.0000   1.0000   1.0000   1.0000   1.0000   1.0000   1.0000   1.0000
     1.0000   1.0000   1.0000   1.0000   1.0000   1.0000   1.0000   1.0000
     1.0000   1.0000   1.0000   1.0000   1.0000   1.0000   1.0000   1.0000
     1.0000   1.0000   1.0000   1.0000   1.0000   1.0000  -0.0000  -0.0000
    -0.0000  -0.0000  -0.0000  -0.0000  -0.0000  -0.0000  -0.0000  -0.0000
    -0.0000  -0.0000  -0.0000  -0.0000  -0.0000  -0.0000  -0.0000  -0.0000

          k =-0.7698 0.4763 0.3333 (  4666 PWs)   bands (ev):

   -28.5450 -28.5450 -28.5448 -28.5448 -27.0805 -27.0805 -27.0802 -27.0802
   -27.0782 -27.0782  -9.5674  -9.5674  -9.5627  -9.5627  -7.0114  -7.0114
    -6.9969  -6.9969  -6.9831  -6.9831  -2.1132  -2.1132   0.5636   0.5636
     5.8511   5.8511   7.3281   7.3281   8.0198   8.0198   9.4302   9.4302
    10.4680  10.4680  12.3728  12.3728  15.3315  15.3315  16.1518  16.1518
    17.2678  17.2678  18.7232  18.7232  19.2032  19.2032  21.7590  21.7591

     occupation numbers 
     1.0000   1.0000   1.0000   1.0000   1.0000   1.0000   1.0000   1.0000
     1.0000   1.0000   1.0000   1.0000   1.0000   1.0000   1.0000   1.0000
     1.0000   1.0000   1.0000   1.0000   1.0000   1.0000   1.0000   1.0000
     1.0000   1.0000   1.0000   1.0000   1.0000   1.0000  -0.0000  -0.0000
    -0.0000  -0.0000  -0.0000  -0.0000  -0.0000  -0.0000  -0.0000  -0.0000
    -0.0000  -0.0000  -0.0000  -0.0000  -0.0000  -0.0000  -0.0000  -0.0000

          k =-0.2887 0.8165-0.5000 (  4662 PWs)   bands (ev):

   -28.5449 -28.5449 -28.5448 -28.5448 -27.0805 -27.0805 -27.0802 -27.0802
   -27.0782 -27.0782  -9.5677  -9.5677  -9.5624  -9.5624  -7.0144  -7.0144
    -6.9962  -6.9962  -6.9817  -6.9817  -1.9545  -1.9545   0.3869   0.3869
     6.1806   6.1806   6.6840   6.6840   7.3822   7.3822  10.1634  10.1634
    11.1256  11.1256  11.7809  11.7809  14.8459  14.8459  17.3927  17.3927
    18.0256  18.0256  18.4261  18.4261  19.3697  19.3697  21.2924  21.2925

     occupation numbers 
     1.0000   1.0000   1.0000   1.0000   1.0000   1.0000   1.0000   1.0000
     1.0000   1.0000   1.0000   1.0000   1.0000   1.0000   1.0000   1.0000
     1.0000   1.0000   1.0000   1.0000   1.0000   1.0000   1.0000   1.0000
     1.0000   1.0000   1.0000   1.0000   1.0000   1.0000  -0.0000  -0.0000
    -0.0000  -0.0000  -0.0000  -0.0000  -0.0000  -0.0000  -0.0000  -0.0000
    -0.0000  -0.0000  -0.0000  -0.0000  -0.0000  -0.0000  -0.0000  -0.0000

          k =-0.3849 0.7485-0.3333 (  4666 PWs)   bands (ev):

   -28.5449 -28.5449 -28.5448 -28.5448 -27.0804 -27.0804 -27.0802 -27.0802
   -27.0781 -27.0781  -9.5676  -9.5676  -9.5631  -9.5631  -7.0196  -7.0196
    -6.9975  -6.9975  -6.9799  -6.9799  -1.7330  -1.7330   0.5231   0.5231
     5.2484   5.2484   5.3694   5.3694   8.0492   8.0492   9.7959   9.7959
    12.8111  12.8111  13.2191  13.2191  15.0260  15.0260  15.4177  15.4177
    18.8401  18.8401  18.9856  18.9856  20.2994  20.2994  20.8523  20.8523

     occupation numbers 
     1.0000   1.0000   1.0000   1.0000   1.0000   1.0000   1.0000   1.0000
     1.0000   1.0000   1.0000   1.0000   1.0000   1.0000   1.0000   1.0000
     1.0000   1.0000   1.0000   1.0000   1.0000   1.0000   1.0000   1.0000
     1.0000   1.0000   1.0000   1.0000   1.0000   1.0000  -0.0000  -0.0000
    -0.0000  -0.0000  -0.0000  -0.0000  -0.0000  -0.0000  -0.0000  -0.0000
    -0.0000  -0.0000  -0.0000  -0.0000  -0.0000  -0.0000  -0.0000  -0.0000

          k =-0.4811 0.6804-0.1667 (  4670 PWs)   bands (ev):

   -28.5449 -28.5449 -28.5448 -28.5448 -27.0804 -27.0804 -27.0803 -27.0803
   -27.0781 -27.0781  -9.5684  -9.5684  -9.5628  -9.5628  -7.0267  -7.0267
    -6.9972  -6.9972  -6.9767  -6.9767  -1.6690  -1.6690   0.8311   0.8311
     4.4684   4.4684   5.2131   5.2131   7.2734   7.2734  10.9746  10.9746
    12.8832  12.8832  14.0825  14.0825  14.5050  14.5050  16.5898  16.5898
    19.1668  19.1668  20.0280  20.0280  20.1909  20.1910  20.2029  20.2031

     occupation numbers 
     1.0000   1.0000   1.0000   1.0000   1.0000   1.0000   1.0000   1.0000
     1.0000   1.0000   1.0000   1.0000   1.0000   1.0000   1.0000   1.0000
     1.0000   1.0000   1.0000   1.0000   1.0000   1.0000   1.0000   1.0000
     1.0000   1.0000   1.0000   1.0000   1.0000   1.0000  -0.0000  -0.0000
    -0.0000  -0.0000  -0.0000  -0.0000  -0.0000  -0.0000  -0.0000  -0.0000
    -0.0000  -0.0000  -0.0000  -0.0000  -0.0000  -0.0000  -0.0000  -0.0000

          k =-0.5774-0.4082 0.0000 (  4720 PWs)   bands (ev):

   -28.5450 -28.5450 -28.5448 -28.5448 -27.0804 -27.0804 -27.0804 -27.0804
   -27.0781 -27.0781  -9.5698  -9.5698  -9.5620  -9.5620  -7.0339  -7.0339
    -6.9974  -6.9974  -6.9719  -6.9719  -1.7603  -1.7603   1.3006   1.3006
     4.1545   4.1545   5.4229   5.4229   6.1298   6.1298  11.9146  11.9146
    12.8093  12.8093  14.4386  14.4386  14.9052  14.9052  18.6209  18.6209
    19.2026  19.2026  19.5455  19.5456  20.1076  20.1076  20.1650  20.1650

     occupation numbers 
     1.0000   1.0000   1.0000   1.0000   1.0000   1.0000   1.0000   1.0000
     1.0000   1.0000   1.0000   1.0000   1.0000   1.0000   1.0000   1.0000
     1.0000   1.0000   1.0000   1.0000   1.0000   1.0000   1.0000   1.0000
     1.0000   1.0000   1.0000   1.0000   1.0000   1.0000  -0.0000  -0.0000
    -0.0000  -0.0000  -0.0000  -0.0000  -0.0000  -0.0000  -0.0000  -0.0000
    -0.0000  -0.0000  -0.0000  -0.0000  -0.0000  -0.0000  -0.0000  -0.0000

          k =-0.6736-0.4763 0.1667 (  4674 PWs)   bands (ev):

   -28.5449 -28.5449 -28.5448 -28.5448 -27.0804 -27.0804 -27.0803 -27.0803
   -27.0781 -27.0781  -9.5686  -9.5686  -9.5626  -9.5626  -7.0264  -7.0264
    -6.9975  -6.9975  -6.9759  -6.9759  -1.8355  -1.8355   0.9590   0.9590
     4.7361   4.7361   5.7778   5.7778   6.4668   6.4668  11.8734  11.8734
    12.5848  12.5848  13.4049  13.4049  13.9538  13.9538  18.0609  18.0609
    18.6842  18.6842  19.3995  19.3995  19.5097  19.5097  20.5660  20.5660

     occupation numbers 
     1.0000   1.0000   1.0000   1.0000   1.0000   1.0000   1.0000   1.0000
     1.0000   1.0000   1.0000   1.0000   1.0000   1.0000   1.0000   1.0000
     1.0000   1.0000   1.0000   1.0000   1.0000   1.0000   1.0000   1.0000
     1.0000   1.0000   1.0000   1.0000   1.0000   1.0000  -0.0000  -0.0000
    -0.0000  -0.0000  -0.0000  -0.0000  -0.0000  -0.0000  -0.0000  -0.0000
    -0.0000  -0.0000  -0.0000  -0.0000  -0.0000  -0.0000  -0.0000  -0.0000

          k =-0.7698-0.5443 0.3333 (  4662 PWs)   bands (ev):

   -28.5449 -28.5449 -28.5448 -28.5448 -27.0805 -27.0805 -27.0802 -27.0802
   -27.0782 -27.0782  -9.5677  -9.5677  -9.5624  -9.5624  -7.0144  -7.0144
    -6.9962  -6.9962  -6.9817  -6.9817  -1.9545  -1.9545   0.3869   0.3869
     6.1806   6.1806   6.6840   6.6840   7.3822   7.3822  10.1634  10.1634
    11.1256  11.1256  11.7809  11.7809  14.8459  14.8459  17.3927  17.3927
    18.0256  18.0256  18.4261  18.4261  19.3697  19.3697  21.2924  21.2925

     occupation numbers 
     1.0000   1.0000   1.0000   1.0000   1.0000   1.0000   1.0000   1.0000
     1.0000   1.0000   1.0000   1.0000   1.0000   1.0000   1.0000   1.0000
     1.0000   1.0000   1.0000   1.0000   1.0000   1.0000   1.0000   1.0000
     1.0000   1.0000   1.0000   1.0000   1.0000   1.0000  -0.0000  -0.0000
    -0.0000  -0.0000  -0.0000  -0.0000  -0.0000  -0.0000  -0.0000  -0.0000
    -0.0000  -0.0000  -0.0000  -0.0000  -0.0000  -0.0000  -0.0000  -0.0000

          k =-0.2887-0.2041-0.5000 (  4664 PWs)   bands (ev):

   -28.5450 -28.5450 -28.5447 -28.5447 -27.0805 -27.0805 -27.0801 -27.0801
   -27.0782 -27.0782  -9.5681  -9.5681  -9.5615  -9.5615  -7.0128  -7.0128
    -6.9923  -6.9923  -6.9830  -6.9830  -1.9993  -1.9993   0.1319   0.1319
     7.2494   7.2494   7.8656   7.8656   8.4983   8.4983   8.5131   8.5131
     9.8047   9.8047  10.2959  10.2959  16.8059  16.8059  17.4124  17.4124
    17.9248  17.9248  17.9764  17.9764  19.0308  19.0308  19.0462  19.0462

     occupation numbers 
     1.0000   1.0000   1.0000   1.0000   1.0000   1.0000   1.0000   1.0000
     1.0000   1.0000   1.0000   1.0000   1.0000   1.0000   1.0000   1.0000
     1.0000   1.0000   1.0000   1.0000   1.0000   1.0000   1.0000   1.0000
     1.0000   1.0000   1.0000   1.0000   0.4927   0.4927   0.4013   0.4013
    -0.0000  -0.0000  -0.0000  -0.0000  -0.0000  -0.0000  -0.0000  -0.0000
    -0.0000  -0.0000  -0.0000  -0.0000  -0.0000  -0.0000  -0.0000  -0.0000

          k =-0.3849-0.2722-0.3333 (  4662 PWs)   bands (ev):

   -28.5449 -28.5449 -28.5448 -28.5448 -27.0805 -27.0805 -27.0802 -27.0802
   -27.0782 -27.0782  -9.5677  -9.5677  -9.5624  -9.5624  -7.0144  -7.0144
    -6.9962  -6.9962  -6.9817  -6.9817  -1.9545  -1.9545   0.3869   0.3869
     6.1806   6.1806   6.6840   6.6840   7.3822   7.3822  10.1634  10.1634
    11.1256  11.1256  11.7809  11.7809  14.8459  14.8459  17.3927  17.3927
    18.0256  18.0256  18.4261  18.4261  19.3697  19.3697  21.2924  21.2924

     occupation numbers 
     1.0000   1.0000   1.0000   1.0000   1.0000   1.0000   1.0000   1.0000
     1.0000   1.0000   1.0000   1.0000   1.0000   1.0000   1.0000   1.0000
     1.0000   1.0000   1.0000   1.0000   1.0000   1.0000   1.0000   1.0000
     1.0000   1.0000   1.0000   1.0000   1.0000   1.0000  -0.0000  -0.0000
    -0.0000  -0.0000  -0.0000  -0.0000  -0.0000  -0.0000  -0.0000  -0.0000
    -0.0000  -0.0000  -0.0000  -0.0000  -0.0000  -0.0000  -0.0000  -0.0000

          k =-0.4811-0.3402-0.1667 (  4674 PWs)   bands (ev):

   -28.5449 -28.5449 -28.5448 -28.5448 -27.0804 -27.0804 -27.0803 -27.0803
   -27.0781 -27.0781  -9.5686  -9.5686  -9.5626  -9.5626  -7.0264  -7.0264
    -6.9975  -6.9975  -6.9759  -6.9759  -1.8355  -1.8355   0.9590   0.9590
     4.7361   4.7361   5.7778   5.7778   6.4668   6.4668  11.8734  11.8734
    12.5848  12.5848  13.4049  13.4049  13.9538  13.9538  18.0609  18.0609
    18.6842  18.6842  19.3995  19.3995  19.5097  19.5097  20.5660  20.5660

     occupation numbers 
     1.0000   1.0000   1.0000   1.0000   1.0000   1.0000   1.0000   1.0000
     1.0000   1.0000   1.0000   1.0000   1.0000   1.0000   1.0000   1.0000
     1.0000   1.0000   1.0000   1.0000   1.0000   1.0000   1.0000   1.0000
     1.0000   1.0000   1.0000   1.0000   1.0000   1.0000  -0.0000  -0.0000
    -0.0000  -0.0000  -0.0000  -0.0000  -0.0000  -0.0000  -0.0000  -0.0000
    -0.0000  -0.0000  -0.0000  -0.0000  -0.0000  -0.0000  -0.0000  -0.0000

          k =-0.5774-0.2041 0.0000 (  4674 PWs)   bands (ev):

   -28.5449 -28.5449 -28.5448 -28.5448 -27.0804 -27.0804 -27.0803 -27.0803
   -27.0781 -27.0781  -9.5686  -9.5686  -9.5626  -9.5626  -7.0264  -7.0264
    -6.9975  -6.9975  -6.9759  -6.9759  -1.8355  -1.8355   0.9590   0.9590
     4.7361   4.7361   5.7778   5.7778   6.4668   6.4668  11.8734  11.8734
    12.5848  12.5848  13.4049  13.4049  13.9538  13.9538  18.0609  18.0609
    18.6842  18.6842  19.3995  19.3995  19.5097  19.5097  20.5660  20.5661

     occupation numbers 
     1.0000   1.0000   1.0000   1.0000   1.0000   1.0000   1.0000   1.0000
     1.0000   1.0000   1.0000   1.0000   1.0000   1.0000   1.0000   1.0000
     1.0000   1.0000   1.0000   1.0000   1.0000   1.0000   1.0000   1.0000
     1.0000   1.0000   1.0000   1.0000   1.0000   1.0000  -0.0000  -0.0000
    -0.0000  -0.0000  -0.0000  -0.0000  -0.0000  -0.0000  -0.0000  -0.0000
    -0.0000  -0.0000  -0.0000  -0.0000  -0.0000  -0.0000  -0.0000  -0.0000

          k =-0.6736-0.2722 0.1667 (  4670 PWs)   bands (ev):

   -28.5449 -28.5449 -28.5448 -28.5448 -27.0804 -27.0804 -27.0803 -27.0803
   -27.0781 -27.0781  -9.5684  -9.5684  -9.5628  -9.5628  -7.0267  -7.0267
    -6.9972  -6.9972  -6.9767  -6.9767  -1.6690  -1.6690   0.8311   0.8311
     4.4684   4.4684   5.2131   5.2131   7.2734   7.2734  10.9746  10.9746
    12.8832  12.8832  14.0825  14.0825  14.5050  14.5050  16.5898  16.5898
    19.1668  19.1668  20.0280  20.0280  20.1909  20.1910  20.2028  20.2030

     occupation numbers 
     1.0000   1.0000   1.0000   1.0000   1.0000   1.0000   1.0000   1.0000
     1.0000   1.0000   1.0000   1.0000   1.0000   1.0000   1.0000   1.0000
     1.0000   1.0000   1.0000   1.0000   1.0000   1.0000   1.0000   1.0000
     1.0000   1.0000   1.0000   1.0000   1.0000   1.0000  -0.0000  -0.0000
    -0.0000  -0.0000  -0.0000  -0.0000  -0.0000  -0.0000  -0.0000  -0.0000
    -0.0000  -0.0000  -0.0000  -0.0000  -0.0000  -0.0000  -0.0000  -0.0000

          k =-0.7698-0.3402 0.3333 (  4666 PWs)   bands (ev):

   -28.5449 -28.5449 -28.5448 -28.5448 -27.0804 -27.0804 -27.0802 -27.0802
   -27.0781 -27.0781  -9.5676  -9.5676  -9.5631  -9.5631  -7.0196  -7.0196
    -6.9975  -6.9975  -6.9799  -6.9799  -1.7330  -1.7330   0.5231   0.5231
     5.2484   5.2484   5.3694   5.3694   8.0492   8.0492   9.7959   9.7959
    12.8111  12.8111  13.2191  13.2191  15.0260  15.0260  15.4177  15.4177
    18.8401  18.8401  18.9856  18.9856  20.2994  20.2994  20.8523  20.8523

     occupation numbers 
     1.0000   1.0000   1.0000   1.0000   1.0000   1.0000   1.0000   1.0000
     1.0000   1.0000   1.0000   1.0000   1.0000   1.0000   1.0000   1.0000
     1.0000   1.0000   1.0000   1.0000   1.0000   1.0000   1.0000   1.0000
     1.0000   1.0000   1.0000   1.0000   1.0000   1.0000  -0.0000  -0.0000
    -0.0000  -0.0000  -0.0000  -0.0000  -0.0000  -0.0000  -0.0000  -0.0000
    -0.0000  -0.0000  -0.0000  -0.0000  -0.0000  -0.0000  -0.0000  -0.0000

          k =-0.2887-0.0000-0.5000 (  4662 PWs)   bands (ev):

   -28.5449 -28.5449 -28.5448 -28.5448 -27.0805 -27.0805 -27.0802 -27.0802
   -27.0782 -27.0782  -9.5677  -9.5677  -9.5624  -9.5624  -7.0144  -7.0144
    -6.9962  -6.9962  -6.9817  -6.9817  -1.9545  -1.9545   0.3869   0.3869
     6.1806   6.1806   6.6840   6.6840   7.3822   7.3822  10.1634  10.1634
    11.1256  11.1256  11.7809  11.7809  14.8459  14.8459  17.3927  17.3927
    18.0256  18.0256  18.4261  18.4261  19.3697  19.3697  21.2924  21.2924

     occupation numbers 
     1.0000   1.0000   1.0000   1.0000   1.0000   1.0000   1.0000   1.0000
     1.0000   1.0000   1.0000   1.0000   1.0000   1.0000   1.0000   1.0000
     1.0000   1.0000   1.0000   1.0000   1.0000   1.0000   1.0000   1.0000
     1.0000   1.0000   1.0000   1.0000   1.0000   1.0000  -0.0000  -0.0000
    -0.0000  -0.0000  -0.0000  -0.0000  -0.0000  -0.0000  -0.0000  -0.0000
    -0.0000  -0.0000  -0.0000  -0.0000  -0.0000  -0.0000  -0.0000  -0.0000

          k =-0.3849-0.0680-0.3333 (  4666 PWs)   bands (ev):

   -28.5450 -28.5450 -28.5448 -28.5448 -27.0805 -27.0805 -27.0802 -27.0802
   -27.0782 -27.0782  -9.5674  -9.5674  -9.5627  -9.5627  -7.0114  -7.0114
    -6.9969  -6.9969  -6.9831  -6.9831  -2.1132  -2.1132   0.5636   0.5636
     5.8511   5.8511   7.3281   7.3281   8.0198   8.0198   9.4302   9.4302
    10.4680  10.4680  12.3728  12.3728  15.3315  15.3315  16.1518  16.1518
    17.2678  17.2678  18.7232  18.7232  19.2032  19.2032  21.7590  21.7590

     occupation numbers 
     1.0000   1.0000   1.0000   1.0000   1.0000   1.0000   1.0000   1.0000
     1.0000   1.0000   1.0000   1.0000   1.0000   1.0000   1.0000   1.0000
     1.0000   1.0000   1.0000   1.0000   1.0000   1.0000   1.0000   1.0000
     1.0000   1.0000   1.0000   1.0000   1.0000   1.0000  -0.0000  -0.0000
    -0.0000  -0.0000  -0.0000  -0.0000  -0.0000  -0.0000  -0.0000  -0.0000
    -0.0000  -0.0000  -0.0000  -0.0000  -0.0000  -0.0000  -0.0000  -0.0000

          k =-0.4811-0.1361-0.1667 (  4660 PWs)   bands (ev):

   -28.5449 -28.5449 -28.5448 -28.5448 -27.0804 -27.0804 -27.0802 -27.0802
   -27.0782 -27.0782  -9.5675  -9.5675  -9.5631  -9.5631  -7.0171  -7.0171
    -6.9975  -6.9975  -6.9806  -6.9806  -2.0575  -2.0575   0.8406   0.8406
     5.5040   5.5040   5.9440   5.9440   7.5350   7.5350  10.4050  10.4050
    12.1068  12.1068  12.9233  12.9233  14.1413  14.1413  17.3008  17.3008
    17.6534  17.6534  18.0793  18.0793  19.4306  19.4306  21.6380  21.6380

     occupation numbers 
     1.0000   1.0000   1.0000   1.0000   1.0000   1.0000   1.0000   1.0000
     1.0000   1.0000   1.0000   1.0000   1.0000   1.0000   1.0000   1.0000
     1.0000   1.0000   1.0000   1.0000   1.0000   1.0000   1.0000   1.0000
     1.0000   1.0000   1.0000   1.0000   1.0000   1.0000  -0.0000  -0.0000
    -0.0000  -0.0000  -0.0000  -0.0000  -0.0000  -0.0000  -0.0000  -0.0000
    -0.0000  -0.0000  -0.0000  -0.0000  -0.0000  -0.0000  -0.0000  -0.0000

          k =-0.5774-0.0000 0.0000 (  4662 PWs)   bands (ev):

   -28.5449 -28.5449 -28.5448 -28.5448 -27.0805 -27.0805 -27.0802 -27.0802
   -27.0782 -27.0782  -9.5677  -9.5677  -9.5624  -9.5624  -7.0144  -7.0144
    -6.9962  -6.9962  -6.9817  -6.9817  -1.9545  -1.9545   0.3869   0.3869
     6.1806   6.1806   6.6840   6.6840   7.3822   7.3822  10.1634  10.1634
    11.1256  11.1256  11.7809  11.7809  14.8459  14.8459  17.3927  17.3927
    18.0256  18.0256  18.4261  18.4261  19.3697  19.3697  21.2924  21.2924

     occupation numbers 
     1.0000   1.0000   1.0000   1.0000   1.0000   1.0000   1.0000   1.0000
     1.0000   1.0000   1.0000   1.0000   1.0000   1.0000   1.0000   1.0000
     1.0000   1.0000   1.0000   1.0000   1.0000   1.0000   1.0000   1.0000
     1.0000   1.0000   1.0000   1.0000   1.0000   1.0000  -0.0000  -0.0000
    -0.0000  -0.0000  -0.0000  -0.0000  -0.0000  -0.0000  -0.0000  -0.0000
    -0.0000  -0.0000  -0.0000  -0.0000  -0.0000  -0.0000  -0.0000  -0.0000

          k =-0.6736-0.0680 0.1667 (  4666 PWs)   bands (ev):

   -28.5449 -28.5449 -28.5448 -28.5448 -27.0804 -27.0804 -27.0802 -27.0802
   -27.0781 -27.0781  -9.5676  -9.5676  -9.5631  -9.5631  -7.0196  -7.0196
    -6.9975  -6.9975  -6.9799  -6.9799  -1.7330  -1.7330   0.5231   0.5231
     5.2484   5.2484   5.3694   5.3694   8.0492   8.0492   9.7959   9.7959
    12.8111  12.8111  13.2191  13.2191  15.0260  15.0260  15.4177  15.4177
    18.8401  18.8401  18.9856  18.9856  20.2994  20.2994  20.8523  20.8524

     occupation numbers 
     1.0000   1.0000   1.0000   1.0000   1.0000   1.0000   1.0000   1.0000
     1.0000   1.0000   1.0000   1.0000   1.0000   1.0000   1.0000   1.0000
     1.0000   1.0000   1.0000   1.0000   1.0000   1.0000   1.0000   1.0000
     1.0000   1.0000   1.0000   1.0000   1.0000   1.0000  -0.0000  -0.0000
    -0.0000  -0.0000  -0.0000  -0.0000  -0.0000  -0.0000  -0.0000  -0.0000
    -0.0000  -0.0000  -0.0000  -0.0000  -0.0000  -0.0000  -0.0000  -0.0000

          k =-0.7698-0.1361 0.3333 (  4670 PWs)   bands (ev):

   -28.5449 -28.5449 -28.5448 -28.5448 -27.0804 -27.0804 -27.0803 -27.0803
   -27.0781 -27.0781  -9.5684  -9.5684  -9.5628  -9.5628  -7.0267  -7.0267
    -6.9972  -6.9972  -6.9767  -6.9767  -1.6690  -1.6690   0.8311   0.8311
     4.4684   4.4684   5.2131   5.2131   7.2734   7.2734  10.9746  10.9746
    12.8832  12.8832  14.0825  14.0825  14.5050  14.5050  16.5898  16.5898
    19.1668  19.1668  20.0280  20.0280  20.1909  20.1909  20.2028  20.2029

     occupation numbers 
     1.0000   1.0000   1.0000   1.0000   1.0000   1.0000   1.0000   1.0000
     1.0000   1.0000   1.0000   1.0000   1.0000   1.0000   1.0000   1.0000
     1.0000   1.0000   1.0000   1.0000   1.0000   1.0000   1.0000   1.0000
     1.0000   1.0000   1.0000   1.0000   1.0000   1.0000  -0.0000  -0.0000
    -0.0000  -0.0000  -0.0000  -0.0000  -0.0000  -0.0000  -0.0000  -0.0000
    -0.0000  -0.0000  -0.0000  -0.0000  -0.0000  -0.0000  -0.0000  -0.0000

          k =-0.2887 0.2041-0.5000 (  4674 PWs)   bands (ev):

   -28.5449 -28.5449 -28.5448 -28.5448 -27.0804 -27.0804 -27.0803 -27.0803
   -27.0781 -27.0781  -9.5686  -9.5686  -9.5626  -9.5626  -7.0264  -7.0264
    -6.9975  -6.9975  -6.9759  -6.9759  -1.8355  -1.8355   0.9590   0.9590
     4.7361   4.7361   5.7778   5.7778   6.4668   6.4668  11.8734  11.8734
    12.5848  12.5848  13.4049  13.4049  13.9538  13.9538  18.0609  18.0609
    18.6842  18.6842  19.3995  19.3995  19.5097  19.5097  20.5660  20.5661

     occupation numbers 
     1.0000   1.0000   1.0000   1.0000   1.0000   1.0000   1.0000   1.0000
     1.0000   1.0000   1.0000   1.0000   1.0000   1.0000   1.0000   1.0000
     1.0000   1.0000   1.0000   1.0000   1.0000   1.0000   1.0000   1.0000
     1.0000   1.0000   1.0000   1.0000   1.0000   1.0000  -0.0000  -0.0000
    -0.0000  -0.0000  -0.0000  -0.0000  -0.0000  -0.0000  -0.0000  -0.0000
    -0.0000  -0.0000  -0.0000  -0.0000  -0.0000  -0.0000  -0.0000  -0.0000

          k =-0.3849 0.1361-0.3333 (  4660 PWs)   bands (ev):

   -28.5449 -28.5449 -28.5448 -28.5448 -27.0804 -27.0804 -27.0802 -27.0802
   -27.0782 -27.0782  -9.5675  -9.5675  -9.5631  -9.5631  -7.0171  -7.0171
    -6.9975  -6.9975  -6.9806  -6.9806  -2.0575  -2.0575   0.8406   0.8406
     5.5040   5.5040   5.9440   5.9440   7.5350   7.5350  10.4050  10.4050
    12.1068  12.1068  12.9233  12.9233  14.1413  14.1413  17.3008  17.3008
    17.6534  17.6534  18.0793  18.0793  19.4306  19.4306  21.6380  21.6381

     occupation numbers 
     1.0000   1.0000   1.0000   1.0000   1.0000   1.0000   1.0000   1.0000
     1.0000   1.0000   1.0000   1.0000   1.0000   1.0000   1.0000   1.0000
     1.0000   1.0000   1.0000   1.0000   1.0000   1.0000   1.0000   1.0000
     1.0000   1.0000   1.0000   1.0000   1.0000   1.0000  -0.0000  -0.0000
    -0.0000  -0.0000  -0.0000  -0.0000  -0.0000  -0.0000  -0.0000  -0.0000
    -0.0000  -0.0000  -0.0000  -0.0000  -0.0000  -0.0000  -0.0000  -0.0000

          k =-0.4811 0.0680-0.1667 (  4666 PWs)   bands (ev):

   -28.5450 -28.5450 -28.5448 -28.5448 -27.0805 -27.0805 -27.0802 -27.0802
   -27.0782 -27.0782  -9.5674  -9.5674  -9.5627  -9.5627  -7.0114  -7.0114
    -6.9969  -6.9969  -6.9831  -6.9831  -2.1132  -2.1132   0.5636   0.5636
     5.8511   5.8511   7.3281   7.3281   8.0198   8.0198   9.4302   9.4302
    10.4680  10.4680  12.3728  12.3728  15.3315  15.3315  16.1518  16.1518
    17.2678  17.2678  18.7232  18.7232  19.2032  19.2032  21.7590  21.7590

     occupation numbers 
     1.0000   1.0000   1.0000   1.0000   1.0000   1.0000   1.0000   1.0000
     1.0000   1.0000   1.0000   1.0000   1.0000   1.0000   1.0000   1.0000
     1.0000   1.0000   1.0000   1.0000   1.0000   1.0000   1.0000   1.0000
     1.0000   1.0000   1.0000   1.0000   1.0000   1.0000  -0.0000  -0.0000
    -0.0000  -0.0000  -0.0000  -0.0000  -0.0000  -0.0000  -0.0000  -0.0000
    -0.0000  -0.0000  -0.0000  -0.0000  -0.0000  -0.0000  -0.0000  -0.0000

          k =-0.3849 0.1361 0.0000 (  4693 PWs)   bands (ev):

   -28.5450 -28.5450 -28.5449 -28.5449 -27.0806 -27.0806 -27.0802 -27.0802
   -27.0783 -27.0783  -9.5675  -9.5675  -9.5626  -9.5626  -7.0092  -7.0092
    -6.9938  -6.9938  -6.9857  -6.9857  -2.4783  -2.4783   0.8933   0.8933
     6.9806   6.9806   7.7399   7.7399   8.1835   8.1835   9.1586   9.1586
    10.4411  10.4411  10.8392  10.8392  15.1163  15.1163  16.2134  16.2134
    16.2336  16.2336  19.0776  19.0776  20.3818  20.3818  20.6274  20.6275

     occupation numbers 
     1.0000   1.0000   1.0000   1.0000   1.0000   1.0000   1.0000   1.0000
     1.0000   1.0000   1.0000   1.0000   1.0000   1.0000   1.0000   1.0000
     1.0000   1.0000   1.0000   1.0000   1.0000   1.0000   1.0000   1.0000
     1.0000   1.0000   1.0000   1.0000   1.0026   1.0026  -0.0000  -0.0000
    -0.0000  -0.0000  -0.0000  -0.0000  -0.0000  -0.0000  -0.0000  -0.0000
    -0.0000  -0.0000  -0.0000  -0.0000  -0.0000  -0.0000  -0.0000  -0.0000

          k =-0.4811 0.0680 0.1667 (  4666 PWs)   bands (ev):

   -28.5450 -28.5450 -28.5448 -28.5448 -27.0805 -27.0805 -27.0802 -27.0802
   -27.0782 -27.0782  -9.5674  -9.5674  -9.5627  -9.5627  -7.0114  -7.0114
    -6.9969  -6.9969  -6.9831  -6.9831  -2.1132  -2.1132   0.5636   0.5636
     5.8511   5.8511   7.3281   7.3281   8.0198   8.0198   9.4302   9.4302
    10.4680  10.4680  12.3728  12.3728  15.3315  15.3315  16.1518  16.1518
    17.2678  17.2678  18.7232  18.7232  19.2032  19.2032  21.7590  21.7591

     occupation numbers 
     1.0000   1.0000   1.0000   1.0000   1.0000   1.0000   1.0000   1.0000
     1.0000   1.0000   1.0000   1.0000   1.0000   1.0000   1.0000   1.0000
     1.0000   1.0000   1.0000   1.0000   1.0000   1.0000   1.0000   1.0000
     1.0000   1.0000   1.0000   1.0000   1.0000   1.0000  -0.0000  -0.0000
    -0.0000  -0.0000  -0.0000  -0.0000  -0.0000  -0.0000  -0.0000  -0.0000
    -0.0000  -0.0000  -0.0000  -0.0000  -0.0000  -0.0000  -0.0000  -0.0000

          k =-0.5774-0.0000 0.3333 (  4674 PWs)   bands (ev):

   -28.5449 -28.5449 -28.5448 -28.5448 -27.0804 -27.0804 -27.0802 -27.0802
   -27.0781 -27.0781  -9.5676  -9.5676  -9.5631  -9.5631  -7.0192  -7.0192
    -6.9983  -6.9983  -6.9795  -6.9795  -1.7335  -1.7335   0.5276   0.5276
     4.7796   4.7796   6.3910   6.3910   7.0672   7.0672  10.7484  10.7484
    11.8141  11.8141  13.7518  13.7518  14.6614  14.6614  16.5906  16.5906
    16.9746  16.9746  18.8506  18.8506  21.6178  21.6178  21.8445  21.8446

     occupation numbers 
     1.0000   1.0000   1.0000   1.0000   1.0000   1.0000   1.0000   1.0000
     1.0000   1.0000   1.0000   1.0000   1.0000   1.0000   1.0000   1.0000
     1.0000   1.0000   1.0000   1.0000   1.0000   1.0000   1.0000   1.0000
     1.0000   1.0000   1.0000   1.0000   1.0000   1.0000  -0.0000  -0.0000
    -0.0000  -0.0000  -0.0000  -0.0000  -0.0000  -0.0000  -0.0000  -0.0000
    -0.0000  -0.0000  -0.0000  -0.0000  -0.0000  -0.0000  -0.0000  -0.0000

          k =-0.0962 0.3402-0.5000 (  4674 PWs)   bands (ev):

   -28.5449 -28.5449 -28.5448 -28.5448 -27.0804 -27.0804 -27.0803 -27.0803
   -27.0781 -27.0781  -9.5686  -9.5686  -9.5626  -9.5626  -7.0264  -7.0264
    -6.9975  -6.9975  -6.9759  -6.9759  -1.8355  -1.8355   0.9590   0.9590
     4.7361   4.7361   5.7778   5.7778   6.4668   6.4668  11.8734  11.8734
    12.5848  12.5848  13.4049  13.4049  13.9538  13.9538  18.0609  18.0609
    18.6842  18.6842  19.3995  19.3995  19.5097  19.5097  20.5660  20.5660

     occupation numbers 
     1.0000   1.0000   1.0000   1.0000   1.0000   1.0000   1.0000   1.0000
     1.0000   1.0000   1.0000   1.0000   1.0000   1.0000   1.0000   1.0000
     1.0000   1.0000   1.0000   1.0000   1.0000   1.0000   1.0000   1.0000
     1.0000   1.0000   1.0000   1.0000   1.0000   1.0000  -0.0000  -0.0000
    -0.0000  -0.0000  -0.0000  -0.0000  -0.0000  -0.0000  -0.0000  -0.0000
    -0.0000  -0.0000  -0.0000  -0.0000  -0.0000  -0.0000  -0.0000  -0.0000

          k =-0.1925 0.2722-0.3333 (  4672 PWs)   bands (ev):

   -28.5450 -28.5450 -28.5448 -28.5448 -27.0804 -27.0804 -27.0804 -27.0804
   -27.0782 -27.0782  -9.5682  -9.5682  -9.5630  -9.5630  -7.0220  -7.0220
    -6.9974  -6.9974  -6.9780  -6.9780  -2.2523  -2.2523   1.3942   1.3942
     5.6567   5.6567   5.7113   5.7113   6.4268   6.4268  12.0770  12.0770
    12.2531  12.2531  12.9491  12.9491  13.8677  13.8677  17.4754  17.4754
    17.6735  17.6735  18.3090  18.3090  18.6031  18.6031  21.1174  21.1176

     occupation numbers 
     1.0000   1.0000   1.0000   1.0000   1.0000   1.0000   1.0000   1.0000
     1.0000   1.0000   1.0000   1.0000   1.0000   1.0000   1.0000   1.0000
     1.0000   1.0000   1.0000   1.0000   1.0000   1.0000   1.0000   1.0000
     1.0000   1.0000   1.0000   1.0000   1.0000   1.0000  -0.0000  -0.0000
    -0.0000  -0.0000  -0.0000  -0.0000  -0.0000  -0.0000  -0.0000  -0.0000
    -0.0000  -0.0000  -0.0000  -0.0000  -0.0000  -0.0000  -0.0000  -0.0000

          k =-0.2887 0.2041-0.1667 (  4670 PWs)   bands (ev):

   -28.5450 -28.5450 -28.5449 -28.5449 -27.0805 -27.0805 -27.0803 -27.0803
   -27.0783 -27.0783  -9.5671  -9.5671  -9.5635  -9.5635  -7.0108  -7.0108
    -6.9969  -6.9969  -6.9841  -6.9841  -2.5313  -2.5313   1.2955   1.2955
     6.2532   6.2532   6.9412   6.9412   7.2891   7.2891  10.3971  10.3971
    11.5619  11.5619  12.3839  12.3839  13.4657  13.4657  16.6857  16.6857
    17.0199  17.0199  17.9921  17.9921  18.5186  18.5186  20.3681  20.3681

     occupation numbers 
     1.0000   1.0000   1.0000   1.0000   1.0000   1.0000   1.0000   1.0000
     1.0000   1.0000   1.0000   1.0000   1.0000   1.0000   1.0000   1.0000
     1.0000   1.0000   1.0000   1.0000   1.0000   1.0000   1.0000   1.0000
     1.0000   1.0000   1.0000   1.0000   1.0000   1.0000  -0.0000  -0.0000
    -0.0000  -0.0000  -0.0000  -0.0000  -0.0000  -0.0000  -0.0000  -0.0000
    -0.0000  -0.0000  -0.0000  -0.0000  -0.0000  -0.0000  -0.0000  -0.0000

          k =-0.3849 0.3402 0.0000 (  4666 PWs)   bands (ev):

   -28.5450 -28.5450 -28.5448 -28.5448 -27.0805 -27.0805 -27.0802 -27.0802
   -27.0782 -27.0782  -9.5674  -9.5674  -9.5627  -9.5627  -7.0114  -7.0114
    -6.9969  -6.9969  -6.9831  -6.9831  -2.1132  -2.1132   0.5636   0.5636
     5.8511   5.8511   7.3281   7.3281   8.0198   8.0198   9.4302   9.4302
    10.4680  10.4680  12.3728  12.3728  15.3315  15.3315  16.1518  16.1518
    17.2678  17.2678  18.7232  18.7232  19.2032  19.2032  21.7590  21.7590

     occupation numbers 
     1.0000   1.0000   1.0000   1.0000   1.0000   1.0000   1.0000   1.0000
     1.0000   1.0000   1.0000   1.0000   1.0000   1.0000   1.0000   1.0000
     1.0000   1.0000   1.0000   1.0000   1.0000   1.0000   1.0000   1.0000
     1.0000   1.0000   1.0000   1.0000   1.0000   1.0000  -0.0000  -0.0000
    -0.0000  -0.0000  -0.0000  -0.0000  -0.0000  -0.0000  -0.0000  -0.0000
    -0.0000  -0.0000  -0.0000  -0.0000  -0.0000  -0.0000  -0.0000  -0.0000

          k =-0.4811 0.2722 0.1667 (  4662 PWs)   bands (ev):

   -28.5449 -28.5449 -28.5448 -28.5448 -27.0805 -27.0805 -27.0802 -27.0802
   -27.0782 -27.0782  -9.5677  -9.5677  -9.5624  -9.5624  -7.0144  -7.0144
    -6.9962  -6.9962  -6.9817  -6.9817  -1.9545  -1.9545   0.3869   0.3869
     6.1806   6.1806   6.6840   6.6840   7.3822   7.3822  10.1634  10.1634
    11.1256  11.1256  11.7809  11.7809  14.8459  14.8459  17.3927  17.3927
    18.0256  18.0256  18.4261  18.4261  19.3697  19.3697  21.2925  21.2925

     occupation numbers 
     1.0000   1.0000   1.0000   1.0000   1.0000   1.0000   1.0000   1.0000
     1.0000   1.0000   1.0000   1.0000   1.0000   1.0000   1.0000   1.0000
     1.0000   1.0000   1.0000   1.0000   1.0000   1.0000   1.0000   1.0000
     1.0000   1.0000   1.0000   1.0000   1.0000   1.0000  -0.0000  -0.0000
    -0.0000  -0.0000  -0.0000  -0.0000  -0.0000  -0.0000  -0.0000  -0.0000
    -0.0000  -0.0000  -0.0000  -0.0000  -0.0000  -0.0000  -0.0000  -0.0000

          k =-0.5774 0.2041 0.3333 (  4666 PWs)   bands (ev):

   -28.5449 -28.5449 -28.5448 -28.5448 -27.0804 -27.0804 -27.0802 -27.0802
   -27.0781 -27.0781  -9.5676  -9.5676  -9.5631  -9.5631  -7.0196  -7.0196
    -6.9975  -6.9975  -6.9799  -6.9799  -1.7330  -1.7330   0.5231   0.5231
     5.2484   5.2484   5.3694   5.3694   8.0492   8.0492   9.7959   9.7959
    12.8111  12.8111  13.2191  13.2191  15.0260  15.0260  15.4177  15.4177
    18.8401  18.8401  18.9856  18.9856  20.2994  20.2994  20.8523  20.8523

     occupation numbers 
     1.0000   1.0000   1.0000   1.0000   1.0000   1.0000   1.0000   1.0000
     1.0000   1.0000   1.0000   1.0000   1.0000   1.0000   1.0000   1.0000
     1.0000   1.0000   1.0000   1.0000   1.0000   1.0000   1.0000   1.0000
     1.0000   1.0000   1.0000   1.0000   1.0000   1.0000  -0.0000  -0.0000
    -0.0000  -0.0000  -0.0000  -0.0000  -0.0000  -0.0000  -0.0000  -0.0000
    -0.0000  -0.0000  -0.0000  -0.0000  -0.0000  -0.0000  -0.0000  -0.0000

          k =-0.0962 0.5443-0.5000 (  4670 PWs)   bands (ev):

   -28.5449 -28.5449 -28.5448 -28.5448 -27.0804 -27.0804 -27.0803 -27.0803
   -27.0781 -27.0781  -9.5684  -9.5684  -9.5628  -9.5628  -7.0267  -7.0267
    -6.9972  -6.9972  -6.9767  -6.9767  -1.6690  -1.6690   0.8311   0.8311
     4.4684   4.4684   5.2131   5.2131   7.2734   7.2734  10.9746  10.9746
    12.8832  12.8832  14.0825  14.0825  14.5050  14.5050  16.5898  16.5898
    19.1668  19.1668  20.0280  20.0280  20.1909  20.1909  20.2028  20.2029

     occupation numbers 
     1.0000   1.0000   1.0000   1.0000   1.0000   1.0000   1.0000   1.0000
     1.0000   1.0000   1.0000   1.0000   1.0000   1.0000   1.0000   1.0000
     1.0000   1.0000   1.0000   1.0000   1.0000   1.0000   1.0000   1.0000
     1.0000   1.0000   1.0000   1.0000   1.0000   1.0000  -0.0000  -0.0000
    -0.0000  -0.0000  -0.0000  -0.0000  -0.0000  -0.0000  -0.0000  -0.0000
    -0.0000  -0.0000  -0.0000  -0.0000  -0.0000  -0.0000  -0.0000  -0.0000

          k =-0.1925 0.4763-0.3333 (  4674 PWs)   bands (ev):

   -28.5449 -28.5449 -28.5448 -28.5448 -27.0804 -27.0804 -27.0803 -27.0803
   -27.0781 -27.0781  -9.5686  -9.5686  -9.5626  -9.5626  -7.0264  -7.0264
    -6.9975  -6.9975  -6.9759  -6.9759  -1.8355  -1.8355   0.9590   0.9590
     4.7361   4.7361   5.7778   5.7778   6.4668   6.4668  11.8734  11.8734
    12.5848  12.5848  13.4049  13.4049  13.9538  13.9538  18.0609  18.0609
    18.6842  18.6842  19.3995  19.3995  19.5097  19.5097  20.5660  20.5660

     occupation numbers 
     1.0000   1.0000   1.0000   1.0000   1.0000   1.0000   1.0000   1.0000
     1.0000   1.0000   1.0000   1.0000   1.0000   1.0000   1.0000   1.0000
     1.0000   1.0000   1.0000   1.0000   1.0000   1.0000   1.0000   1.0000
     1.0000   1.0000   1.0000   1.0000   1.0000   1.0000  -0.0000  -0.0000
    -0.0000  -0.0000  -0.0000  -0.0000  -0.0000  -0.0000  -0.0000  -0.0000
    -0.0000  -0.0000  -0.0000  -0.0000  -0.0000  -0.0000  -0.0000  -0.0000

          k =-0.2887 0.4082-0.1667 (  4660 PWs)   bands (ev):

   -28.5449 -28.5449 -28.5448 -28.5448 -27.0804 -27.0804 -27.0802 -27.0802
   -27.0782 -27.0782  -9.5675  -9.5675  -9.5631  -9.5631  -7.0171  -7.0171
    -6.9975  -6.9975  -6.9806  -6.9806  -2.0575  -2.0575   0.8406   0.8406
     5.5040   5.5040   5.9440   5.9440   7.5350   7.5350  10.4050  10.4050
    12.1068  12.1068  12.9233  12.9233  14.1413  14.1413  17.3008  17.3008
    17.6534  17.6534  18.0793  18.0793  19.4306  19.4306  21.6380  21.6380

     occupation numbers 
     1.0000   1.0000   1.0000   1.0000   1.0000   1.0000   1.0000   1.0000
     1.0000   1.0000   1.0000   1.0000   1.0000   1.0000   1.0000   1.0000
     1.0000   1.0000   1.0000   1.0000   1.0000   1.0000   1.0000   1.0000
     1.0000   1.0000   1.0000   1.0000   1.0000   1.0000  -0.0000  -0.0000
    -0.0000  -0.0000  -0.0000  -0.0000  -0.0000  -0.0000  -0.0000  -0.0000
    -0.0000  -0.0000  -0.0000  -0.0000  -0.0000  -0.0000  -0.0000  -0.0000

          k =-0.3849 0.5443 0.0000 (  4674 PWs)   bands (ev):

   -28.5449 -28.5449 -28.5448 -28.5448 -27.0804 -27.0804 -27.0802 -27.0802
   -27.0781 -27.0781  -9.5676  -9.5676  -9.5631  -9.5631  -7.0192  -7.0192
    -6.9983  -6.9983  -6.9795  -6.9795  -1.7335  -1.7335   0.5276   0.5276
     4.7796   4.7796   6.3910   6.3910   7.0672   7.0672  10.7484  10.7484
    11.8141  11.8141  13.7518  13.7518  14.6614  14.6614  16.5906  16.5906
    16.9746  16.9746  18.8506  18.8506  21.6178  21.6180  21.8446  21.8446

     occupation numbers 
     1.0000   1.0000   1.0000   1.0000   1.0000   1.0000   1.0000   1.0000
     1.0000   1.0000   1.0000   1.0000   1.0000   1.0000   1.0000   1.0000
     1.0000   1.0000   1.0000   1.0000   1.0000   1.0000   1.0000   1.0000
     1.0000   1.0000   1.0000   1.0000   1.0000   1.0000  -0.0000  -0.0000
    -0.0000  -0.0000  -0.0000  -0.0000  -0.0000  -0.0000  -0.0000  -0.0000
    -0.0000  -0.0000  -0.0000  -0.0000  -0.0000  -0.0000  -0.0000  -0.0000

          k =-0.4811 0.4763 0.1667 (  4666 PWs)   bands (ev):

   -28.5449 -28.5449 -28.5448 -28.5448 -27.0804 -27.0804 -27.0802 -27.0802
   -27.0781 -27.0781  -9.5676  -9.5676  -9.5631  -9.5631  -7.0196  -7.0196
    -6.9975  -6.9975  -6.9799  -6.9799  -1.7330  -1.7330   0.5231   0.5231
     5.2484   5.2484   5.3694   5.3694   8.0492   8.0492   9.7959   9.7959
    12.8111  12.8111  13.2191  13.2191  15.0260  15.0260  15.4177  15.4177
    18.8401  18.8401  18.9856  18.9856  20.2994  20.2994  20.8523  20.8523

     occupation numbers 
     1.0000   1.0000   1.0000   1.0000   1.0000   1.0000   1.0000   1.0000
     1.0000   1.0000   1.0000   1.0000   1.0000   1.0000   1.0000   1.0000
     1.0000   1.0000   1.0000   1.0000   1.0000   1.0000   1.0000   1.0000
     1.0000   1.0000   1.0000   1.0000   1.0000   1.0000  -0.0000  -0.0000
    -0.0000  -0.0000  -0.0000  -0.0000  -0.0000  -0.0000  -0.0000  -0.0000
    -0.0000  -0.0000  -0.0000  -0.0000  -0.0000  -0.0000  -0.0000  -0.0000

          k =-0.5774 0.4082 0.3333 (  4674 PWs)   bands (ev):

   -28.5449 -28.5449 -28.5448 -28.5448 -27.0804 -27.0804 -27.0802 -27.0802
   -27.0781 -27.0781  -9.5676  -9.5676  -9.5631  -9.5631  -7.0192  -7.0192
    -6.9983  -6.9983  -6.9795  -6.9795  -1.7335  -1.7335   0.5276   0.5276
     4.7796   4.7796   6.3910   6.3910   7.0672   7.0672  10.7484  10.7484
    11.8141  11.8141  13.7518  13.7518  14.6614  14.6614  16.5906  16.5906
    16.9746  16.9746  18.8506  18.8506  21.6178  21.6179  21.8446  21.8446

     occupation numbers 
     1.0000   1.0000   1.0000   1.0000   1.0000   1.0000   1.0000   1.0000
     1.0000   1.0000   1.0000   1.0000   1.0000   1.0000   1.0000   1.0000
     1.0000   1.0000   1.0000   1.0000   1.0000   1.0000   1.0000   1.0000
     1.0000   1.0000   1.0000   1.0000   1.0000   1.0000  -0.0000  -0.0000
    -0.0000  -0.0000  -0.0000  -0.0000  -0.0000  -0.0000  -0.0000  -0.0000
    -0.0000  -0.0000  -0.0000  -0.0000  -0.0000  -0.0000  -0.0000  -0.0000

          k =-0.0962 0.7485-0.5000 (  4666 PWs)   bands (ev):

   -28.5449 -28.5449 -28.5448 -28.5448 -27.0804 -27.0804 -27.0802 -27.0802
   -27.0781 -27.0781  -9.5676  -9.5676  -9.5631  -9.5631  -7.0196  -7.0196
    -6.9975  -6.9975  -6.9799  -6.9799  -1.7330  -1.7330   0.5231   0.5231
     5.2484   5.2484   5.3694   5.3694   8.0492   8.0492   9.7959   9.7959
    12.8111  12.8111  13.2191  13.2191  15.0260  15.0260  15.4177  15.4177
    18.8401  18.8401  18.9856  18.9856  20.2994  20.2994  20.8523  20.8523

     occupation numbers 
     1.0000   1.0000   1.0000   1.0000   1.0000   1.0000   1.0000   1.0000
     1.0000   1.0000   1.0000   1.0000   1.0000   1.0000   1.0000   1.0000
     1.0000   1.0000   1.0000   1.0000   1.0000   1.0000   1.0000   1.0000
     1.0000   1.0000   1.0000   1.0000   1.0000   1.0000  -0.0000  -0.0000
    -0.0000  -0.0000  -0.0000  -0.0000  -0.0000  -0.0000  -0.0000  -0.0000
    -0.0000  -0.0000  -0.0000  -0.0000  -0.0000  -0.0000  -0.0000  -0.0000

          k =-0.1925 0.6804-0.3333 (  4674 PWs)   bands (ev):

   -28.5449 -28.5449 -28.5448 -28.5448 -27.0804 -27.0804 -27.0802 -27.0802
   -27.0781 -27.0781  -9.5676  -9.5676  -9.5631  -9.5631  -7.0192  -7.0192
    -6.9983  -6.9983  -6.9795  -6.9795  -1.7335  -1.7335   0.5276   0.5276
     4.7796   4.7796   6.3910   6.3910   7.0672   7.0672  10.7484  10.7484
    11.8141  11.8141  13.7518  13.7518  14.6614  14.6614  16.5906  16.5906
    16.9746  16.9746  18.8506  18.8506  21.6178  21.6178  21.8446  21.8446

     occupation numbers 
     1.0000   1.0000   1.0000   1.0000   1.0000   1.0000   1.0000   1.0000
     1.0000   1.0000   1.0000   1.0000   1.0000   1.0000   1.0000   1.0000
     1.0000   1.0000   1.0000   1.0000   1.0000   1.0000   1.0000   1.0000
     1.0000   1.0000   1.0000   1.0000   1.0000   1.0000  -0.0000  -0.0000
    -0.0000  -0.0000  -0.0000  -0.0000  -0.0000  -0.0000  -0.0000  -0.0000
    -0.0000  -0.0000  -0.0000  -0.0000  -0.0000  -0.0000  -0.0000  -0.0000

          k =-0.2887 0.6124-0.1667 (  4666 PWs)   bands (ev):

   -28.5449 -28.5449 -28.5448 -28.5448 -27.0804 -27.0804 -27.0802 -27.0802
   -27.0781 -27.0781  -9.5676  -9.5676  -9.5631  -9.5631  -7.0196  -7.0196
    -6.9975  -6.9975  -6.9799  -6.9799  -1.7330  -1.7330   0.5231   0.5231
     5.2484   5.2484   5.3694   5.3694   8.0492   8.0492   9.7959   9.7959
    12.8111  12.8111  13.2191  13.2191  15.0260  15.0260  15.4177  15.4177
    18.8401  18.8401  18.9856  18.9856  20.2994  20.2994  20.8523  20.8523

     occupation numbers 
     1.0000   1.0000   1.0000   1.0000   1.0000   1.0000   1.0000   1.0000
     1.0000   1.0000   1.0000   1.0000   1.0000   1.0000   1.0000   1.0000
     1.0000   1.0000   1.0000   1.0000   1.0000   1.0000   1.0000   1.0000
     1.0000   1.0000   1.0000   1.0000   1.0000   1.0000  -0.0000  -0.0000
    -0.0000  -0.0000  -0.0000  -0.0000  -0.0000  -0.0000  -0.0000  -0.0000
    -0.0000  -0.0000  -0.0000  -0.0000  -0.0000  -0.0000  -0.0000  -0.0000

          k =-0.3849-0.4763 0.0000 (  4674 PWs)   bands (ev):

   -28.5449 -28.5449 -28.5448 -28.5448 -27.0804 -27.0804 -27.0803 -27.0803
   -27.0781 -27.0781  -9.5686  -9.5686  -9.5626  -9.5626  -7.0264  -7.0264
    -6.9975  -6.9975  -6.9759  -6.9759  -1.8355  -1.8355   0.9590   0.9590
     4.7361   4.7361   5.7778   5.7778   6.4668   6.4668  11.8734  11.8734
    12.5848  12.5848  13.4049  13.4049  13.9538  13.9538  18.0609  18.0609
    18.6842  18.6842  19.3995  19.3995  19.5097  19.5097  20.5660  20.5661

     occupation numbers 
     1.0000   1.0000   1.0000   1.0000   1.0000   1.0000   1.0000   1.0000
     1.0000   1.0000   1.0000   1.0000   1.0000   1.0000   1.0000   1.0000
     1.0000   1.0000   1.0000   1.0000   1.0000   1.0000   1.0000   1.0000
     1.0000   1.0000   1.0000   1.0000   1.0000   1.0000  -0.0000  -0.0000
    -0.0000  -0.0000  -0.0000  -0.0000  -0.0000  -0.0000  -0.0000  -0.0000
    -0.0000  -0.0000  -0.0000  -0.0000  -0.0000  -0.0000  -0.0000  -0.0000

          k =-0.4811-0.5443 0.1667 (  4670 PWs)   bands (ev):

   -28.5449 -28.5449 -28.5448 -28.5448 -27.0804 -27.0804 -27.0803 -27.0803
   -27.0781 -27.0781  -9.5684  -9.5684  -9.5628  -9.5628  -7.0267  -7.0267
    -6.9972  -6.9972  -6.9767  -6.9767  -1.6690  -1.6690   0.8311   0.8311
     4.4684   4.4684   5.2131   5.2131   7.2734   7.2734  10.9746  10.9746
    12.8832  12.8832  14.0825  14.0825  14.5050  14.5050  16.5898  16.5898
    19.1668  19.1668  20.0280  20.0280  20.1910  20.1910  20.2029  20.2029

     occupation numbers 
     1.0000   1.0000   1.0000   1.0000   1.0000   1.0000   1.0000   1.0000
     1.0000   1.0000   1.0000   1.0000   1.0000   1.0000   1.0000   1.0000
     1.0000   1.0000   1.0000   1.0000   1.0000   1.0000   1.0000   1.0000
     1.0000   1.0000   1.0000   1.0000   1.0000   1.0000  -0.0000  -0.0000
    -0.0000  -0.0000  -0.0000  -0.0000  -0.0000  -0.0000  -0.0000  -0.0000
    -0.0000  -0.0000  -0.0000  -0.0000  -0.0000  -0.0000  -0.0000  -0.0000

          k =-0.5774-0.6124 0.3333 (  4666 PWs)   bands (ev):

   -28.5449 -28.5449 -28.5448 -28.5448 -27.0804 -27.0804 -27.0802 -27.0802
   -27.0781 -27.0781  -9.5676  -9.5676  -9.5631  -9.5631  -7.0196  -7.0196
    -6.9975  -6.9975  -6.9799  -6.9799  -1.7330  -1.7330   0.5231   0.5231
     5.2484   5.2484   5.3694   5.3694   8.0492   8.0492   9.7959   9.7959
    12.8111  12.8111  13.2191  13.2191  15.0260  15.0260  15.4177  15.4177
    18.8401  18.8401  18.9856  18.9856  20.2994  20.2994  20.8523  20.8523

     occupation numbers 
     1.0000   1.0000   1.0000   1.0000   1.0000   1.0000   1.0000   1.0000
     1.0000   1.0000   1.0000   1.0000   1.0000   1.0000   1.0000   1.0000
     1.0000   1.0000   1.0000   1.0000   1.0000   1.0000   1.0000   1.0000
     1.0000   1.0000   1.0000   1.0000   1.0000   1.0000  -0.0000  -0.0000
    -0.0000  -0.0000  -0.0000  -0.0000  -0.0000  -0.0000  -0.0000  -0.0000
    -0.0000  -0.0000  -0.0000  -0.0000  -0.0000  -0.0000  -0.0000  -0.0000

          k =-0.0962-0.2722-0.5000 (  4662 PWs)   bands (ev):

   -28.5449 -28.5449 -28.5448 -28.5448 -27.0805 -27.0805 -27.0802 -27.0802
   -27.0782 -27.0782  -9.5677  -9.5677  -9.5624  -9.5624  -7.0144  -7.0144
    -6.9962  -6.9962  -6.9817  -6.9817  -1.9545  -1.9545   0.3869   0.3869
     6.1806   6.1806   6.6840   6.6840   7.3822   7.3822  10.1634  10.1634
    11.1256  11.1256  11.7809  11.7809  14.8459  14.8459  17.3927  17.3927
    18.0256  18.0256  18.4261  18.4261  19.3697  19.3697  21.2924  21.2924

     occupation numbers 
     1.0000   1.0000   1.0000   1.0000   1.0000   1.0000   1.0000   1.0000
     1.0000   1.0000   1.0000   1.0000   1.0000   1.0000   1.0000   1.0000
     1.0000   1.0000   1.0000   1.0000   1.0000   1.0000   1.0000   1.0000
     1.0000   1.0000   1.0000   1.0000   1.0000   1.0000  -0.0000  -0.0000
    -0.0000  -0.0000  -0.0000  -0.0000  -0.0000  -0.0000  -0.0000  -0.0000
    -0.0000  -0.0000  -0.0000  -0.0000  -0.0000  -0.0000  -0.0000  -0.0000

          k =-0.1925-0.3402-0.3333 (  4666 PWs)   bands (ev):

   -28.5450 -28.5450 -28.5448 -28.5448 -27.0805 -27.0805 -27.0802 -27.0802
   -27.0782 -27.0782  -9.5674  -9.5674  -9.5627  -9.5627  -7.0114  -7.0114
    -6.9969  -6.9969  -6.9831  -6.9831  -2.1132  -2.1132   0.5636   0.5636
     5.8511   5.8511   7.3281   7.3281   8.0198   8.0198   9.4302   9.4302
    10.4680  10.4680  12.3728  12.3728  15.3315  15.3315  16.1518  16.1518
    17.2678  17.2678  18.7232  18.7232  19.2032  19.2032  21.7590  21.7592

     occupation numbers 
     1.0000   1.0000   1.0000   1.0000   1.0000   1.0000   1.0000   1.0000
     1.0000   1.0000   1.0000   1.0000   1.0000   1.0000   1.0000   1.0000
     1.0000   1.0000   1.0000   1.0000   1.0000   1.0000   1.0000   1.0000
     1.0000   1.0000   1.0000   1.0000   1.0000   1.0000  -0.0000  -0.0000
    -0.0000  -0.0000  -0.0000  -0.0000  -0.0000  -0.0000  -0.0000  -0.0000
    -0.0000  -0.0000  -0.0000  -0.0000  -0.0000  -0.0000  -0.0000  -0.0000

          k =-0.2887-0.4082-0.1667 (  4660 PWs)   bands (ev):

   -28.5449 -28.5449 -28.5448 -28.5448 -27.0804 -27.0804 -27.0802 -27.0802
   -27.0782 -27.0782  -9.5675  -9.5675  -9.5631  -9.5631  -7.0171  -7.0171
    -6.9975  -6.9975  -6.9806  -6.9806  -2.0575  -2.0575   0.8406   0.8406
     5.5040   5.5040   5.9440   5.9440   7.5350   7.5350  10.4050  10.4050
    12.1068  12.1068  12.9233  12.9233  14.1413  14.1413  17.3008  17.3008
    17.6534  17.6534  18.0793  18.0793  19.4306  19.4306  21.6380  21.6381

     occupation numbers 
     1.0000   1.0000   1.0000   1.0000   1.0000   1.0000   1.0000   1.0000
     1.0000   1.0000   1.0000   1.0000   1.0000   1.0000   1.0000   1.0000
     1.0000   1.0000   1.0000   1.0000   1.0000   1.0000   1.0000   1.0000
     1.0000   1.0000   1.0000   1.0000   1.0000   1.0000  -0.0000  -0.0000
    -0.0000  -0.0000  -0.0000  -0.0000  -0.0000  -0.0000  -0.0000  -0.0000
    -0.0000  -0.0000  -0.0000  -0.0000  -0.0000  -0.0000  -0.0000  -0.0000

          k =-0.3849-0.2722 0.0000 (  4672 PWs)   bands (ev):

   -28.5450 -28.5450 -28.5448 -28.5448 -27.0804 -27.0804 -27.0804 -27.0804
   -27.0782 -27.0782  -9.5682  -9.5682  -9.5630  -9.5630  -7.0220  -7.0220
    -6.9974  -6.9974  -6.9780  -6.9780  -2.2523  -2.2523   1.3942   1.3942
     5.6567   5.6567   5.7113   5.7113   6.4268   6.4268  12.0770  12.0770
    12.2531  12.2531  12.9491  12.9491  13.8677  13.8677  17.4754  17.4754
    17.6735  17.6735  18.3090  18.3090  18.6031  18.6031  21.1174  21.1176

     occupation numbers 
     1.0000   1.0000   1.0000   1.0000   1.0000   1.0000   1.0000   1.0000
     1.0000   1.0000   1.0000   1.0000   1.0000   1.0000   1.0000   1.0000
     1.0000   1.0000   1.0000   1.0000   1.0000   1.0000   1.0000   1.0000
     1.0000   1.0000   1.0000   1.0000   1.0000   1.0000  -0.0000  -0.0000
    -0.0000  -0.0000  -0.0000  -0.0000  -0.0000  -0.0000  -0.0000  -0.0000
    -0.0000  -0.0000  -0.0000  -0.0000  -0.0000  -0.0000  -0.0000  -0.0000

          k =-0.4811-0.3402 0.1667 (  4674 PWs)   bands (ev):

   -28.5449 -28.5449 -28.5448 -28.5448 -27.0804 -27.0804 -27.0803 -27.0803
   -27.0781 -27.0781  -9.5686  -9.5686  -9.5626  -9.5626  -7.0264  -7.0264
    -6.9975  -6.9975  -6.9759  -6.9759  -1.8355  -1.8355   0.9590   0.9590
     4.7361   4.7361   5.7778   5.7778   6.4668   6.4668  11.8734  11.8734
    12.5848  12.5848  13.4049  13.4049  13.9538  13.9538  18.0609  18.0609
    18.6842  18.6842  19.3995  19.3995  19.5097  19.5097  20.5660  20.5660

     occupation numbers 
     1.0000   1.0000   1.0000   1.0000   1.0000   1.0000   1.0000   1.0000
     1.0000   1.0000   1.0000   1.0000   1.0000   1.0000   1.0000   1.0000
     1.0000   1.0000   1.0000   1.0000   1.0000   1.0000   1.0000   1.0000
     1.0000   1.0000   1.0000   1.0000   1.0000   1.0000  -0.0000  -0.0000
    -0.0000  -0.0000  -0.0000  -0.0000  -0.0000  -0.0000  -0.0000  -0.0000
    -0.0000  -0.0000  -0.0000  -0.0000  -0.0000  -0.0000  -0.0000  -0.0000

          k =-0.5774-0.4082 0.3333 (  4674 PWs)   bands (ev):

   -28.5449 -28.5449 -28.5448 -28.5448 -27.0804 -27.0804 -27.0802 -27.0802
   -27.0781 -27.0781  -9.5676  -9.5676  -9.5631  -9.5631  -7.0192  -7.0192
    -6.9983  -6.9983  -6.9795  -6.9795  -1.7335  -1.7335   0.5276   0.5276
     4.7796   4.7796   6.3910   6.3910   7.0672   7.0672  10.7484  10.7484
    11.8141  11.8141  13.7518  13.7518  14.6614  14.6614  16.5906  16.5906
    16.9746  16.9746  18.8506  18.8506  21.6178  21.6180  21.8446  21.8447

     occupation numbers 
     1.0000   1.0000   1.0000   1.0000   1.0000   1.0000   1.0000   1.0000
     1.0000   1.0000   1.0000   1.0000   1.0000   1.0000   1.0000   1.0000
     1.0000   1.0000   1.0000   1.0000   1.0000   1.0000   1.0000   1.0000
     1.0000   1.0000   1.0000   1.0000   1.0000   1.0000  -0.0000  -0.0000
    -0.0000  -0.0000  -0.0000  -0.0000  -0.0000  -0.0000  -0.0000  -0.0000
    -0.0000  -0.0000  -0.0000  -0.0000  -0.0000  -0.0000  -0.0000  -0.0000

          k =-0.0962-0.0680-0.5000 (  4666 PWs)   bands (ev):

   -28.5450 -28.5450 -28.5448 -28.5448 -27.0805 -27.0805 -27.0802 -27.0802
   -27.0782 -27.0782  -9.5674  -9.5674  -9.5627  -9.5627  -7.0114  -7.0114
    -6.9969  -6.9969  -6.9831  -6.9831  -2.1132  -2.1132   0.5636   0.5636
     5.8511   5.8511   7.3281   7.3281   8.0198   8.0198   9.4302   9.4302
    10.4680  10.4680  12.3728  12.3728  15.3315  15.3315  16.1518  16.1518
    17.2678  17.2678  18.7232  18.7232  19.2032  19.2032  21.7590  21.7591

     occupation numbers 
     1.0000   1.0000   1.0000   1.0000   1.0000   1.0000   1.0000   1.0000
     1.0000   1.0000   1.0000   1.0000   1.0000   1.0000   1.0000   1.0000
     1.0000   1.0000   1.0000   1.0000   1.0000   1.0000   1.0000   1.0000
     1.0000   1.0000   1.0000   1.0000   1.0000   1.0000  -0.0000  -0.0000
    -0.0000  -0.0000  -0.0000  -0.0000  -0.0000  -0.0000  -0.0000  -0.0000
    -0.0000  -0.0000  -0.0000  -0.0000  -0.0000  -0.0000  -0.0000  -0.0000

          k =-0.1925-0.1361-0.3333 (  4693 PWs)   bands (ev):

   -28.5450 -28.5450 -28.5449 -28.5449 -27.0806 -27.0806 -27.0802 -27.0802
   -27.0783 -27.0783  -9.5675  -9.5675  -9.5626  -9.5626  -7.0092  -7.0092
    -6.9938  -6.9938  -6.9857  -6.9857  -2.4783  -2.4783   0.8933   0.8933
     6.9806   6.9806   7.7399   7.7399   8.1835   8.1835   9.1586   9.1586
    10.4411  10.4411  10.8392  10.8392  15.1163  15.1163  16.2134  16.2134
    16.2336  16.2336  19.0776  19.0776  20.3818  20.3820  20.6275  20.6281

     occupation numbers 
     1.0000   1.0000   1.0000   1.0000   1.0000   1.0000   1.0000   1.0000
     1.0000   1.0000   1.0000   1.0000   1.0000   1.0000   1.0000   1.0000
     1.0000   1.0000   1.0000   1.0000   1.0000   1.0000   1.0000   1.0000
     1.0000   1.0000   1.0000   1.0000   1.0026   1.0026  -0.0000  -0.0000
    -0.0000  -0.0000  -0.0000  -0.0000  -0.0000  -0.0000  -0.0000  -0.0000
    -0.0000  -0.0000  -0.0000  -0.0000  -0.0000  -0.0000  -0.0000  -0.0000

          k =-0.2887-0.2041-0.1667 (  4670 PWs)   bands (ev):

   -28.5450 -28.5450 -28.5449 -28.5449 -27.0805 -27.0805 -27.0803 -27.0803
   -27.0783 -27.0783  -9.5671  -9.5671  -9.5635  -9.5635  -7.0108  -7.0108
    -6.9969  -6.9969  -6.9841  -6.9841  -2.5313  -2.5313   1.2954   1.2954
     6.2532   6.2532   6.9412   6.9412   7.2891   7.2891  10.3971  10.3971
    11.5619  11.5619  12.3839  12.3839  13.4657  13.4657  16.6857  16.6857
    17.0199  17.0199  17.9921  17.9921  18.5186  18.5186  20.3681  20.3682

     occupation numbers 
     1.0000   1.0000   1.0000   1.0000   1.0000   1.0000   1.0000   1.0000
     1.0000   1.0000   1.0000   1.0000   1.0000   1.0000   1.0000   1.0000
     1.0000   1.0000   1.0000   1.0000   1.0000   1.0000   1.0000   1.0000
     1.0000   1.0000   1.0000   1.0000   1.0000   1.0000  -0.0000  -0.0000
    -0.0000  -0.0000  -0.0000  -0.0000  -0.0000  -0.0000  -0.0000  -0.0000
    -0.0000  -0.0000  -0.0000  -0.0000  -0.0000  -0.0000  -0.0000  -0.0000

          k =-0.3849-0.0680 0.0000 (  4670 PWs)   bands (ev):

   -28.5450 -28.5450 -28.5449 -28.5449 -27.0805 -27.0805 -27.0803 -27.0803
   -27.0783 -27.0783  -9.5671  -9.5671  -9.5635  -9.5635  -7.0108  -7.0108
    -6.9969  -6.9969  -6.9841  -6.9841  -2.5313  -2.5313   1.2954   1.2954
     6.2532   6.2532   6.9412   6.9412   7.2891   7.2891  10.3971  10.3971
    11.5619  11.5619  12.3839  12.3839  13.4657  13.4657  16.6857  16.6857
    17.0199  17.0199  17.9921  17.9921  18.5186  18.5186  20.3681  20.3682

     occupation numbers 
     1.0000   1.0000   1.0000   1.0000   1.0000   1.0000   1.0000   1.0000
     1.0000   1.0000   1.0000   1.0000   1.0000   1.0000   1.0000   1.0000
     1.0000   1.0000   1.0000   1.0000   1.0000   1.0000   1.0000   1.0000
     1.0000   1.0000   1.0000   1.0000   1.0000   1.0000  -0.0000  -0.0000
    -0.0000  -0.0000  -0.0000  -0.0000  -0.0000  -0.0000  -0.0000  -0.0000
    -0.0000  -0.0000  -0.0000  -0.0000  -0.0000  -0.0000  -0.0000  -0.0000

          k =-0.4811-0.1361 0.1667 (  4660 PWs)   bands (ev):

   -28.5449 -28.5449 -28.5448 -28.5448 -27.0804 -27.0804 -27.0802 -27.0802
   -27.0782 -27.0782  -9.5675  -9.5675  -9.5631  -9.5631  -7.0171  -7.0171
    -6.9975  -6.9975  -6.9806  -6.9806  -2.0575  -2.0575   0.8406   0.8406
     5.5040   5.5040   5.9440   5.9440   7.5350   7.5350  10.4050  10.4050
    12.1068  12.1068  12.9233  12.9233  14.1413  14.1413  17.3008  17.3008
    17.6534  17.6534  18.0793  18.0793  19.4306  19.4306  21.6380  21.6381

     occupation numbers 
     1.0000   1.0000   1.0000   1.0000   1.0000   1.0000   1.0000   1.0000
     1.0000   1.0000   1.0000   1.0000   1.0000   1.0000   1.0000   1.0000
     1.0000   1.0000   1.0000   1.0000   1.0000   1.0000   1.0000   1.0000
     1.0000   1.0000   1.0000   1.0000   1.0000   1.0000  -0.0000  -0.0000
    -0.0000  -0.0000  -0.0000  -0.0000  -0.0000  -0.0000  -0.0000  -0.0000
    -0.0000  -0.0000  -0.0000  -0.0000  -0.0000  -0.0000  -0.0000  -0.0000

          k =-0.5774-0.2041 0.3333 (  4666 PWs)   bands (ev):

   -28.5449 -28.5449 -28.5448 -28.5448 -27.0804 -27.0804 -27.0802 -27.0802
   -27.0781 -27.0781  -9.5676  -9.5676  -9.5631  -9.5631  -7.0196  -7.0196
    -6.9975  -6.9975  -6.9799  -6.9799  -1.7330  -1.7330   0.5231   0.5231
     5.2484   5.2484   5.3694   5.3694   8.0492   8.0492   9.7959   9.7959
    12.8111  12.8111  13.2191  13.2191  15.0260  15.0260  15.4177  15.4177
    18.8401  18.8401  18.9856  18.9856  20.2994  20.2994  20.8523  20.8523

     occupation numbers 
     1.0000   1.0000   1.0000   1.0000   1.0000   1.0000   1.0000   1.0000
     1.0000   1.0000   1.0000   1.0000   1.0000   1.0000   1.0000   1.0000
     1.0000   1.0000   1.0000   1.0000   1.0000   1.0000   1.0000   1.0000
     1.0000   1.0000   1.0000   1.0000   1.0000   1.0000  -0.0000  -0.0000
    -0.0000  -0.0000  -0.0000  -0.0000  -0.0000  -0.0000  -0.0000  -0.0000
    -0.0000  -0.0000  -0.0000  -0.0000  -0.0000  -0.0000  -0.0000  -0.0000

          k =-0.0962 0.1361-0.5000 (  4660 PWs)   bands (ev):

   -28.5449 -28.5449 -28.5448 -28.5448 -27.0804 -27.0804 -27.0802 -27.0802
   -27.0782 -27.0782  -9.5675  -9.5675  -9.5631  -9.5631  -7.0171  -7.0171
    -6.9975  -6.9975  -6.9806  -6.9806  -2.0575  -2.0575   0.8406   0.8406
     5.5040   5.5040   5.9440   5.9440   7.5350   7.5350  10.4050  10.4050
    12.1068  12.1068  12.9233  12.9233  14.1413  14.1413  17.3008  17.3008
    17.6534  17.6534  18.0793  18.0793  19.4306  19.4306  21.6380  21.6380

     occupation numbers 
     1.0000   1.0000   1.0000   1.0000   1.0000   1.0000   1.0000   1.0000
     1.0000   1.0000   1.0000   1.0000   1.0000   1.0000   1.0000   1.0000
     1.0000   1.0000   1.0000   1.0000   1.0000   1.0000   1.0000   1.0000
     1.0000   1.0000   1.0000   1.0000   1.0000   1.0000  -0.0000  -0.0000
    -0.0000  -0.0000  -0.0000  -0.0000  -0.0000  -0.0000  -0.0000  -0.0000
    -0.0000  -0.0000  -0.0000  -0.0000  -0.0000  -0.0000  -0.0000  -0.0000

          k =-0.1925 0.0680-0.3333 (  4670 PWs)   bands (ev):

   -28.5450 -28.5450 -28.5449 -28.5449 -27.0805 -27.0805 -27.0803 -27.0803
   -27.0783 -27.0783  -9.5671  -9.5671  -9.5635  -9.5635  -7.0108  -7.0108
    -6.9969  -6.9969  -6.9841  -6.9841  -2.5313  -2.5313   1.2955   1.2955
     6.2532   6.2532   6.9412   6.9412   7.2891   7.2891  10.3971  10.3971
    11.5619  11.5619  12.3839  12.3839  13.4657  13.4657  16.6857  16.6857
    17.0199  17.0199  17.9921  17.9921  18.5186  18.5186  20.3681  20.3681

     occupation numbers 
     1.0000   1.0000   1.0000   1.0000   1.0000   1.0000   1.0000   1.0000
     1.0000   1.0000   1.0000   1.0000   1.0000   1.0000   1.0000   1.0000
     1.0000   1.0000   1.0000   1.0000   1.0000   1.0000   1.0000   1.0000
     1.0000   1.0000   1.0000   1.0000   1.0000   1.0000  -0.0000  -0.0000
    -0.0000  -0.0000  -0.0000  -0.0000  -0.0000  -0.0000  -0.0000  -0.0000
    -0.0000  -0.0000  -0.0000  -0.0000  -0.0000  -0.0000  -0.0000  -0.0000

          k =-0.2887-0.0000-0.1667 (  4689 PWs)   bands (ev):

   -28.5450 -28.5450 -28.5449 -28.5449 -27.0805 -27.0805 -27.0803 -27.0803
   -27.0784 -27.0784  -9.5667  -9.5667  -9.5639  -9.5639  -7.0054  -7.0054
    -6.9976  -6.9976  -6.9872  -6.9872  -2.7218  -2.7218   1.4829   1.4829
     6.1709   6.1709   7.6699   7.6699   8.3461   8.3461   9.3875   9.3875
    10.6322  10.6322  12.6376  12.6376  14.4493  14.4493  15.0054  15.0054
    16.6970  16.6970  16.9724  16.9724  19.4530  19.4530  19.6529  19.6530

     occupation numbers 
     1.0000   1.0000   1.0000   1.0000   1.0000   1.0000   1.0000   1.0000
     1.0000   1.0000   1.0000   1.0000   1.0000   1.0000   1.0000   1.0000
     1.0000   1.0000   1.0000   1.0000   1.0000   1.0000   1.0000   1.0000
     1.0000   1.0000   1.0000   1.0000   1.0331   1.0331  -0.0000  -0.0000
    -0.0000  -0.0000  -0.0000  -0.0000  -0.0000  -0.0000  -0.0000  -0.0000
    -0.0000  -0.0000  -0.0000  -0.0000  -0.0000  -0.0000  -0.0000  -0.0000

          k =-0.1925 0.0680 0.0000 (  4699 PWs)   bands (ev):

   -28.5451 -28.5451 -28.5450 -28.5450 -27.0805 -27.0805 -27.0805 -27.0805
   -27.0785 -27.0785  -9.5664  -9.5664  -9.5647  -9.5647  -7.0019  -7.0019
    -6.9969  -6.9969  -6.9911  -6.9911  -3.0676  -3.0676   2.1580   2.1580
     6.6218   6.6218   7.5827   7.5827   7.7657   7.7657  10.2880  10.2880
    11.8718  11.8718  12.1162  12.1162  14.2300  14.2300  14.8384  14.8384
    14.8920  14.8920  17.3217  17.3217  17.7055  17.7055  17.9662  17.9662

     occupation numbers 
     1.0000   1.0000   1.0000   1.0000   1.0000   1.0000   1.0000   1.0000
     1.0000   1.0000   1.0000   1.0000   1.0000   1.0000   1.0000   1.0000
     1.0000   1.0000   1.0000   1.0000   1.0000   1.0000   1.0000   1.0000
     1.0000   1.0000   1.0000   1.0000   1.0000   1.0000  -0.0000  -0.0000
    -0.0000  -0.0000  -0.0000  -0.0000  -0.0000  -0.0000  -0.0000  -0.0000
    -0.0000  -0.0000  -0.0000  -0.0000  -0.0000  -0.0000  -0.0000  -0.0000

          k =-0.2887-0.0000 0.1667 (  4689 PWs)   bands (ev):

   -28.5450 -28.5450 -28.5449 -28.5449 -27.0805 -27.0805 -27.0803 -27.0803
   -27.0784 -27.0784  -9.5667  -9.5667  -9.5639  -9.5639  -7.0054  -7.0054
    -6.9976  -6.9976  -6.9872  -6.9872  -2.7218  -2.7218   1.4829   1.4829
     6.1709   6.1709   7.6699   7.6699   8.3461   8.3461   9.3875   9.3875
    10.6322  10.6322  12.6376  12.6376  14.4493  14.4493  15.0054  15.0054
    16.6970  16.6970  16.9724  16.9724  19.4530  19.4530  19.6529  19.6529

     occupation numbers 
     1.0000   1.0000   1.0000   1.0000   1.0000   1.0000   1.0000   1.0000
     1.0000   1.0000   1.0000   1.0000   1.0000   1.0000   1.0000   1.0000
     1.0000   1.0000   1.0000   1.0000   1.0000   1.0000   1.0000   1.0000
     1.0000   1.0000   1.0000   1.0000   1.0331   1.0331  -0.0000  -0.0000
    -0.0000  -0.0000  -0.0000  -0.0000  -0.0000  -0.0000  -0.0000  -0.0000
    -0.0000  -0.0000  -0.0000  -0.0000  -0.0000  -0.0000  -0.0000  -0.0000

          k =-0.3849-0.0680 0.3333 (  4666 PWs)   bands (ev):

   -28.5450 -28.5450 -28.5448 -28.5448 -27.0805 -27.0805 -27.0802 -27.0802
   -27.0782 -27.0782  -9.5674  -9.5674  -9.5627  -9.5627  -7.0114  -7.0114
    -6.9969  -6.9969  -6.9831  -6.9831  -2.1132  -2.1132   0.5636   0.5636
     5.8511   5.8511   7.3281   7.3281   8.0198   8.0198   9.4302   9.4302
    10.4680  10.4680  12.3728  12.3728  15.3315  15.3315  16.1518  16.1518
    17.2678  17.2678  18.7232  18.7232  19.2032  19.2032  21.7590  21.7591

     occupation numbers 
     1.0000   1.0000   1.0000   1.0000   1.0000   1.0000   1.0000   1.0000
     1.0000   1.0000   1.0000   1.0000   1.0000   1.0000   1.0000   1.0000
     1.0000   1.0000   1.0000   1.0000   1.0000   1.0000   1.0000   1.0000
     1.0000   1.0000   1.0000   1.0000   1.0000   1.0000  -0.0000  -0.0000
    -0.0000  -0.0000  -0.0000  -0.0000  -0.0000  -0.0000  -0.0000  -0.0000
    -0.0000  -0.0000  -0.0000  -0.0000  -0.0000  -0.0000  -0.0000  -0.0000

          k = 0.0962 0.2722-0.5000 (  4662 PWs)   bands (ev):

   -28.5449 -28.5449 -28.5448 -28.5448 -27.0805 -27.0805 -27.0802 -27.0802
   -27.0782 -27.0782  -9.5677  -9.5677  -9.5624  -9.5624  -7.0144  -7.0144
    -6.9962  -6.9962  -6.9817  -6.9817  -1.9545  -1.9545   0.3869   0.3869
     6.1806   6.1806   6.6840   6.6840   7.3822   7.3822  10.1634  10.1634
    11.1256  11.1256  11.7809  11.7809  14.8459  14.8459  17.3927  17.3927
    18.0256  18.0256  18.4261  18.4261  19.3697  19.3697  21.2924  21.2924

     occupation numbers 
     1.0000   1.0000   1.0000   1.0000   1.0000   1.0000   1.0000   1.0000
     1.0000   1.0000   1.0000   1.0000   1.0000   1.0000   1.0000   1.0000
     1.0000   1.0000   1.0000   1.0000   1.0000   1.0000   1.0000   1.0000
     1.0000   1.0000   1.0000   1.0000   1.0000   1.0000  -0.0000  -0.0000
    -0.0000  -0.0000  -0.0000  -0.0000  -0.0000  -0.0000  -0.0000  -0.0000
    -0.0000  -0.0000  -0.0000  -0.0000  -0.0000  -0.0000  -0.0000  -0.0000

          k = 0.0000 0.2041-0.3333 (  4670 PWs)   bands (ev):

   -28.5450 -28.5450 -28.5449 -28.5449 -27.0805 -27.0805 -27.0803 -27.0803
   -27.0783 -27.0783  -9.5671  -9.5671  -9.5635  -9.5635  -7.0108  -7.0108
    -6.9969  -6.9969  -6.9841  -6.9841  -2.5313  -2.5313   1.2955   1.2955
     6.2532   6.2532   6.9412   6.9412   7.2891   7.2891  10.3971  10.3971
    11.5619  11.5619  12.3839  12.3839  13.4657  13.4657  16.6857  16.6857
    17.0199  17.0199  17.9921  17.9921  18.5186  18.5186  20.3681  20.3682

     occupation numbers 
     1.0000   1.0000   1.0000   1.0000   1.0000   1.0000   1.0000   1.0000
     1.0000   1.0000   1.0000   1.0000   1.0000   1.0000   1.0000   1.0000
     1.0000   1.0000   1.0000   1.0000   1.0000   1.0000   1.0000   1.0000
     1.0000   1.0000   1.0000   1.0000   1.0000   1.0000  -0.0000  -0.0000
    -0.0000  -0.0000  -0.0000  -0.0000  -0.0000  -0.0000  -0.0000  -0.0000
    -0.0000  -0.0000  -0.0000  -0.0000  -0.0000  -0.0000  -0.0000  -0.0000

          k =-0.0962 0.1361-0.1667 (  4681 PWs)   bands (ev):

   -28.5450 -28.5450 -28.5450 -28.5450 -27.0805 -27.0805 -27.0805 -27.0805
   -27.0784 -27.0784  -9.5662  -9.5662  -9.5649  -9.5649  -7.0040  -7.0040
    -6.9975  -6.9975  -6.9893  -6.9893  -2.9952  -2.9952   2.1200   2.1200
     6.2973   6.2973   7.1171   7.1171   8.1477   8.1477   9.9218   9.9218
    12.1242  12.1242  13.1617  13.1617  13.2471  13.2471  15.5444  15.5444
    15.8006  15.8006  16.4431  16.4431  16.7997  16.7997  17.9062  17.9062

     occupation numbers 
     1.0000   1.0000   1.0000   1.0000   1.0000   1.0000   1.0000   1.0000
     1.0000   1.0000   1.0000   1.0000   1.0000   1.0000   1.0000   1.0000
     1.0000   1.0000   1.0000   1.0000   1.0000   1.0000   1.0000   1.0000
     1.0000   1.0000   1.0000   1.0000   1.0008   1.0008  -0.0000  -0.0000
    -0.0000  -0.0000  -0.0000  -0.0000  -0.0000  -0.0000  -0.0000  -0.0000
    -0.0000  -0.0000  -0.0000  -0.0000  -0.0000  -0.0000  -0.0000  -0.0000

          k =-0.1925 0.2722 0.0000 (  4689 PWs)   bands (ev):

   -28.5450 -28.5450 -28.5449 -28.5449 -27.0805 -27.0805 -27.0803 -27.0803
   -27.0784 -27.0784  -9.5667  -9.5667  -9.5639  -9.5639  -7.0054  -7.0054
    -6.9976  -6.9976  -6.9872  -6.9872  -2.7218  -2.7218   1.4829   1.4829
     6.1709   6.1709   7.6699   7.6699   8.3461   8.3461   9.3875   9.3875
    10.6322  10.6322  12.6376  12.6376  14.4493  14.4493  15.0054  15.0054
    16.6970  16.6970  16.9724  16.9724  19.4529  19.4530  19.6529  19.6532

     occupation numbers 
     1.0000   1.0000   1.0000   1.0000   1.0000   1.0000   1.0000   1.0000
     1.0000   1.0000   1.0000   1.0000   1.0000   1.0000   1.0000   1.0000
     1.0000   1.0000   1.0000   1.0000   1.0000   1.0000   1.0000   1.0000
     1.0000   1.0000   1.0000   1.0000   1.0331   1.0331  -0.0000  -0.0000
    -0.0000  -0.0000  -0.0000  -0.0000  -0.0000  -0.0000  -0.0000  -0.0000
    -0.0000  -0.0000  -0.0000  -0.0000  -0.0000  -0.0000  -0.0000  -0.0000

          k =-0.2887 0.2041 0.1667 (  4670 PWs)   bands (ev):

   -28.5450 -28.5450 -28.5449 -28.5449 -27.0805 -27.0805 -27.0803 -27.0803
   -27.0783 -27.0783  -9.5671  -9.5671  -9.5635  -9.5635  -7.0108  -7.0108
    -6.9969  -6.9969  -6.9841  -6.9841  -2.5313  -2.5313   1.2955   1.2955
     6.2532   6.2532   6.9412   6.9412   7.2891   7.2891  10.3971  10.3971
    11.5619  11.5619  12.3839  12.3839  13.4657  13.4657  16.6857  16.6857
    17.0199  17.0199  17.9921  17.9921  18.5186  18.5186  20.3681  20.3681

     occupation numbers 
     1.0000   1.0000   1.0000   1.0000   1.0000   1.0000   1.0000   1.0000
     1.0000   1.0000   1.0000   1.0000   1.0000   1.0000   1.0000   1.0000
     1.0000   1.0000   1.0000   1.0000   1.0000   1.0000   1.0000   1.0000
     1.0000   1.0000   1.0000   1.0000   1.0000   1.0000  -0.0000  -0.0000
    -0.0000  -0.0000  -0.0000  -0.0000  -0.0000  -0.0000  -0.0000  -0.0000
    -0.0000  -0.0000  -0.0000  -0.0000  -0.0000  -0.0000  -0.0000  -0.0000

          k =-0.3849 0.1361 0.3333 (  4660 PWs)   bands (ev):

   -28.5449 -28.5449 -28.5448 -28.5448 -27.0804 -27.0804 -27.0802 -27.0802
   -27.0782 -27.0782  -9.5675  -9.5675  -9.5631  -9.5631  -7.0171  -7.0171
    -6.9975  -6.9975  -6.9806  -6.9806  -2.0575  -2.0575   0.8406   0.8406
     5.5040   5.5040   5.9440   5.9440   7.5350   7.5350  10.4050  10.4050
    12.1068  12.1068  12.9233  12.9233  14.1413  14.1413  17.3008  17.3008
    17.6534  17.6534  18.0793  18.0793  19.4306  19.4306  21.6380  21.6381

     occupation numbers 
     1.0000   1.0000   1.0000   1.0000   1.0000   1.0000   1.0000   1.0000
     1.0000   1.0000   1.0000   1.0000   1.0000   1.0000   1.0000   1.0000
     1.0000   1.0000   1.0000   1.0000   1.0000   1.0000   1.0000   1.0000
     1.0000   1.0000   1.0000   1.0000   1.0000   1.0000  -0.0000  -0.0000
    -0.0000  -0.0000  -0.0000  -0.0000  -0.0000  -0.0000  -0.0000  -0.0000
    -0.0000  -0.0000  -0.0000  -0.0000  -0.0000  -0.0000  -0.0000  -0.0000

          k = 0.0962 0.4763-0.5000 (  4666 PWs)   bands (ev):

   -28.5449 -28.5449 -28.5448 -28.5448 -27.0804 -27.0804 -27.0802 -27.0802
   -27.0781 -27.0781  -9.5676  -9.5676  -9.5631  -9.5631  -7.0196  -7.0196
    -6.9975  -6.9975  -6.9799  -6.9799  -1.7330  -1.7330   0.5231   0.5231
     5.2484   5.2484   5.3694   5.3694   8.0492   8.0492   9.7959   9.7959
    12.8111  12.8111  13.2191  13.2191  15.0260  15.0260  15.4177  15.4177
    18.8401  18.8401  18.9856  18.9856  20.2994  20.2994  20.8523  20.8523

     occupation numbers 
     1.0000   1.0000   1.0000   1.0000   1.0000   1.0000   1.0000   1.0000
     1.0000   1.0000   1.0000   1.0000   1.0000   1.0000   1.0000   1.0000
     1.0000   1.0000   1.0000   1.0000   1.0000   1.0000   1.0000   1.0000
     1.0000   1.0000   1.0000   1.0000   1.0000   1.0000  -0.0000  -0.0000
    -0.0000  -0.0000  -0.0000  -0.0000  -0.0000  -0.0000  -0.0000  -0.0000
    -0.0000  -0.0000  -0.0000  -0.0000  -0.0000  -0.0000  -0.0000  -0.0000

          k = 0.0000 0.4082-0.3333 (  4660 PWs)   bands (ev):

   -28.5449 -28.5449 -28.5448 -28.5448 -27.0804 -27.0804 -27.0802 -27.0802
   -27.0782 -27.0782  -9.5675  -9.5675  -9.5631  -9.5631  -7.0171  -7.0171
    -6.9975  -6.9975  -6.9806  -6.9806  -2.0575  -2.0575   0.8406   0.8406
     5.5040   5.5040   5.9440   5.9440   7.5350   7.5350  10.4050  10.4050
    12.1068  12.1068  12.9233  12.9233  14.1413  14.1413  17.3008  17.3008
    17.6534  17.6534  18.0793  18.0793  19.4306  19.4306  21.6380  21.6380

     occupation numbers 
     1.0000   1.0000   1.0000   1.0000   1.0000   1.0000   1.0000   1.0000
     1.0000   1.0000   1.0000   1.0000   1.0000   1.0000   1.0000   1.0000
     1.0000   1.0000   1.0000   1.0000   1.0000   1.0000   1.0000   1.0000
     1.0000   1.0000   1.0000   1.0000   1.0000   1.0000  -0.0000  -0.0000
    -0.0000  -0.0000  -0.0000  -0.0000  -0.0000  -0.0000  -0.0000  -0.0000
    -0.0000  -0.0000  -0.0000  -0.0000  -0.0000  -0.0000  -0.0000  -0.0000

          k =-0.0962 0.3402-0.1667 (  4670 PWs)   bands (ev):

   -28.5450 -28.5450 -28.5449 -28.5449 -27.0805 -27.0805 -27.0803 -27.0803
   -27.0783 -27.0783  -9.5671  -9.5671  -9.5635  -9.5635  -7.0108  -7.0108
    -6.9969  -6.9969  -6.9841  -6.9841  -2.5313  -2.5313   1.2955   1.2955
     6.2532   6.2532   6.9412   6.9412   7.2891   7.2891  10.3971  10.3971
    11.5619  11.5619  12.3839  12.3839  13.4657  13.4657  16.6857  16.6857
    17.0199  17.0199  17.9921  17.9921  18.5186  18.5186  20.3681  20.3681

     occupation numbers 
     1.0000   1.0000   1.0000   1.0000   1.0000   1.0000   1.0000   1.0000
     1.0000   1.0000   1.0000   1.0000   1.0000   1.0000   1.0000   1.0000
     1.0000   1.0000   1.0000   1.0000   1.0000   1.0000   1.0000   1.0000
     1.0000   1.0000   1.0000   1.0000   1.0000   1.0000  -0.0000  -0.0000
    -0.0000  -0.0000  -0.0000  -0.0000  -0.0000  -0.0000  -0.0000  -0.0000
    -0.0000  -0.0000  -0.0000  -0.0000  -0.0000  -0.0000  -0.0000  -0.0000

          k =-0.1925 0.4763 0.0000 (  4666 PWs)   bands (ev):

   -28.5450 -28.5450 -28.5448 -28.5448 -27.0805 -27.0805 -27.0802 -27.0802
   -27.0782 -27.0782  -9.5674  -9.5674  -9.5627  -9.5627  -7.0114  -7.0114
    -6.9969  -6.9969  -6.9831  -6.9831  -2.1132  -2.1132   0.5636   0.5636
     5.8511   5.8511   7.3281   7.3281   8.0198   8.0198   9.4302   9.4302
    10.4680  10.4680  12.3728  12.3728  15.3315  15.3315  16.1518  16.1518
    17.2678  17.2678  18.7232  18.7232  19.2032  19.2032  21.7590  21.7590

     occupation numbers 
     1.0000   1.0000   1.0000   1.0000   1.0000   1.0000   1.0000   1.0000
     1.0000   1.0000   1.0000   1.0000   1.0000   1.0000   1.0000   1.0000
     1.0000   1.0000   1.0000   1.0000   1.0000   1.0000   1.0000   1.0000
     1.0000   1.0000   1.0000   1.0000   1.0000   1.0000  -0.0000  -0.0000
    -0.0000  -0.0000  -0.0000  -0.0000  -0.0000  -0.0000  -0.0000  -0.0000
    -0.0000  -0.0000  -0.0000  -0.0000  -0.0000  -0.0000  -0.0000  -0.0000

          k =-0.2887 0.4082 0.1667 (  4660 PWs)   bands (ev):

   -28.5449 -28.5449 -28.5448 -28.5448 -27.0804 -27.0804 -27.0802 -27.0802
   -27.0782 -27.0782  -9.5675  -9.5675  -9.5631  -9.5631  -7.0171  -7.0171
    -6.9975  -6.9975  -6.9806  -6.9806  -2.0575  -2.0575   0.8406   0.8406
     5.5040   5.5040   5.9440   5.9440   7.5350   7.5350  10.4050  10.4050
    12.1068  12.1068  12.9233  12.9233  14.1413  14.1413  17.3008  17.3008
    17.6534  17.6534  18.0793  18.0793  19.4306  19.4306  21.6380  21.6381

     occupation numbers 
     1.0000   1.0000   1.0000   1.0000   1.0000   1.0000   1.0000   1.0000
     1.0000   1.0000   1.0000   1.0000   1.0000   1.0000   1.0000   1.0000
     1.0000   1.0000   1.0000   1.0000   1.0000   1.0000   1.0000   1.0000
     1.0000   1.0000   1.0000   1.0000   1.0000   1.0000  -0.0000  -0.0000
    -0.0000  -0.0000  -0.0000  -0.0000  -0.0000  -0.0000  -0.0000  -0.0000
    -0.0000  -0.0000  -0.0000  -0.0000  -0.0000  -0.0000  -0.0000  -0.0000

          k =-0.3849 0.3402 0.3333 (  4674 PWs)   bands (ev):

   -28.5449 -28.5449 -28.5448 -28.5448 -27.0804 -27.0804 -27.0803 -27.0803
   -27.0781 -27.0781  -9.5686  -9.5686  -9.5626  -9.5626  -7.0264  -7.0264
    -6.9975  -6.9975  -6.9759  -6.9759  -1.8355  -1.8355   0.9590   0.9590
     4.7361   4.7361   5.7778   5.7778   6.4668   6.4668  11.8734  11.8734
    12.5848  12.5848  13.4049  13.4049  13.9538  13.9538  18.0609  18.0609
    18.6842  18.6842  19.3995  19.3995  19.5097  19.5097  20.5660  20.5660

     occupation numbers 
     1.0000   1.0000   1.0000   1.0000   1.0000   1.0000   1.0000   1.0000
     1.0000   1.0000   1.0000   1.0000   1.0000   1.0000   1.0000   1.0000
     1.0000   1.0000   1.0000   1.0000   1.0000   1.0000   1.0000   1.0000
     1.0000   1.0000   1.0000   1.0000   1.0000   1.0000  -0.0000  -0.0000
    -0.0000  -0.0000  -0.0000  -0.0000  -0.0000  -0.0000  -0.0000  -0.0000
    -0.0000  -0.0000  -0.0000  -0.0000  -0.0000  -0.0000  -0.0000  -0.0000

          k = 0.0962 0.6804-0.5000 (  4670 PWs)   bands (ev):

   -28.5449 -28.5449 -28.5448 -28.5448 -27.0804 -27.0804 -27.0803 -27.0803
   -27.0781 -27.0781  -9.5684  -9.5684  -9.5628  -9.5628  -7.0267  -7.0267
    -6.9972  -6.9972  -6.9767  -6.9767  -1.6690  -1.6690   0.8311   0.8311
     4.4684   4.4684   5.2131   5.2131   7.2734   7.2734  10.9746  10.9746
    12.8832  12.8832  14.0825  14.0825  14.5050  14.5050  16.5898  16.5898
    19.1668  19.1668  20.0280  20.0280  20.1909  20.1909  20.2028  20.2028

     occupation numbers 
     1.0000   1.0000   1.0000   1.0000   1.0000   1.0000   1.0000   1.0000
     1.0000   1.0000   1.0000   1.0000   1.0000   1.0000   1.0000   1.0000
     1.0000   1.0000   1.0000   1.0000   1.0000   1.0000   1.0000   1.0000
     1.0000   1.0000   1.0000   1.0000   1.0000   1.0000  -0.0000  -0.0000
    -0.0000  -0.0000  -0.0000  -0.0000  -0.0000  -0.0000  -0.0000  -0.0000
    -0.0000  -0.0000  -0.0000  -0.0000  -0.0000  -0.0000  -0.0000  -0.0000

          k = 0.0000 0.6124-0.3333 (  4666 PWs)   bands (ev):

   -28.5449 -28.5449 -28.5448 -28.5448 -27.0804 -27.0804 -27.0802 -27.0802
   -27.0781 -27.0781  -9.5676  -9.5676  -9.5631  -9.5631  -7.0196  -7.0196
    -6.9975  -6.9975  -6.9799  -6.9799  -1.7330  -1.7330   0.5231   0.5231
     5.2484   5.2484   5.3694   5.3694   8.0492   8.0492   9.7959   9.7959
    12.8111  12.8111  13.2191  13.2191  15.0260  15.0260  15.4177  15.4177
    18.8401  18.8401  18.9856  18.9856  20.2994  20.2994  20.8523  20.8523

     occupation numbers 
     1.0000   1.0000   1.0000   1.0000   1.0000   1.0000   1.0000   1.0000
     1.0000   1.0000   1.0000   1.0000   1.0000   1.0000   1.0000   1.0000
     1.0000   1.0000   1.0000   1.0000   1.0000   1.0000   1.0000   1.0000
     1.0000   1.0000   1.0000   1.0000   1.0000   1.0000  -0.0000  -0.0000
    -0.0000  -0.0000  -0.0000  -0.0000  -0.0000  -0.0000  -0.0000  -0.0000
    -0.0000  -0.0000  -0.0000  -0.0000  -0.0000  -0.0000  -0.0000  -0.0000

          k =-0.0962 0.5443-0.1667 (  4662 PWs)   bands (ev):

   -28.5449 -28.5449 -28.5448 -28.5448 -27.0805 -27.0805 -27.0802 -27.0802
   -27.0782 -27.0782  -9.5677  -9.5677  -9.5624  -9.5624  -7.0144  -7.0144
    -6.9962  -6.9962  -6.9817  -6.9817  -1.9545  -1.9545   0.3869   0.3869
     6.1806   6.1806   6.6840   6.6840   7.3822   7.3822  10.1634  10.1634
    11.1256  11.1256  11.7809  11.7809  14.8459  14.8459  17.3927  17.3927
    18.0256  18.0256  18.4261  18.4261  19.3697  19.3697  21.2924  21.2924

     occupation numbers 
     1.0000   1.0000   1.0000   1.0000   1.0000   1.0000   1.0000   1.0000
     1.0000   1.0000   1.0000   1.0000   1.0000   1.0000   1.0000   1.0000
     1.0000   1.0000   1.0000   1.0000   1.0000   1.0000   1.0000   1.0000
     1.0000   1.0000   1.0000   1.0000   1.0000   1.0000  -0.0000  -0.0000
    -0.0000  -0.0000  -0.0000  -0.0000  -0.0000  -0.0000  -0.0000  -0.0000
    -0.0000  -0.0000  -0.0000  -0.0000  -0.0000  -0.0000  -0.0000  -0.0000

          k =-0.1925-0.5443 0.0000 (  4662 PWs)   bands (ev):

   -28.5449 -28.5449 -28.5448 -28.5448 -27.0805 -27.0805 -27.0802 -27.0802
   -27.0782 -27.0782  -9.5677  -9.5677  -9.5624  -9.5624  -7.0144  -7.0144
    -6.9962  -6.9962  -6.9817  -6.9817  -1.9545  -1.9545   0.3869   0.3869
     6.1806   6.1806   6.6840   6.6840   7.3822   7.3822  10.1634  10.1634
    11.1256  11.1256  11.7809  11.7809  14.8459  14.8459  17.3927  17.3927
    18.0256  18.0256  18.4261  18.4261  19.3697  19.3697  21.2924  21.2925

     occupation numbers 
     1.0000   1.0000   1.0000   1.0000   1.0000   1.0000   1.0000   1.0000
     1.0000   1.0000   1.0000   1.0000   1.0000   1.0000   1.0000   1.0000
     1.0000   1.0000   1.0000   1.0000   1.0000   1.0000   1.0000   1.0000
     1.0000   1.0000   1.0000   1.0000   1.0000   1.0000  -0.0000  -0.0000
    -0.0000  -0.0000  -0.0000  -0.0000  -0.0000  -0.0000  -0.0000  -0.0000
    -0.0000  -0.0000  -0.0000  -0.0000  -0.0000  -0.0000  -0.0000  -0.0000

          k =-0.2887-0.6124 0.1667 (  4666 PWs)   bands (ev):

   -28.5449 -28.5449 -28.5448 -28.5448 -27.0804 -27.0804 -27.0802 -27.0802
   -27.0781 -27.0781  -9.5676  -9.5676  -9.5631  -9.5631  -7.0196  -7.0196
    -6.9975  -6.9975  -6.9799  -6.9799  -1.7330  -1.7330   0.5231   0.5231
     5.2484   5.2484   5.3694   5.3694   8.0492   8.0492   9.7959   9.7959
    12.8111  12.8111  13.2191  13.2191  15.0260  15.0260  15.4177  15.4177
    18.8401  18.8401  18.9856  18.9856  20.2994  20.2994  20.8523  20.8523

     occupation numbers 
     1.0000   1.0000   1.0000   1.0000   1.0000   1.0000   1.0000   1.0000
     1.0000   1.0000   1.0000   1.0000   1.0000   1.0000   1.0000   1.0000
     1.0000   1.0000   1.0000   1.0000   1.0000   1.0000   1.0000   1.0000
     1.0000   1.0000   1.0000   1.0000   1.0000   1.0000  -0.0000  -0.0000
    -0.0000  -0.0000  -0.0000  -0.0000  -0.0000  -0.0000  -0.0000  -0.0000
    -0.0000  -0.0000  -0.0000  -0.0000  -0.0000  -0.0000  -0.0000  -0.0000

          k =-0.3849-0.6804 0.3333 (  4670 PWs)   bands (ev):

   -28.5449 -28.5449 -28.5448 -28.5448 -27.0804 -27.0804 -27.0803 -27.0803
   -27.0781 -27.0781  -9.5684  -9.5684  -9.5628  -9.5628  -7.0267  -7.0267
    -6.9972  -6.9972  -6.9767  -6.9767  -1.6690  -1.6690   0.8311   0.8311
     4.4684   4.4684   5.2131   5.2131   7.2734   7.2734  10.9746  10.9746
    12.8832  12.8832  14.0825  14.0825  14.5050  14.5050  16.5898  16.5898
    19.1668  19.1668  20.0280  20.0280  20.1909  20.1909  20.2028  20.2029

     occupation numbers 
     1.0000   1.0000   1.0000   1.0000   1.0000   1.0000   1.0000   1.0000
     1.0000   1.0000   1.0000   1.0000   1.0000   1.0000   1.0000   1.0000
     1.0000   1.0000   1.0000   1.0000   1.0000   1.0000   1.0000   1.0000
     1.0000   1.0000   1.0000   1.0000   1.0000   1.0000  -0.0000  -0.0000
    -0.0000  -0.0000  -0.0000  -0.0000  -0.0000  -0.0000  -0.0000  -0.0000
    -0.0000  -0.0000  -0.0000  -0.0000  -0.0000  -0.0000  -0.0000  -0.0000

          k = 0.0962-0.3402-0.5000 (  4674 PWs)   bands (ev):

   -28.5449 -28.5449 -28.5448 -28.5448 -27.0804 -27.0804 -27.0803 -27.0803
   -27.0781 -27.0781  -9.5686  -9.5686  -9.5626  -9.5626  -7.0264  -7.0264
    -6.9975  -6.9975  -6.9759  -6.9759  -1.8355  -1.8355   0.9590   0.9590
     4.7361   4.7361   5.7778   5.7778   6.4668   6.4668  11.8734  11.8734
    12.5848  12.5848  13.4049  13.4049  13.9538  13.9538  18.0609  18.0609
    18.6842  18.6842  19.3995  19.3995  19.5097  19.5097  20.5660  20.5660

     occupation numbers 
     1.0000   1.0000   1.0000   1.0000   1.0000   1.0000   1.0000   1.0000
     1.0000   1.0000   1.0000   1.0000   1.0000   1.0000   1.0000   1.0000
     1.0000   1.0000   1.0000   1.0000   1.0000   1.0000   1.0000   1.0000
     1.0000   1.0000   1.0000   1.0000   1.0000   1.0000  -0.0000  -0.0000
    -0.0000  -0.0000  -0.0000  -0.0000  -0.0000  -0.0000  -0.0000  -0.0000
    -0.0000  -0.0000  -0.0000  -0.0000  -0.0000  -0.0000  -0.0000  -0.0000

          k = 0.0000-0.4082-0.3333 (  4660 PWs)   bands (ev):

   -28.5449 -28.5449 -28.5448 -28.5448 -27.0804 -27.0804 -27.0802 -27.0802
   -27.0782 -27.0782  -9.5675  -9.5675  -9.5631  -9.5631  -7.0171  -7.0171
    -6.9975  -6.9975  -6.9806  -6.9806  -2.0575  -2.0575   0.8406   0.8406
     5.5040   5.5040   5.9440   5.9440   7.5350   7.5350  10.4050  10.4050
    12.1068  12.1068  12.9233  12.9233  14.1413  14.1413  17.3008  17.3008
    17.6534  17.6534  18.0793  18.0793  19.4306  19.4306  21.6380  21.6381

     occupation numbers 
     1.0000   1.0000   1.0000   1.0000   1.0000   1.0000   1.0000   1.0000
     1.0000   1.0000   1.0000   1.0000   1.0000   1.0000   1.0000   1.0000
     1.0000   1.0000   1.0000   1.0000   1.0000   1.0000   1.0000   1.0000
     1.0000   1.0000   1.0000   1.0000   1.0000   1.0000  -0.0000  -0.0000
    -0.0000  -0.0000  -0.0000  -0.0000  -0.0000  -0.0000  -0.0000  -0.0000
    -0.0000  -0.0000  -0.0000  -0.0000  -0.0000  -0.0000  -0.0000  -0.0000

          k =-0.0962-0.4763-0.1667 (  4666 PWs)   bands (ev):

   -28.5450 -28.5450 -28.5448 -28.5448 -27.0805 -27.0805 -27.0802 -27.0802
   -27.0782 -27.0782  -9.5674  -9.5674  -9.5627  -9.5627  -7.0114  -7.0114
    -6.9969  -6.9969  -6.9831  -6.9831  -2.1132  -2.1132   0.5636   0.5636
     5.8511   5.8511   7.3281   7.3281   8.0198   8.0198   9.4302   9.4302
    10.4680  10.4680  12.3728  12.3728  15.3315  15.3315  16.1518  16.1518
    17.2678  17.2678  18.7232  18.7232  19.2032  19.2032  21.7590  21.7592

     occupation numbers 
     1.0000   1.0000   1.0000   1.0000   1.0000   1.0000   1.0000   1.0000
     1.0000   1.0000   1.0000   1.0000   1.0000   1.0000   1.0000   1.0000
     1.0000   1.0000   1.0000   1.0000   1.0000   1.0000   1.0000   1.0000
     1.0000   1.0000   1.0000   1.0000   1.0000   1.0000  -0.0000  -0.0000
    -0.0000  -0.0000  -0.0000  -0.0000  -0.0000  -0.0000  -0.0000  -0.0000
    -0.0000  -0.0000  -0.0000  -0.0000  -0.0000  -0.0000  -0.0000  -0.0000

          k =-0.1925-0.3402 0.0000 (  4670 PWs)   bands (ev):

   -28.5450 -28.5450 -28.5449 -28.5449 -27.0805 -27.0805 -27.0803 -27.0803
   -27.0783 -27.0783  -9.5671  -9.5671  -9.5635  -9.5635  -7.0108  -7.0108
    -6.9969  -6.9969  -6.9841  -6.9841  -2.5313  -2.5313   1.2954   1.2954
     6.2532   6.2532   6.9412   6.9412   7.2891   7.2891  10.3971  10.3971
    11.5619  11.5619  12.3839  12.3839  13.4657  13.4657  16.6857  16.6857
    17.0199  17.0199  17.9921  17.9921  18.5186  18.5186  20.3681  20.3682

     occupation numbers 
     1.0000   1.0000   1.0000   1.0000   1.0000   1.0000   1.0000   1.0000
     1.0000   1.0000   1.0000   1.0000   1.0000   1.0000   1.0000   1.0000
     1.0000   1.0000   1.0000   1.0000   1.0000   1.0000   1.0000   1.0000
     1.0000   1.0000   1.0000   1.0000   1.0000   1.0000  -0.0000  -0.0000
    -0.0000  -0.0000  -0.0000  -0.0000  -0.0000  -0.0000  -0.0000  -0.0000
    -0.0000  -0.0000  -0.0000  -0.0000  -0.0000  -0.0000  -0.0000  -0.0000

          k =-0.2887-0.4082 0.1667 (  4660 PWs)   bands (ev):

   -28.5449 -28.5449 -28.5448 -28.5448 -27.0804 -27.0804 -27.0802 -27.0802
   -27.0782 -27.0782  -9.5675  -9.5675  -9.5631  -9.5631  -7.0171  -7.0171
    -6.9975  -6.9975  -6.9806  -6.9806  -2.0575  -2.0575   0.8406   0.8406
     5.5040   5.5040   5.9440   5.9440   7.5350   7.5350  10.4050  10.4050
    12.1068  12.1068  12.9233  12.9233  14.1413  14.1413  17.3008  17.3008
    17.6534  17.6534  18.0793  18.0793  19.4306  19.4306  21.6381  21.6381

     occupation numbers 
     1.0000   1.0000   1.0000   1.0000   1.0000   1.0000   1.0000   1.0000
     1.0000   1.0000   1.0000   1.0000   1.0000   1.0000   1.0000   1.0000
     1.0000   1.0000   1.0000   1.0000   1.0000   1.0000   1.0000   1.0000
     1.0000   1.0000   1.0000   1.0000   1.0000   1.0000  -0.0000  -0.0000
    -0.0000  -0.0000  -0.0000  -0.0000  -0.0000  -0.0000  -0.0000  -0.0000
    -0.0000  -0.0000  -0.0000  -0.0000  -0.0000  -0.0000  -0.0000  -0.0000

          k =-0.3849-0.4763 0.3333 (  4666 PWs)   bands (ev):

   -28.5449 -28.5449 -28.5448 -28.5448 -27.0804 -27.0804 -27.0802 -27.0802
   -27.0781 -27.0781  -9.5676  -9.5676  -9.5631  -9.5631  -7.0196  -7.0196
    -6.9975  -6.9975  -6.9799  -6.9799  -1.7330  -1.7330   0.5231   0.5231
     5.2484   5.2484   5.3694   5.3694   8.0492   8.0492   9.7959   9.7959
    12.8111  12.8111  13.2191  13.2191  15.0260  15.0260  15.4177  15.4177
    18.8401  18.8401  18.9856  18.9856  20.2994  20.2994  20.8523  20.8523

     occupation numbers 
     1.0000   1.0000   1.0000   1.0000   1.0000   1.0000   1.0000   1.0000
     1.0000   1.0000   1.0000   1.0000   1.0000   1.0000   1.0000   1.0000
     1.0000   1.0000   1.0000   1.0000   1.0000   1.0000   1.0000   1.0000
     1.0000   1.0000   1.0000   1.0000   1.0000   1.0000  -0.0000  -0.0000
    -0.0000  -0.0000  -0.0000  -0.0000  -0.0000  -0.0000  -0.0000  -0.0000
    -0.0000  -0.0000  -0.0000  -0.0000  -0.0000  -0.0000  -0.0000  -0.0000

          k = 0.0962-0.1361-0.5000 (  4660 PWs)   bands (ev):

   -28.5449 -28.5449 -28.5448 -28.5448 -27.0804 -27.0804 -27.0802 -27.0802
   -27.0782 -27.0782  -9.5675  -9.5675  -9.5631  -9.5631  -7.0171  -7.0171
    -6.9975  -6.9975  -6.9806  -6.9806  -2.0575  -2.0575   0.8406   0.8406
     5.5040   5.5040   5.9440   5.9440   7.5350   7.5350  10.4050  10.4050
    12.1068  12.1068  12.9233  12.9233  14.1413  14.1413  17.3008  17.3008
    17.6534  17.6534  18.0793  18.0793  19.4306  19.4306  21.6380  21.6380

     occupation numbers 
     1.0000   1.0000   1.0000   1.0000   1.0000   1.0000   1.0000   1.0000
     1.0000   1.0000   1.0000   1.0000   1.0000   1.0000   1.0000   1.0000
     1.0000   1.0000   1.0000   1.0000   1.0000   1.0000   1.0000   1.0000
     1.0000   1.0000   1.0000   1.0000   1.0000   1.0000  -0.0000  -0.0000
    -0.0000  -0.0000  -0.0000  -0.0000  -0.0000  -0.0000  -0.0000  -0.0000
    -0.0000  -0.0000  -0.0000  -0.0000  -0.0000  -0.0000  -0.0000  -0.0000

          k = 0.0000-0.2041-0.3333 (  4670 PWs)   bands (ev):

   -28.5450 -28.5450 -28.5449 -28.5449 -27.0805 -27.0805 -27.0803 -27.0803
   -27.0783 -27.0783  -9.5671  -9.5671  -9.5635  -9.5635  -7.0108  -7.0108
    -6.9969  -6.9969  -6.9841  -6.9841  -2.5313  -2.5313   1.2955   1.2955
     6.2532   6.2532   6.9412   6.9412   7.2891   7.2891  10.3971  10.3971
    11.5619  11.5619  12.3839  12.3839  13.4657  13.4657  16.6857  16.6857
    17.0199  17.0199  17.9921  17.9921  18.5186  18.5186  20.3681  20.3682

     occupation numbers 
     1.0000   1.0000   1.0000   1.0000   1.0000   1.0000   1.0000   1.0000
     1.0000   1.0000   1.0000   1.0000   1.0000   1.0000   1.0000   1.0000
     1.0000   1.0000   1.0000   1.0000   1.0000   1.0000   1.0000   1.0000
     1.0000   1.0000   1.0000   1.0000   1.0000   1.0000  -0.0000  -0.0000
    -0.0000  -0.0000  -0.0000  -0.0000  -0.0000  -0.0000  -0.0000  -0.0000
    -0.0000  -0.0000  -0.0000  -0.0000  -0.0000  -0.0000  -0.0000  -0.0000

          k =-0.0962-0.2722-0.1667 (  4689 PWs)   bands (ev):

   -28.5450 -28.5450 -28.5449 -28.5449 -27.0805 -27.0805 -27.0803 -27.0803
   -27.0784 -27.0784  -9.5667  -9.5667  -9.5639  -9.5639  -7.0054  -7.0054
    -6.9976  -6.9976  -6.9872  -6.9872  -2.7218  -2.7218   1.4829   1.4829
     6.1709   6.1709   7.6699   7.6699   8.3461   8.3461   9.3875   9.3875
    10.6322  10.6322  12.6376  12.6376  14.4493  14.4493  15.0054  15.0054
    16.6970  16.6970  16.9724  16.9724  19.4530  19.4530  19.6529  19.6530

     occupation numbers 
     1.0000   1.0000   1.0000   1.0000   1.0000   1.0000   1.0000   1.0000
     1.0000   1.0000   1.0000   1.0000   1.0000   1.0000   1.0000   1.0000
     1.0000   1.0000   1.0000   1.0000   1.0000   1.0000   1.0000   1.0000
     1.0000   1.0000   1.0000   1.0000   1.0331   1.0331  -0.0000  -0.0000
    -0.0000  -0.0000  -0.0000  -0.0000  -0.0000  -0.0000  -0.0000  -0.0000
    -0.0000  -0.0000  -0.0000  -0.0000  -0.0000  -0.0000  -0.0000  -0.0000

          k =-0.1925-0.1361 0.0000 (  4681 PWs)   bands (ev):

   -28.5450 -28.5450 -28.5450 -28.5450 -27.0805 -27.0805 -27.0805 -27.0805
   -27.0784 -27.0784  -9.5662  -9.5662  -9.5649  -9.5649  -7.0040  -7.0040
    -6.9975  -6.9975  -6.9893  -6.9893  -2.9952  -2.9952   2.1200   2.1200
     6.2973   6.2973   7.1171   7.1171   8.1477   8.1477   9.9218   9.9218
    12.1242  12.1242  13.1617  13.1617  13.2471  13.2471  15.5444  15.5444
    15.8006  15.8006  16.4431  16.4431  16.7997  16.7997  17.9062  17.9062

     occupation numbers 
     1.0000   1.0000   1.0000   1.0000   1.0000   1.0000   1.0000   1.0000
     1.0000   1.0000   1.0000   1.0000   1.0000   1.0000   1.0000   1.0000
     1.0000   1.0000   1.0000   1.0000   1.0000   1.0000   1.0000   1.0000
     1.0000   1.0000   1.0000   1.0000   1.0008   1.0008  -0.0000  -0.0000
    -0.0000  -0.0000  -0.0000  -0.0000  -0.0000  -0.0000  -0.0000  -0.0000
    -0.0000  -0.0000  -0.0000  -0.0000  -0.0000  -0.0000  -0.0000  -0.0000

          k =-0.2887-0.2041 0.1667 (  4670 PWs)   bands (ev):

   -28.5450 -28.5450 -28.5449 -28.5449 -27.0805 -27.0805 -27.0803 -27.0803
   -27.0783 -27.0783  -9.5671  -9.5671  -9.5635  -9.5635  -7.0108  -7.0108
    -6.9969  -6.9969  -6.9841  -6.9841  -2.5313  -2.5313   1.2954   1.2954
     6.2532   6.2532   6.9412   6.9412   7.2891   7.2891  10.3971  10.3971
    11.5619  11.5619  12.3839  12.3839  13.4657  13.4657  16.6857  16.6857
    17.0199  17.0199  17.9921  17.9921  18.5186  18.5186  20.3681  20.3682

     occupation numbers 
     1.0000   1.0000   1.0000   1.0000   1.0000   1.0000   1.0000   1.0000
     1.0000   1.0000   1.0000   1.0000   1.0000   1.0000   1.0000   1.0000
     1.0000   1.0000   1.0000   1.0000   1.0000   1.0000   1.0000   1.0000
     1.0000   1.0000   1.0000   1.0000   1.0000   1.0000  -0.0000  -0.0000
    -0.0000  -0.0000  -0.0000  -0.0000  -0.0000  -0.0000  -0.0000  -0.0000
    -0.0000  -0.0000  -0.0000  -0.0000  -0.0000  -0.0000  -0.0000  -0.0000

          k =-0.3849-0.2722 0.3333 (  4662 PWs)   bands (ev):

   -28.5449 -28.5449 -28.5448 -28.5448 -27.0805 -27.0805 -27.0802 -27.0802
   -27.0782 -27.0782  -9.5677  -9.5677  -9.5624  -9.5624  -7.0144  -7.0144
    -6.9962  -6.9962  -6.9817  -6.9817  -1.9545  -1.9545   0.3869   0.3869
     6.1806   6.1806   6.6840   6.6840   7.3822   7.3822  10.1634  10.1634
    11.1256  11.1256  11.7809  11.7809  14.8459  14.8459  17.3927  17.3927
    18.0256  18.0256  18.4261  18.4261  19.3697  19.3697  21.2924  21.2924

     occupation numbers 
     1.0000   1.0000   1.0000   1.0000   1.0000   1.0000   1.0000   1.0000
     1.0000   1.0000   1.0000   1.0000   1.0000   1.0000   1.0000   1.0000
     1.0000   1.0000   1.0000   1.0000   1.0000   1.0000   1.0000   1.0000
     1.0000   1.0000   1.0000   1.0000   1.0000   1.0000  -0.0000  -0.0000
    -0.0000  -0.0000  -0.0000  -0.0000  -0.0000  -0.0000  -0.0000  -0.0000
    -0.0000  -0.0000  -0.0000  -0.0000  -0.0000  -0.0000  -0.0000  -0.0000

          k = 0.0962 0.0680-0.5000 (  4666 PWs)   bands (ev):

   -28.5450 -28.5450 -28.5448 -28.5448 -27.0805 -27.0805 -27.0802 -27.0802
   -27.0782 -27.0782  -9.5674  -9.5674  -9.5627  -9.5627  -7.0114  -7.0114
    -6.9969  -6.9969  -6.9831  -6.9831  -2.1132  -2.1132   0.5636   0.5636
     5.8511   5.8511   7.3281   7.3281   8.0198   8.0198   9.4302   9.4302
    10.4680  10.4680  12.3728  12.3728  15.3315  15.3315  16.1518  16.1518
    17.2678  17.2678  18.7232  18.7232  19.2032  19.2032  21.7590  21.7590

     occupation numbers 
     1.0000   1.0000   1.0000   1.0000   1.0000   1.0000   1.0000   1.0000
     1.0000   1.0000   1.0000   1.0000   1.0000   1.0000   1.0000   1.0000
     1.0000   1.0000   1.0000   1.0000   1.0000   1.0000   1.0000   1.0000
     1.0000   1.0000   1.0000   1.0000   1.0000   1.0000  -0.0000  -0.0000
    -0.0000  -0.0000  -0.0000  -0.0000  -0.0000  -0.0000  -0.0000  -0.0000
    -0.0000  -0.0000  -0.0000  -0.0000  -0.0000  -0.0000  -0.0000  -0.0000

          k = 0.0000 0.0000-0.3333 (  4689 PWs)   bands (ev):

   -28.5450 -28.5450 -28.5449 -28.5449 -27.0805 -27.0805 -27.0803 -27.0803
   -27.0784 -27.0784  -9.5667  -9.5667  -9.5639  -9.5639  -7.0054  -7.0054
    -6.9976  -6.9976  -6.9872  -6.9872  -2.7218  -2.7218   1.4829   1.4829
     6.1709   6.1709   7.6699   7.6699   8.3461   8.3461   9.3875   9.3875
    10.6322  10.6322  12.6376  12.6376  14.4493  14.4493  15.0054  15.0054
    16.6970  16.6970  16.9724  16.9724  19.4529  19.4530  19.6529  19.6530

     occupation numbers 
     1.0000   1.0000   1.0000   1.0000   1.0000   1.0000   1.0000   1.0000
     1.0000   1.0000   1.0000   1.0000   1.0000   1.0000   1.0000   1.0000
     1.0000   1.0000   1.0000   1.0000   1.0000   1.0000   1.0000   1.0000
     1.0000   1.0000   1.0000   1.0000   1.0331   1.0331  -0.0000  -0.0000
    -0.0000  -0.0000  -0.0000  -0.0000  -0.0000  -0.0000  -0.0000  -0.0000
    -0.0000  -0.0000  -0.0000  -0.0000  -0.0000  -0.0000  -0.0000  -0.0000

          k =-0.0962-0.0680-0.1667 (  4699 PWs)   bands (ev):

   -28.5451 -28.5451 -28.5450 -28.5450 -27.0805 -27.0805 -27.0805 -27.0805
   -27.0785 -27.0785  -9.5664  -9.5664  -9.5647  -9.5647  -7.0019  -7.0019
    -6.9969  -6.9969  -6.9911  -6.9911  -3.0676  -3.0676   2.1580   2.1580
     6.6218   6.6218   7.5827   7.5827   7.7657   7.7657  10.2880  10.2880
    11.8718  11.8718  12.1162  12.1162  14.2300  14.2300  14.8384  14.8384
    14.8920  14.8920  17.3217  17.3217  17.7055  17.7055  17.9662  17.9662

     occupation numbers 
     1.0000   1.0000   1.0000   1.0000   1.0000   1.0000   1.0000   1.0000
     1.0000   1.0000   1.0000   1.0000   1.0000   1.0000   1.0000   1.0000
     1.0000   1.0000   1.0000   1.0000   1.0000   1.0000   1.0000   1.0000
     1.0000   1.0000   1.0000   1.0000   1.0000   1.0000  -0.0000  -0.0000
    -0.0000  -0.0000  -0.0000  -0.0000  -0.0000  -0.0000  -0.0000  -0.0000
    -0.0000  -0.0000  -0.0000  -0.0000  -0.0000  -0.0000  -0.0000  -0.0000

     the Fermi energy is     8.4971 ev

!    total energy              =    -350.14531338 Ry
     estimated scf accuracy    <          8.8E-09 Ry
     smearing contrib. (-TS)   =      -0.00002897 Ry
     internal energy E=F+TS    =    -350.14528441 Ry

     The total energy is F=E-TS. E is the sum of the following terms:
     one-electron contribution =    -137.49881142 Ry
     hartree contribution      =      83.36064560 Ry
     xc contribution           =     -88.94099770 Ry
     ewald contribution        =    -207.06612089 Ry

     convergence has been achieved in   8 iterations

     Writing all to output data dir ./out_soc_nc_PbTe/PbTe_soc_nc.save/ :
     XML data file, charge density, pseudopotentials, collected wavefunctions

     init_run     :      6.27s CPU      7.63s WALL (       1 calls)
     electrons    :    160.96s CPU    177.73s WALL (       1 calls)

     Called by init_run:
     wfcinit      :      5.32s CPU      6.65s WALL (       1 calls)
     wfcinit:atom :      0.05s CPU      0.08s WALL (      27 calls)
     wfcinit:wfcr :      5.11s CPU      5.30s WALL (      27 calls)
     potinit      :      0.14s CPU      0.15s WALL (       1 calls)
     hinit0       :      0.79s CPU      0.80s WALL (       1 calls)

     Called by electrons:
     c_bands      :    143.60s CPU    157.12s WALL (       9 calls)
     sum_band     :     16.74s CPU     19.45s WALL (       9 calls)
     v_of_rho     :      0.33s CPU      0.55s WALL (       9 calls)
     v_h          :      0.01s CPU      0.04s WALL (       9 calls)
     v_xc         :      0.32s CPU      0.51s WALL (       9 calls)
     mix_rho      :      0.08s CPU      0.25s WALL (       9 calls)

     Called by c_bands:
     init_us_2    :      0.93s CPU      1.19s WALL (     513 calls)
     cegterg      :    126.73s CPU    136.86s WALL (     243 calls)

     Called by sum_band:
     sum_band:wei :      0.03s CPU      0.04s WALL (       9 calls)
     sum_band:loo :     16.17s CPU     18.71s WALL (       9 calls)
     sum_band:buf :      0.00s CPU      0.67s WALL (     243 calls)
     sum_band:ini :      0.41s CPU      0.55s WALL (     243 calls)

     Called by *egterg:
     cdiaghg      :      2.21s CPU      2.32s WALL (    1012 calls)
     cegterg:over :     12.12s CPU     12.93s WALL (     796 calls)
     cegterg:upda :      7.30s CPU      7.76s WALL (     796 calls)
     cegterg:last :     12.27s CPU     13.02s WALL (     476 calls)
     h_psi        :     91.73s CPU     99.37s WALL (    1066 calls)
     g_psi        :      0.39s CPU      0.42s WALL (     796 calls)

     Called by h_psi:
     h_psi:calbec :      8.27s CPU      8.80s WALL (    1066 calls)
     vloc_psi     :     74.96s CPU     81.44s WALL (    1066 calls)
                                        0.00s GPU  (    1066 calls)
     add_vuspsi   :      8.22s CPU      8.78s WALL (    1066 calls)

     General routines
     calbec       :      8.27s CPU      8.79s WALL (    1066 calls)
     fft          :      0.52s CPU      0.54s WALL (     142 calls)
     ffts         :      0.03s CPU      0.03s WALL (      36 calls)
     fftw         :     80.98s CPU     87.92s WALL (  138688 calls)
     davcio       :      0.01s CPU      4.02s WALL (     851 calls)

     Parallel routines

     PWSCF        :   2m47.50s CPU   3m 8.73s WALL


   This run was terminated on:  22: 4:37  12Jul2026            

=------------------------------------------------------------------------------=
   JOB DONE.
=------------------------------------------------------------------------------=
