
     Program PWSCF v.7.5 starts on 10Jul2026 at 22:27:40 

     This program is part of the open-source Quantum ESPRESSO suite
     for quantum simulation of materials; please cite
         "P. Giannozzi et al., J. Phys.:Condens. Matter 21 395502 (2009);
         "P. Giannozzi et al., J. Phys.:Condens. Matter 29 465901 (2017);
         "P. Giannozzi et al., J. Chem. Phys. 152 154105 (2020);
          URL http://www.quantum-espresso.org", 
     in publications or presentations arising from this work. More details at
     http://www.quantum-espresso.org/quote

     Parallel version (MPI & OpenMP), running on       8 processor cores
     Number of MPI processes:                 8
     Threads/MPI process:                     1

     MPI processes distributed on     1 nodes
     0 MiB available memory on the printing compute node when the environment starts

     Reading input from Ba3Bi2.scf.soc.nc.in

     Current dimensions of program PWSCF are:
     Max number of different atomic species (ntypx) = 10
     Max number of k-points (npk) =  40000
     Max angular momentum in pseudopotentials (lmaxx) =  4

     K-points division:     npool     =       8
     Subspace diagonalization in iterative solution of the eigenvalue problem:
     a serial algorithm will be used


     G-vector sticks info
     --------------------
     sticks:   dense  smooth     PW     G-vecs:    dense   smooth      PW
     Sum        3397    3397    949               150117   150117   21975

     Using Slab Decomposition



     bravais-lattice index     =            0
     lattice parameter (alat)  =      12.3817  a.u.
     unit-cell volume          =    1898.2163 (a.u.)^3
     number of atoms/cell      =            5
     number of atomic types    =            2
     number of electrons       =        60.00
     number of Kohn-Sham states=           96
     kinetic-energy cutoff     =      70.0000  Ry
     charge density cutoff     =     280.0000  Ry
     scf convergence threshold =      1.0E-08
     mixing beta               =       0.3000
     number of iterations used =            8  plain     mixing
     Exchange-correlation= PBE
                           (   1   4   3   4   0   0   0)
     Non magnetic calculation with spin-orbit


     celldm(1)=  12.381746  celldm(2)=   0.000000  celldm(3)=   0.000000
     celldm(4)=   0.000000  celldm(5)=   0.000000  celldm(6)=   0.000000

     crystal axes: (cart. coord. in units of alat)
               a(1) = (   1.000000   0.000000   0.000000 )  
               a(2) = (   0.000000   1.000000   0.000000 )  
               a(3) = (   0.000000   0.000000   1.000000 )  

     reciprocal axes: (cart. coord. in units 2 pi/alat)
               b(1) = (  1.000000  0.000000  0.000000 )  
               b(2) = (  0.000000  1.000000  0.000000 )  
               b(3) = (  0.000000  0.000000  1.000000 )  


     PseudoPot. # 1 for Ba read from file:
     ./pseudo_nc/Ba_FR.upf
     MD5 check sum: c3493f42e3a3b2e6d8ad780f479f7165
     Pseudo is Norm-conserving + core correction, Zval = 10.0
     Generated using ONCVPSP code by D. R. Hamann
     Using radial grid of 1958 points, 10 beta functions with: 
                l(1) =   0
                l(2) =   0
                l(3) =   1
                l(4) =   1
                l(5) =   1
                l(6) =   1
                l(7) =   2
                l(8) =   2
                l(9) =   2
               l(10) =   2

     PseudoPot. # 2 for Bi read from file:
     ./pseudo_nc/Bi_FR.upf
     MD5 check sum: 260977096fd1df4b879f04c556a28fcb
     Pseudo is Norm-conserving + core correction, Zval = 15.0
     Generated using ONCVPSP code by D. R. Hamann
     Using radial grid of 1562 points, 10 beta functions with: 
                l(1) =   0
                l(2) =   0
                l(3) =   1
                l(4) =   1
                l(5) =   1
                l(6) =   1
                l(7) =   2
                l(8) =   2
                l(9) =   2
               l(10) =   2

     atomic species   valence    mass     pseudopotential
     Ba               10.00   137.32700     Ba( 1.00)
     Bi               15.00   208.98000     Bi( 1.00)

     No symmetry found


                                    s                        frac. trans.

      isym =  1     identity                                     

 cryst.   s( 1) = (     1          0          0      )
                  (     0          1          0      )
                  (     0          0          1      )

 cart.    s( 1) = (  1.0000000  0.0000000  0.0000000 )
                  (  0.0000000  1.0000000  0.0000000 )
                  (  0.0000000  0.0000000  1.0000000 )


   Cartesian axes

     site n.     atom                  positions (alat units)
         1        Ba     tau(   1) = (   0.0000000   0.5000000   0.5000000  )
         2        Ba     tau(   2) = (   0.5000000   0.0000000   0.5000000  )
         3        Ba     tau(   3) = (   0.5000000   0.5000000   0.0000000  )
         4        Bi     tau(   4) = (   0.0000000   0.0000000   0.0000000  )
         5        Bi     tau(   5) = (   0.5000000   0.5000000   0.5000000  )

   Crystallographic axes

     site n.     atom                  positions (cryst. coord.)
         1        Ba     tau(   1) = (  0.0000000  0.5000000  0.5000000  )
         2        Ba     tau(   2) = (  0.5000000  0.0000000  0.5000000  )
         3        Ba     tau(   3) = (  0.5000000  0.5000000  0.0000000  )
         4        Bi     tau(   4) = (  0.0000000  0.0000000  0.0000000  )
         5        Bi     tau(   5) = (  0.5000000  0.5000000  0.5000000  )

     number of k points=    64  Methfessel-Paxton smearing, width (Ry)=  0.0100
                       cart. coord. in units 2pi/alat
        k(    1) = (   0.0000000   0.0000000   0.0000000), wk =   0.0156250
        k(    2) = (   0.0000000   0.0000000   0.2500000), wk =   0.0156250
        k(    3) = (   0.0000000   0.0000000  -0.5000000), wk =   0.0156250
        k(    4) = (   0.0000000   0.0000000  -0.2500000), wk =   0.0156250
        k(    5) = (   0.0000000   0.2500000   0.0000000), wk =   0.0156250
        k(    6) = (   0.0000000   0.2500000   0.2500000), wk =   0.0156250
        k(    7) = (   0.0000000   0.2500000  -0.5000000), wk =   0.0156250
        k(    8) = (   0.0000000   0.2500000  -0.2500000), wk =   0.0156250
        k(    9) = (   0.0000000  -0.5000000   0.0000000), wk =   0.0156250
        k(   10) = (   0.0000000  -0.5000000   0.2500000), wk =   0.0156250
        k(   11) = (   0.0000000  -0.5000000  -0.5000000), wk =   0.0156250
        k(   12) = (   0.0000000  -0.5000000  -0.2500000), wk =   0.0156250
        k(   13) = (   0.0000000  -0.2500000   0.0000000), wk =   0.0156250
        k(   14) = (   0.0000000  -0.2500000   0.2500000), wk =   0.0156250
        k(   15) = (   0.0000000  -0.2500000  -0.5000000), wk =   0.0156250
        k(   16) = (   0.0000000  -0.2500000  -0.2500000), wk =   0.0156250
        k(   17) = (   0.2500000   0.0000000   0.0000000), wk =   0.0156250
        k(   18) = (   0.2500000   0.0000000   0.2500000), wk =   0.0156250
        k(   19) = (   0.2500000   0.0000000  -0.5000000), wk =   0.0156250
        k(   20) = (   0.2500000   0.0000000  -0.2500000), wk =   0.0156250
        k(   21) = (   0.2500000   0.2500000   0.0000000), wk =   0.0156250
        k(   22) = (   0.2500000   0.2500000   0.2500000), wk =   0.0156250
        k(   23) = (   0.2500000   0.2500000  -0.5000000), wk =   0.0156250
        k(   24) = (   0.2500000   0.2500000  -0.2500000), wk =   0.0156250
        k(   25) = (   0.2500000  -0.5000000   0.0000000), wk =   0.0156250
        k(   26) = (   0.2500000  -0.5000000   0.2500000), wk =   0.0156250
        k(   27) = (   0.2500000  -0.5000000  -0.5000000), wk =   0.0156250
        k(   28) = (   0.2500000  -0.5000000  -0.2500000), wk =   0.0156250
        k(   29) = (   0.2500000  -0.2500000   0.0000000), wk =   0.0156250
        k(   30) = (   0.2500000  -0.2500000   0.2500000), wk =   0.0156250
        k(   31) = (   0.2500000  -0.2500000  -0.5000000), wk =   0.0156250
        k(   32) = (   0.2500000  -0.2500000  -0.2500000), wk =   0.0156250
        k(   33) = (  -0.5000000   0.0000000   0.0000000), wk =   0.0156250
        k(   34) = (  -0.5000000   0.0000000   0.2500000), wk =   0.0156250
        k(   35) = (  -0.5000000   0.0000000  -0.5000000), wk =   0.0156250
        k(   36) = (  -0.5000000   0.0000000  -0.2500000), wk =   0.0156250
        k(   37) = (  -0.5000000   0.2500000   0.0000000), wk =   0.0156250
        k(   38) = (  -0.5000000   0.2500000   0.2500000), wk =   0.0156250
        k(   39) = (  -0.5000000   0.2500000  -0.5000000), wk =   0.0156250
        k(   40) = (  -0.5000000   0.2500000  -0.2500000), wk =   0.0156250
        k(   41) = (  -0.5000000  -0.5000000   0.0000000), wk =   0.0156250
        k(   42) = (  -0.5000000  -0.5000000   0.2500000), wk =   0.0156250
        k(   43) = (  -0.5000000  -0.5000000  -0.5000000), wk =   0.0156250
        k(   44) = (  -0.5000000  -0.5000000  -0.2500000), wk =   0.0156250
        k(   45) = (  -0.5000000  -0.2500000   0.0000000), wk =   0.0156250
        k(   46) = (  -0.5000000  -0.2500000   0.2500000), wk =   0.0156250
        k(   47) = (  -0.5000000  -0.2500000  -0.5000000), wk =   0.0156250
        k(   48) = (  -0.5000000  -0.2500000  -0.2500000), wk =   0.0156250
        k(   49) = (  -0.2500000   0.0000000   0.0000000), wk =   0.0156250
        k(   50) = (  -0.2500000   0.0000000   0.2500000), wk =   0.0156250
        k(   51) = (  -0.2500000   0.0000000  -0.5000000), wk =   0.0156250
        k(   52) = (  -0.2500000   0.0000000  -0.2500000), wk =   0.0156250
        k(   53) = (  -0.2500000   0.2500000   0.0000000), wk =   0.0156250
        k(   54) = (  -0.2500000   0.2500000   0.2500000), wk =   0.0156250
        k(   55) = (  -0.2500000   0.2500000  -0.5000000), wk =   0.0156250
        k(   56) = (  -0.2500000   0.2500000  -0.2500000), wk =   0.0156250
        k(   57) = (  -0.2500000  -0.5000000   0.0000000), wk =   0.0156250
        k(   58) = (  -0.2500000  -0.5000000   0.2500000), wk =   0.0156250
        k(   59) = (  -0.2500000  -0.5000000  -0.5000000), wk =   0.0156250
        k(   60) = (  -0.2500000  -0.5000000  -0.2500000), wk =   0.0156250
        k(   61) = (  -0.2500000  -0.2500000   0.0000000), wk =   0.0156250
        k(   62) = (  -0.2500000  -0.2500000   0.2500000), wk =   0.0156250
        k(   63) = (  -0.2500000  -0.2500000  -0.5000000), wk =   0.0156250
        k(   64) = (  -0.2500000  -0.2500000  -0.2500000), wk =   0.0156250

                       cryst. coord.
        k(    1) = (   0.0000000   0.0000000   0.0000000), wk =   0.0156250
        k(    2) = (   0.0000000   0.0000000   0.2500000), wk =   0.0156250
        k(    3) = (   0.0000000   0.0000000  -0.5000000), wk =   0.0156250
        k(    4) = (   0.0000000   0.0000000  -0.2500000), wk =   0.0156250
        k(    5) = (   0.0000000   0.2500000   0.0000000), wk =   0.0156250
        k(    6) = (   0.0000000   0.2500000   0.2500000), wk =   0.0156250
        k(    7) = (   0.0000000   0.2500000  -0.5000000), wk =   0.0156250
        k(    8) = (   0.0000000   0.2500000  -0.2500000), wk =   0.0156250
        k(    9) = (   0.0000000  -0.5000000   0.0000000), wk =   0.0156250
        k(   10) = (   0.0000000  -0.5000000   0.2500000), wk =   0.0156250
        k(   11) = (   0.0000000  -0.5000000  -0.5000000), wk =   0.0156250
        k(   12) = (   0.0000000  -0.5000000  -0.2500000), wk =   0.0156250
        k(   13) = (   0.0000000  -0.2500000   0.0000000), wk =   0.0156250
        k(   14) = (   0.0000000  -0.2500000   0.2500000), wk =   0.0156250
        k(   15) = (   0.0000000  -0.2500000  -0.5000000), wk =   0.0156250
        k(   16) = (   0.0000000  -0.2500000  -0.2500000), wk =   0.0156250
        k(   17) = (   0.2500000   0.0000000   0.0000000), wk =   0.0156250
        k(   18) = (   0.2500000   0.0000000   0.2500000), wk =   0.0156250
        k(   19) = (   0.2500000   0.0000000  -0.5000000), wk =   0.0156250
        k(   20) = (   0.2500000   0.0000000  -0.2500000), wk =   0.0156250
        k(   21) = (   0.2500000   0.2500000   0.0000000), wk =   0.0156250
        k(   22) = (   0.2500000   0.2500000   0.2500000), wk =   0.0156250
        k(   23) = (   0.2500000   0.2500000  -0.5000000), wk =   0.0156250
        k(   24) = (   0.2500000   0.2500000  -0.2500000), wk =   0.0156250
        k(   25) = (   0.2500000  -0.5000000   0.0000000), wk =   0.0156250
        k(   26) = (   0.2500000  -0.5000000   0.2500000), wk =   0.0156250
        k(   27) = (   0.2500000  -0.5000000  -0.5000000), wk =   0.0156250
        k(   28) = (   0.2500000  -0.5000000  -0.2500000), wk =   0.0156250
        k(   29) = (   0.2500000  -0.2500000   0.0000000), wk =   0.0156250
        k(   30) = (   0.2500000  -0.2500000   0.2500000), wk =   0.0156250
        k(   31) = (   0.2500000  -0.2500000  -0.5000000), wk =   0.0156250
        k(   32) = (   0.2500000  -0.2500000  -0.2500000), wk =   0.0156250
        k(   33) = (  -0.5000000   0.0000000   0.0000000), wk =   0.0156250
        k(   34) = (  -0.5000000   0.0000000   0.2500000), wk =   0.0156250
        k(   35) = (  -0.5000000   0.0000000  -0.5000000), wk =   0.0156250
        k(   36) = (  -0.5000000   0.0000000  -0.2500000), wk =   0.0156250
        k(   37) = (  -0.5000000   0.2500000   0.0000000), wk =   0.0156250
        k(   38) = (  -0.5000000   0.2500000   0.2500000), wk =   0.0156250
        k(   39) = (  -0.5000000   0.2500000  -0.5000000), wk =   0.0156250
        k(   40) = (  -0.5000000   0.2500000  -0.2500000), wk =   0.0156250
        k(   41) = (  -0.5000000  -0.5000000   0.0000000), wk =   0.0156250
        k(   42) = (  -0.5000000  -0.5000000   0.2500000), wk =   0.0156250
        k(   43) = (  -0.5000000  -0.5000000  -0.5000000), wk =   0.0156250
        k(   44) = (  -0.5000000  -0.5000000  -0.2500000), wk =   0.0156250
        k(   45) = (  -0.5000000  -0.2500000   0.0000000), wk =   0.0156250
        k(   46) = (  -0.5000000  -0.2500000   0.2500000), wk =   0.0156250
        k(   47) = (  -0.5000000  -0.2500000  -0.5000000), wk =   0.0156250
        k(   48) = (  -0.5000000  -0.2500000  -0.2500000), wk =   0.0156250
        k(   49) = (  -0.2500000   0.0000000   0.0000000), wk =   0.0156250
        k(   50) = (  -0.2500000   0.0000000   0.2500000), wk =   0.0156250
        k(   51) = (  -0.2500000   0.0000000  -0.5000000), wk =   0.0156250
        k(   52) = (  -0.2500000   0.0000000  -0.2500000), wk =   0.0156250
        k(   53) = (  -0.2500000   0.2500000   0.0000000), wk =   0.0156250
        k(   54) = (  -0.2500000   0.2500000   0.2500000), wk =   0.0156250
        k(   55) = (  -0.2500000   0.2500000  -0.5000000), wk =   0.0156250
        k(   56) = (  -0.2500000   0.2500000  -0.2500000), wk =   0.0156250
        k(   57) = (  -0.2500000  -0.5000000   0.0000000), wk =   0.0156250
        k(   58) = (  -0.2500000  -0.5000000   0.2500000), wk =   0.0156250
        k(   59) = (  -0.2500000  -0.5000000  -0.5000000), wk =   0.0156250
        k(   60) = (  -0.2500000  -0.5000000  -0.2500000), wk =   0.0156250
        k(   61) = (  -0.2500000  -0.2500000   0.0000000), wk =   0.0156250
        k(   62) = (  -0.2500000  -0.2500000   0.2500000), wk =   0.0156250
        k(   63) = (  -0.2500000  -0.2500000  -0.5000000), wk =   0.0156250
        k(   64) = (  -0.2500000  -0.2500000  -0.2500000), wk =   0.0156250

     Dense  grid:   150117 G-vectors     FFT dimensions: (  72,  72,  72)

     Dynamical RAM for                 wfc:      55.00 MB

     Dynamical RAM for     wfc (w. buffer):      55.00 MB

     Dynamical RAM for           str. fact:       4.58 MB

     Dynamical RAM for           local pot:       0.00 MB

     Dynamical RAM for          nlocal pot:      48.70 MB

     Dynamical RAM for                qrad:       7.04 MB

     Dynamical RAM for          rho,v,vnew:      61.66 MB

     Dynamical RAM for               rhoin:      20.55 MB

     Dynamical RAM for           G-vectors:       9.74 MB

     Dynamical RAM for          h,s,v(r/c):       1.69 MB

     Dynamical RAM for          <psi|beta>:       0.50 MB

     Dynamical RAM for                 psi:     110.00 MB

     Dynamical RAM for                hpsi:     110.00 MB

     Dynamical RAM for      wfcinit/wfcrot:      82.71 MB

     Estimated static dynamical RAM per process >     236.91 MB

     Estimated max dynamical RAM per process >     459.10 MB

     Estimated total dynamical RAM >       3.59 GB

     Initial potential from superposition of free atoms

     starting charge      59.9481, renormalised to      60.0000
     Starting wfcs are   66 randomized atomic wfcs +   30 random wfcs

     total cpu time spent up to now is       18.2 secs

     Self-consistent Calculation

     iteration #  1     ecut=    70.00 Ry     beta= 0.30
     Davidson diagonalization with overlap

---- Real-time Memory Report at c_bands before calling an iterative solver
             0 MiB given to the printing process from OS
             0 MiB allocation reported by mallinfo(arena+hblkhd)
             0 MiB available memory on the node where the printing process lives
------------------
     ethr =  1.00E-02,  avg # of iterations =  8.1

     Threshold (ethr) on eigenvalues was too large:
     Diagonalizing with lowered threshold

     Davidson diagonalization with overlap

---- Real-time Memory Report at c_bands before calling an iterative solver
             0 MiB given to the printing process from OS
             0 MiB allocation reported by mallinfo(arena+hblkhd)
             0 MiB available memory on the node where the printing process lives
------------------
     ethr =  3.87E-04,  avg # of iterations =  4.9

     total cpu time spent up to now is      168.0 secs

     total energy              =    -496.41643939 Ry
     estimated scf accuracy    <       0.22959674 Ry

     iteration #  2     ecut=    70.00 Ry     beta= 0.30
     Davidson diagonalization with overlap

---- Real-time Memory Report at c_bands before calling an iterative solver
             0 MiB given to the printing process from OS
             0 MiB allocation reported by mallinfo(arena+hblkhd)
             0 MiB available memory on the node where the printing process lives
------------------
     ethr =  3.83E-04,  avg # of iterations =  3.8

     total cpu time spent up to now is      219.9 secs

     total energy              =    -496.42052648 Ry
     estimated scf accuracy    <       0.04218716 Ry

     iteration #  3     ecut=    70.00 Ry     beta= 0.30
     Davidson diagonalization with overlap

---- Real-time Memory Report at c_bands before calling an iterative solver
             0 MiB given to the printing process from OS
             0 MiB allocation reported by mallinfo(arena+hblkhd)
             0 MiB available memory on the node where the printing process lives
------------------
     ethr =  7.03E-05,  avg # of iterations =  8.1

     total cpu time spent up to now is      285.8 secs

     total energy              =    -496.42570440 Ry
     estimated scf accuracy    <       0.00480170 Ry

     iteration #  4     ecut=    70.00 Ry     beta= 0.30
     Davidson diagonalization with overlap

---- Real-time Memory Report at c_bands before calling an iterative solver
             0 MiB given to the printing process from OS
             0 MiB allocation reported by mallinfo(arena+hblkhd)
             0 MiB available memory on the node where the printing process lives
------------------
     ethr =  8.00E-06,  avg # of iterations =  7.9

     total cpu time spent up to now is      352.3 secs

     total energy              =    -496.42640166 Ry
     estimated scf accuracy    <       0.00078951 Ry

     iteration #  5     ecut=    70.00 Ry     beta= 0.30
     Davidson diagonalization with overlap

---- Real-time Memory Report at c_bands before calling an iterative solver
             0 MiB given to the printing process from OS
             0 MiB allocation reported by mallinfo(arena+hblkhd)
             0 MiB available memory on the node where the printing process lives
------------------
     ethr =  1.32E-06,  avg # of iterations =  3.4

     total cpu time spent up to now is      404.5 secs

     total energy              =    -496.42653016 Ry
     estimated scf accuracy    <       0.00018901 Ry

     iteration #  6     ecut=    70.00 Ry     beta= 0.30
     Davidson diagonalization with overlap

---- Real-time Memory Report at c_bands before calling an iterative solver
             0 MiB given to the printing process from OS
             0 MiB allocation reported by mallinfo(arena+hblkhd)
             0 MiB available memory on the node where the printing process lives
------------------
     ethr =  3.15E-07,  avg # of iterations =  2.0

     total cpu time spent up to now is      455.9 secs

     total energy              =    -496.42653889 Ry
     estimated scf accuracy    <       0.00003957 Ry

     iteration #  7     ecut=    70.00 Ry     beta= 0.30
     Davidson diagonalization with overlap

---- Real-time Memory Report at c_bands before calling an iterative solver
             0 MiB given to the printing process from OS
             0 MiB allocation reported by mallinfo(arena+hblkhd)
             0 MiB available memory on the node where the printing process lives
------------------
     ethr =  6.60E-08,  avg # of iterations =  2.0

     total cpu time spent up to now is      506.3 secs

     total energy              =    -496.42654958 Ry
     estimated scf accuracy    <       0.00000511 Ry

     iteration #  8     ecut=    70.00 Ry     beta= 0.30
     Davidson diagonalization with overlap

---- Real-time Memory Report at c_bands before calling an iterative solver
             0 MiB given to the printing process from OS
             0 MiB allocation reported by mallinfo(arena+hblkhd)
             0 MiB available memory on the node where the printing process lives
------------------
     ethr =  8.52E-09,  avg # of iterations =  2.0

     total cpu time spent up to now is      555.7 secs

     total energy              =    -496.42655089 Ry
     estimated scf accuracy    <       0.00000035 Ry

     iteration #  9     ecut=    70.00 Ry     beta= 0.30
     Davidson diagonalization with overlap

---- Real-time Memory Report at c_bands before calling an iterative solver
             0 MiB given to the printing process from OS
             0 MiB allocation reported by mallinfo(arena+hblkhd)
             0 MiB available memory on the node where the printing process lives
------------------
     ethr =  5.89E-10,  avg # of iterations =  2.0

     total cpu time spent up to now is      605.1 secs

     total energy              =    -496.42655099 Ry
     estimated scf accuracy    <       0.00000002 Ry

     iteration # 10     ecut=    70.00 Ry     beta= 0.30
     Davidson diagonalization with overlap

---- Real-time Memory Report at c_bands before calling an iterative solver
             0 MiB given to the printing process from OS
             0 MiB allocation reported by mallinfo(arena+hblkhd)
             0 MiB available memory on the node where the printing process lives
------------------
     ethr =  3.62E-11,  avg # of iterations =  2.2

     total cpu time spent up to now is      663.0 secs

     total energy              =    -496.42655099 Ry
     estimated scf accuracy    <       0.00000001 Ry

     iteration # 11     ecut=    70.00 Ry     beta= 0.30
     Davidson diagonalization with overlap

---- Real-time Memory Report at c_bands before calling an iterative solver
             0 MiB given to the printing process from OS
             0 MiB allocation reported by mallinfo(arena+hblkhd)
             0 MiB available memory on the node where the printing process lives
------------------
     ethr =  2.46E-11,  avg # of iterations =  2.0

     total cpu time spent up to now is      714.4 secs

     End of self-consistent calculation

          k = 0.0000 0.0000 0.0000 ( 18805 PWs)   bands (ev):

   -22.8958 -22.8958 -22.8697 -22.8697 -22.8697 -22.8697 -17.6135 -17.6135
   -17.6135 -17.6135 -17.2873 -17.2873 -17.2873 -17.2873 -14.6482 -14.6482
   -14.6482 -14.6482 -14.6166 -14.6166 -14.2945 -14.2945 -14.2940 -14.2940
   -14.2940 -14.2940  -9.5579  -9.5579  -9.5579  -9.5579  -9.4428  -9.4428
    -7.6766  -7.6766  -7.5557  -7.5557  -7.5557  -7.5557  -7.4578  -7.4578
    -7.3787  -7.3787  -7.3787  -7.3787  -4.4931  -4.4931  -3.3052  -3.3052
     4.1306   4.1306   4.6329   4.6329   5.4494   5.4494   5.4494   5.4494
     5.4707   5.4707   6.3198   6.3198   6.3198   6.3198   6.3528   6.3528
     6.3528   6.3528   6.3776   6.3776   6.4359   6.4359   6.4359   6.4359
     8.5681   8.5681   8.5681   8.5681   8.6328   8.6328   9.0622   9.0622
     9.0622   9.0622  10.2561  10.2561  10.3892  10.3892  10.5113  10.5114
    10.5114  10.5114  10.5743  10.5743  10.8367  10.8367  11.3461  11.3462

     occupation numbers 
     1.0000   1.0000   1.0000   1.0000   1.0000   1.0000   1.0000   1.0000
     1.0000   1.0000   1.0000   1.0000   1.0000   1.0000   1.0000   1.0000
     1.0000   1.0000   1.0000   1.0000   1.0000   1.0000   1.0000   1.0000
     1.0000   1.0000   1.0000   1.0000   1.0000   1.0000   1.0000   1.0000
     1.0000   1.0000   1.0000   1.0000   1.0000   1.0000   1.0000   1.0000
     1.0000   1.0000   1.0000   1.0000   1.0000   1.0000   1.0000   1.0000
     1.0000   1.0000   1.0000   1.0000   1.0000   1.0000   1.0000   1.0000
     1.0000   1.0000   0.0787   0.0787   0.0787   0.0787  -0.0008  -0.0008
    -0.0008  -0.0008  -0.0278  -0.0278  -0.0295  -0.0295  -0.0295  -0.0295
    -0.0000  -0.0000  -0.0000  -0.0000  -0.0000  -0.0000  -0.0000  -0.0000
    -0.0000  -0.0000  -0.0000  -0.0000  -0.0000  -0.0000  -0.0000  -0.0000
    -0.0000  -0.0000  -0.0000  -0.0000  -0.0000  -0.0000  -0.0000  -0.0000

          k = 0.0000 0.0000 0.2500 ( 18765 PWs)   bands (ev):

   -22.8921 -22.8921 -22.8721 -22.8721 -22.8697 -22.8697 -17.6159 -17.6159
   -17.6136 -17.6136 -17.2873 -17.2873 -17.2873 -17.2873 -14.6551 -14.6551
   -14.6483 -14.6483 -14.6168 -14.6168 -14.2945 -14.2945 -14.2940 -14.2940
   -14.2940 -14.2940  -9.5576  -9.5576  -9.5451  -9.5451  -9.4585  -9.4585
    -7.6646  -7.6646  -7.5691  -7.5691  -7.5382  -7.5382  -7.4629  -7.4629
    -7.4328  -7.4328  -7.3920  -7.3920  -4.2717  -4.2717  -3.2933  -3.2933
     3.7437   3.7437   4.2789   4.2789   4.9815   4.9815   5.2182   5.2182
     5.3623   5.3623   5.7872   5.7872   6.2935   6.2935   6.4507   6.4507
     6.6223   6.6223   6.8794   6.8794   7.3032   7.3032   7.3084   7.3084
     8.2852   8.2852   8.7798   8.7798   8.9180   8.9180   9.0903   9.0903
     9.1592   9.1592   9.4100   9.4100   9.6796   9.6796   9.9650   9.9650
    10.0573  10.0573  10.4984  10.4984  10.8814  10.8814  11.0597  11.0597

     occupation numbers 
     1.0000   1.0000   1.0000   1.0000   1.0000   1.0000   1.0000   1.0000
     1.0000   1.0000   1.0000   1.0000   1.0000   1.0000   1.0000   1.0000
     1.0000   1.0000   1.0000   1.0000   1.0000   1.0000   1.0000   1.0000
     1.0000   1.0000   1.0000   1.0000   1.0000   1.0000   1.0000   1.0000
     1.0000   1.0000   1.0000   1.0000   1.0000   1.0000   1.0000   1.0000
     1.0000   1.0000   1.0000   1.0000   1.0000   1.0000   1.0000   1.0000
     1.0000   1.0000   1.0000   1.0000   1.0000   1.0000   1.0000   1.0000
     1.0000   1.0000   1.0000   1.0000   0.1834   0.1834  -0.0247  -0.0247
    -0.0002  -0.0002  -0.0000  -0.0000  -0.0000  -0.0000  -0.0000  -0.0000
    -0.0000  -0.0000  -0.0000  -0.0000  -0.0000  -0.0000  -0.0000  -0.0000
    -0.0000  -0.0000  -0.0000  -0.0000  -0.0000  -0.0000  -0.0000  -0.0000
    -0.0000  -0.0000  -0.0000  -0.0000  -0.0000  -0.0000  -0.0000  -0.0000

          k = 0.0000 0.0000-0.5000 ( 18752 PWs)   bands (ev):

   -22.8871 -22.8871 -22.8758 -22.8758 -22.8697 -22.8697 -17.6183 -17.6183
   -17.6136 -17.6136 -17.2873 -17.2873 -17.2873 -17.2873 -14.6619 -14.6619
   -14.6483 -14.6483 -14.6169 -14.6169 -14.2945 -14.2945 -14.2940 -14.2940
   -14.2940 -14.2940  -9.5572  -9.5572  -9.5244  -9.5244  -9.4823  -9.4823
    -7.6212  -7.6212  -7.6190  -7.6190  -7.5109  -7.5109  -7.4769  -7.4769
    -7.4766  -7.4766  -7.4065  -7.4065  -4.0403  -4.0403  -3.2819  -3.2819
     3.2541   3.2541   4.0515   4.0515   4.7440   4.7440   5.0016   5.0016
     5.2720   5.2720   5.5920   5.5920   6.5651   6.5651   6.6548   6.6548
     7.1282   7.1282   7.4694   7.4694   7.7693   7.7693   7.8930   7.8930
     7.9966   7.9966   8.4673   8.4673   8.7512   8.7512   8.9908   8.9908
     9.1286   9.1286   9.3919   9.3919   9.4604   9.4604   9.4811   9.4811
    10.1173  10.1173  10.3667  10.3667  10.4198  10.4198  10.5068  10.5068

     occupation numbers 
     1.0000   1.0000   1.0000   1.0000   1.0000   1.0000   1.0000   1.0000
     1.0000   1.0000   1.0000   1.0000   1.0000   1.0000   1.0000   1.0000
     1.0000   1.0000   1.0000   1.0000   1.0000   1.0000   1.0000   1.0000
     1.0000   1.0000   1.0000   1.0000   1.0000   1.0000   1.0000   1.0000
     1.0000   1.0000   1.0000   1.0000   1.0000   1.0000   1.0000   1.0000
     1.0000   1.0000   1.0000   1.0000   1.0000   1.0000   1.0000   1.0000
     1.0000   1.0000   1.0000   1.0000   1.0000   1.0000   1.0000   1.0000
     1.0000   1.0000   1.0000   1.0000  -0.0017  -0.0017  -0.0001  -0.0001
    -0.0000  -0.0000  -0.0000  -0.0000  -0.0000  -0.0000  -0.0000  -0.0000
    -0.0000  -0.0000  -0.0000  -0.0000  -0.0000  -0.0000  -0.0000  -0.0000
    -0.0000  -0.0000  -0.0000  -0.0000  -0.0000  -0.0000  -0.0000  -0.0000
    -0.0000  -0.0000  -0.0000  -0.0000  -0.0000  -0.0000  -0.0000  -0.0000

          k = 0.0000 0.0000-0.2500 ( 18765 PWs)   bands (ev):

   -22.8921 -22.8921 -22.8721 -22.8721 -22.8697 -22.8697 -17.6159 -17.6159
   -17.6136 -17.6136 -17.2873 -17.2873 -17.2873 -17.2873 -14.6551 -14.6551
   -14.6483 -14.6483 -14.6168 -14.6168 -14.2945 -14.2945 -14.2940 -14.2940
   -14.2940 -14.2940  -9.5576  -9.5576  -9.5451  -9.5451  -9.4585  -9.4585
    -7.6646  -7.6646  -7.5691  -7.5691  -7.5382  -7.5382  -7.4629  -7.4629
    -7.4328  -7.4328  -7.3920  -7.3920  -4.2717  -4.2717  -3.2933  -3.2933
     3.7437   3.7437   4.2789   4.2789   4.9815   4.9815   5.2182   5.2182
     5.3623   5.3623   5.7872   5.7872   6.2935   6.2935   6.4507   6.4507
     6.6223   6.6223   6.8794   6.8794   7.3032   7.3032   7.3084   7.3084
     8.2852   8.2852   8.7798   8.7798   8.9180   8.9180   9.0903   9.0903
     9.1592   9.1592   9.4100   9.4100   9.6796   9.6796   9.9650   9.9650
    10.0573  10.0573  10.4984  10.4984  10.8814  10.8814  11.0597  11.0597

     occupation numbers 
     1.0000   1.0000   1.0000   1.0000   1.0000   1.0000   1.0000   1.0000
     1.0000   1.0000   1.0000   1.0000   1.0000   1.0000   1.0000   1.0000
     1.0000   1.0000   1.0000   1.0000   1.0000   1.0000   1.0000   1.0000
     1.0000   1.0000   1.0000   1.0000   1.0000   1.0000   1.0000   1.0000
     1.0000   1.0000   1.0000   1.0000   1.0000   1.0000   1.0000   1.0000
     1.0000   1.0000   1.0000   1.0000   1.0000   1.0000   1.0000   1.0000
     1.0000   1.0000   1.0000   1.0000   1.0000   1.0000   1.0000   1.0000
     1.0000   1.0000   1.0000   1.0000   0.1834   0.1834  -0.0247  -0.0247
    -0.0002  -0.0002  -0.0000  -0.0000  -0.0000  -0.0000  -0.0000  -0.0000
    -0.0000  -0.0000  -0.0000  -0.0000  -0.0000  -0.0000  -0.0000  -0.0000
    -0.0000  -0.0000  -0.0000  -0.0000  -0.0000  -0.0000  -0.0000  -0.0000
    -0.0000  -0.0000  -0.0000  -0.0000  -0.0000  -0.0000  -0.0000  -0.0000

          k = 0.0000 0.2500 0.0000 ( 18765 PWs)   bands (ev):

   -22.8921 -22.8921 -22.8720 -22.8720 -22.8697 -22.8697 -17.6159 -17.6159
   -17.6136 -17.6136 -17.2873 -17.2873 -17.2873 -17.2873 -14.6551 -14.6551
   -14.6483 -14.6483 -14.6168 -14.6168 -14.2945 -14.2945 -14.2940 -14.2940
   -14.2940 -14.2940  -9.5576  -9.5576  -9.5451  -9.5451  -9.4585  -9.4585
    -7.6646  -7.6646  -7.5691  -7.5691  -7.5382  -7.5382  -7.4629  -7.4629
    -7.4328  -7.4328  -7.3920  -7.3920  -4.2717  -4.2717  -3.2933  -3.2933
     3.7437   3.7437   4.2789   4.2789   4.9815   4.9815   5.2182   5.2182
     5.3623   5.3623   5.7872   5.7872   6.2935   6.2935   6.4507   6.4507
     6.6223   6.6223   6.8794   6.8794   7.3032   7.3032   7.3084   7.3084
     8.2852   8.2852   8.7798   8.7798   8.9180   8.9180   9.0903   9.0903
     9.1592   9.1592   9.4100   9.4100   9.6796   9.6796   9.9650   9.9650
    10.0573  10.0573  10.4984  10.4984  10.8814  10.8814  11.0597  11.0597

     occupation numbers 
     1.0000   1.0000   1.0000   1.0000   1.0000   1.0000   1.0000   1.0000
     1.0000   1.0000   1.0000   1.0000   1.0000   1.0000   1.0000   1.0000
     1.0000   1.0000   1.0000   1.0000   1.0000   1.0000   1.0000   1.0000
     1.0000   1.0000   1.0000   1.0000   1.0000   1.0000   1.0000   1.0000
     1.0000   1.0000   1.0000   1.0000   1.0000   1.0000   1.0000   1.0000
     1.0000   1.0000   1.0000   1.0000   1.0000   1.0000   1.0000   1.0000
     1.0000   1.0000   1.0000   1.0000   1.0000   1.0000   1.0000   1.0000
     1.0000   1.0000   1.0000   1.0000   0.1834   0.1834  -0.0247  -0.0247
    -0.0002  -0.0002  -0.0000  -0.0000  -0.0000  -0.0000  -0.0000  -0.0000
    -0.0000  -0.0000  -0.0000  -0.0000  -0.0000  -0.0000  -0.0000  -0.0000
    -0.0000  -0.0000  -0.0000  -0.0000  -0.0000  -0.0000  -0.0000  -0.0000
    -0.0000  -0.0000  -0.0000  -0.0000  -0.0000  -0.0000  -0.0000  -0.0000

          k = 0.0000 0.2500 0.2500 ( 18821 PWs)   bands (ev):

   -22.8887 -22.8887 -22.8727 -22.8727 -22.8711 -22.8711 -17.6171 -17.6171
   -17.6148 -17.6148 -17.2873 -17.2873 -17.2873 -17.2873 -14.6585 -14.6585
   -14.6517 -14.6517 -14.6169 -14.6169 -14.2945 -14.2945 -14.2940 -14.2940
   -14.2940 -14.2940  -9.5638  -9.5638  -9.5341  -9.5341  -9.4692  -9.4692
    -7.7080  -7.7080  -7.5593  -7.5593  -7.5168  -7.5168  -7.4754  -7.4754
    -7.4501  -7.4501  -7.3840  -7.3840  -4.0661  -4.0661  -3.2855  -3.2855
     3.4388   3.4388   4.0975   4.0975   4.6567   4.6567   4.9563   4.9563
     5.2291   5.2291   5.6044   5.6044   6.5767   6.5767   6.7364   6.7364
     6.8635   6.8635   7.1330   7.1330   7.3664   7.3664   7.8508   7.8508
     8.4836   8.4836   8.6181   8.6181   8.6810   8.6810   8.8512   8.8512
     9.1417   9.1417   9.3951   9.3951   9.5882   9.5882   9.6486   9.6486
     9.9466   9.9466  10.4651  10.4651  10.6072  10.6072  11.5141  11.5142

     occupation numbers 
     1.0000   1.0000   1.0000   1.0000   1.0000   1.0000   1.0000   1.0000
     1.0000   1.0000   1.0000   1.0000   1.0000   1.0000   1.0000   1.0000
     1.0000   1.0000   1.0000   1.0000   1.0000   1.0000   1.0000   1.0000
     1.0000   1.0000   1.0000   1.0000   1.0000   1.0000   1.0000   1.0000
     1.0000   1.0000   1.0000   1.0000   1.0000   1.0000   1.0000   1.0000
     1.0000   1.0000   1.0000   1.0000   1.0000   1.0000   1.0000   1.0000
     1.0000   1.0000   1.0000   1.0000   1.0000   1.0000   1.0000   1.0000
     1.0000   1.0000   1.0000   1.0000  -0.0012  -0.0012  -0.0000  -0.0000
    -0.0000  -0.0000  -0.0000  -0.0000  -0.0000  -0.0000  -0.0000  -0.0000
    -0.0000  -0.0000  -0.0000  -0.0000  -0.0000  -0.0000  -0.0000  -0.0000
    -0.0000  -0.0000  -0.0000  -0.0000  -0.0000  -0.0000  -0.0000  -0.0000
    -0.0000  -0.0000  -0.0000  -0.0000  -0.0000  -0.0000  -0.0000  -0.0000

          k = 0.0000 0.2500-0.5000 ( 18802 PWs)   bands (ev):

   -22.8839 -22.8839 -22.8757 -22.8757 -22.8715 -22.8715 -17.6192 -17.6192
   -17.6151 -17.6151 -17.2873 -17.2873 -17.2873 -17.2873 -14.6644 -14.6644
   -14.6527 -14.6527 -14.6171 -14.6171 -14.2945 -14.2945 -14.2940 -14.2940
   -14.2939 -14.2939  -9.5677  -9.5677  -9.5224  -9.5224  -9.4829  -9.4829
    -7.7418  -7.7418  -7.5491  -7.5491  -7.5146  -7.5146  -7.4895  -7.4895
    -7.4377  -7.4377  -7.3923  -7.3923  -3.8472  -3.8472  -3.2779  -3.2779
     3.0411   3.0411   3.8942   3.8942   4.4612   4.4612   4.7962   4.7962
     5.1780   5.1780   5.4734   5.4734   6.9148   6.9148   7.0070   7.0070
     7.3132   7.3132   7.4033   7.4033   7.6378   7.6378   7.9071   7.9071
     8.1581   8.1581   8.4804   8.4804   8.7105   8.7105   8.9323   8.9323
     9.1372   9.1372   9.2013   9.2013   9.3591   9.3591   9.5709   9.5709
     9.7506   9.7506   9.9343   9.9343  10.9873  10.9873  11.2742  11.2742

     occupation numbers 
     1.0000   1.0000   1.0000   1.0000   1.0000   1.0000   1.0000   1.0000
     1.0000   1.0000   1.0000   1.0000   1.0000   1.0000   1.0000   1.0000
     1.0000   1.0000   1.0000   1.0000   1.0000   1.0000   1.0000   1.0000
     1.0000   1.0000   1.0000   1.0000   1.0000   1.0000   1.0000   1.0000
     1.0000   1.0000   1.0000   1.0000   1.0000   1.0000   1.0000   1.0000
     1.0000   1.0000   1.0000   1.0000   1.0000   1.0000   1.0000   1.0000
     1.0000   1.0000   1.0000   1.0000   1.0000   1.0000   1.0000   1.0000
     1.0000   1.0000   1.0000   1.0000  -0.0000  -0.0000  -0.0000  -0.0000
    -0.0000  -0.0000  -0.0000  -0.0000  -0.0000  -0.0000  -0.0000  -0.0000
    -0.0000  -0.0000  -0.0000  -0.0000  -0.0000  -0.0000  -0.0000  -0.0000
    -0.0000  -0.0000  -0.0000  -0.0000  -0.0000  -0.0000  -0.0000  -0.0000
    -0.0000  -0.0000  -0.0000  -0.0000  -0.0000  -0.0000  -0.0000  -0.0000

          k = 0.0000 0.2500-0.2500 ( 18821 PWs)   bands (ev):

   -22.8887 -22.8887 -22.8727 -22.8727 -22.8711 -22.8711 -17.6171 -17.6171
   -17.6148 -17.6148 -17.2873 -17.2873 -17.2873 -17.2873 -14.6585 -14.6585
   -14.6517 -14.6517 -14.6169 -14.6169 -14.2945 -14.2945 -14.2940 -14.2940
   -14.2940 -14.2940  -9.5638  -9.5638  -9.5341  -9.5341  -9.4692  -9.4692
    -7.7080  -7.7080  -7.5593  -7.5593  -7.5168  -7.5168  -7.4754  -7.4754
    -7.4501  -7.4501  -7.3840  -7.3840  -4.0661  -4.0661  -3.2855  -3.2855
     3.4388   3.4388   4.0975   4.0975   4.6567   4.6567   4.9563   4.9563
     5.2291   5.2291   5.6044   5.6044   6.5767   6.5767   6.7364   6.7364
     6.8635   6.8635   7.1330   7.1330   7.3664   7.3664   7.8508   7.8508
     8.4836   8.4836   8.6181   8.6181   8.6810   8.6810   8.8512   8.8512
     9.1417   9.1417   9.3951   9.3951   9.5882   9.5882   9.6486   9.6486
     9.9466   9.9466  10.4651  10.4651  10.6072  10.6073  11.5141  11.5141

     occupation numbers 
     1.0000   1.0000   1.0000   1.0000   1.0000   1.0000   1.0000   1.0000
     1.0000   1.0000   1.0000   1.0000   1.0000   1.0000   1.0000   1.0000
     1.0000   1.0000   1.0000   1.0000   1.0000   1.0000   1.0000   1.0000
     1.0000   1.0000   1.0000   1.0000   1.0000   1.0000   1.0000   1.0000
     1.0000   1.0000   1.0000   1.0000   1.0000   1.0000   1.0000   1.0000
     1.0000   1.0000   1.0000   1.0000   1.0000   1.0000   1.0000   1.0000
     1.0000   1.0000   1.0000   1.0000   1.0000   1.0000   1.0000   1.0000
     1.0000   1.0000   1.0000   1.0000  -0.0012  -0.0012  -0.0000  -0.0000
    -0.0000  -0.0000  -0.0000  -0.0000  -0.0000  -0.0000  -0.0000  -0.0000
    -0.0000  -0.0000  -0.0000  -0.0000  -0.0000  -0.0000  -0.0000  -0.0000
    -0.0000  -0.0000  -0.0000  -0.0000  -0.0000  -0.0000  -0.0000  -0.0000
    -0.0000  -0.0000  -0.0000  -0.0000  -0.0000  -0.0000  -0.0000  -0.0000

          k = 0.0000-0.5000 0.0000 ( 18752 PWs)   bands (ev):

   -22.8871 -22.8871 -22.8757 -22.8757 -22.8697 -22.8697 -17.6183 -17.6183
   -17.6136 -17.6136 -17.2873 -17.2873 -17.2873 -17.2873 -14.6619 -14.6619
   -14.6483 -14.6483 -14.6169 -14.6169 -14.2945 -14.2945 -14.2940 -14.2940
   -14.2940 -14.2940  -9.5572  -9.5572  -9.5244  -9.5244  -9.4823  -9.4823
    -7.6212  -7.6212  -7.6190  -7.6190  -7.5109  -7.5109  -7.4769  -7.4769
    -7.4766  -7.4766  -7.4065  -7.4065  -4.0403  -4.0403  -3.2819  -3.2819
     3.2541   3.2541   4.0515   4.0515   4.7440   4.7440   5.0016   5.0016
     5.2720   5.2720   5.5920   5.5920   6.5651   6.5651   6.6548   6.6548
     7.1282   7.1282   7.4694   7.4694   7.7693   7.7693   7.8930   7.8930
     7.9966   7.9966   8.4673   8.4673   8.7512   8.7512   8.9908   8.9908
     9.1286   9.1286   9.3919   9.3919   9.4604   9.4604   9.4811   9.4811
    10.1173  10.1173  10.3667  10.3667  10.4198  10.4198  10.5068  10.5069

     occupation numbers 
     1.0000   1.0000   1.0000   1.0000   1.0000   1.0000   1.0000   1.0000
     1.0000   1.0000   1.0000   1.0000   1.0000   1.0000   1.0000   1.0000
     1.0000   1.0000   1.0000   1.0000   1.0000   1.0000   1.0000   1.0000
     1.0000   1.0000   1.0000   1.0000   1.0000   1.0000   1.0000   1.0000
     1.0000   1.0000   1.0000   1.0000   1.0000   1.0000   1.0000   1.0000
     1.0000   1.0000   1.0000   1.0000   1.0000   1.0000   1.0000   1.0000
     1.0000   1.0000   1.0000   1.0000   1.0000   1.0000   1.0000   1.0000
     1.0000   1.0000   1.0000   1.0000  -0.0017  -0.0017  -0.0001  -0.0001
    -0.0000  -0.0000  -0.0000  -0.0000  -0.0000  -0.0000  -0.0000  -0.0000
    -0.0000  -0.0000  -0.0000  -0.0000  -0.0000  -0.0000  -0.0000  -0.0000
    -0.0000  -0.0000  -0.0000  -0.0000  -0.0000  -0.0000  -0.0000  -0.0000
    -0.0000  -0.0000  -0.0000  -0.0000  -0.0000  -0.0000  -0.0000  -0.0000

          k = 0.0000-0.5000 0.2500 ( 18802 PWs)   bands (ev):

   -22.8839 -22.8839 -22.8757 -22.8757 -22.8715 -22.8715 -17.6192 -17.6192
   -17.6151 -17.6151 -17.2873 -17.2873 -17.2873 -17.2873 -14.6644 -14.6644
   -14.6527 -14.6527 -14.6171 -14.6171 -14.2945 -14.2945 -14.2940 -14.2940
   -14.2939 -14.2939  -9.5677  -9.5677  -9.5224  -9.5224  -9.4829  -9.4829
    -7.7418  -7.7418  -7.5491  -7.5491  -7.5146  -7.5146  -7.4895  -7.4895
    -7.4377  -7.4377  -7.3923  -7.3923  -3.8472  -3.8472  -3.2779  -3.2779
     3.0411   3.0411   3.8942   3.8942   4.4612   4.4612   4.7962   4.7962
     5.1780   5.1780   5.4734   5.4734   6.9148   6.9148   7.0070   7.0070
     7.3132   7.3132   7.4033   7.4033   7.6378   7.6378   7.9071   7.9071
     8.1581   8.1581   8.4804   8.4804   8.7105   8.7105   8.9323   8.9323
     9.1372   9.1372   9.2013   9.2013   9.3591   9.3591   9.5709   9.5709
     9.7506   9.7506   9.9343   9.9343  10.9873  10.9873  11.2742  11.2743

     occupation numbers 
     1.0000   1.0000   1.0000   1.0000   1.0000   1.0000   1.0000   1.0000
     1.0000   1.0000   1.0000   1.0000   1.0000   1.0000   1.0000   1.0000
     1.0000   1.0000   1.0000   1.0000   1.0000   1.0000   1.0000   1.0000
     1.0000   1.0000   1.0000   1.0000   1.0000   1.0000   1.0000   1.0000
     1.0000   1.0000   1.0000   1.0000   1.0000   1.0000   1.0000   1.0000
     1.0000   1.0000   1.0000   1.0000   1.0000   1.0000   1.0000   1.0000
     1.0000   1.0000   1.0000   1.0000   1.0000   1.0000   1.0000   1.0000
     1.0000   1.0000   1.0000   1.0000  -0.0000  -0.0000  -0.0000  -0.0000
    -0.0000  -0.0000  -0.0000  -0.0000  -0.0000  -0.0000  -0.0000  -0.0000
    -0.0000  -0.0000  -0.0000  -0.0000  -0.0000  -0.0000  -0.0000  -0.0000
    -0.0000  -0.0000  -0.0000  -0.0000  -0.0000  -0.0000  -0.0000  -0.0000
    -0.0000  -0.0000  -0.0000  -0.0000  -0.0000  -0.0000  -0.0000  -0.0000

          k = 0.0000-0.5000-0.5000 ( 18800 PWs)   bands (ev):

   -22.8784 -22.8784 -22.8758 -22.8758 -22.8756 -22.8756 -17.6207 -17.6207
   -17.6160 -17.6160 -17.2873 -17.2873 -17.2873 -17.2873 -14.6686 -14.6686
   -14.6553 -14.6553 -14.6173 -14.6173 -14.2945 -14.2945 -14.2940 -14.2940
   -14.2939 -14.2939  -9.5779  -9.5779  -9.5199  -9.5199  -9.4843  -9.4843
    -7.7961  -7.7961  -7.5342  -7.5342  -7.5282  -7.5282  -7.4851  -7.4851
    -7.4239  -7.4239  -7.3708  -7.3708  -3.6389  -3.6389  -3.2740  -3.2740
     2.7622   2.7622   3.5911   3.5911   4.3748   4.3748   4.6475   4.6475
     5.2262   5.2262   5.4076   5.4076   7.2673   7.2673   7.3140   7.3140
     7.3545   7.3545   7.4365   7.4365   7.6043   7.6043   7.7281   7.7281
     8.3723   8.3723   8.4353   8.4353   8.5619   8.5619   8.7993   8.7993
     9.1243   9.1243   9.2488   9.2488   9.4134   9.4134   9.6320   9.6320
     9.6553   9.6553  10.3946  10.3947  10.4940  10.4941  11.5172  11.5207

     occupation numbers 
     1.0000   1.0000   1.0000   1.0000   1.0000   1.0000   1.0000   1.0000
     1.0000   1.0000   1.0000   1.0000   1.0000   1.0000   1.0000   1.0000
     1.0000   1.0000   1.0000   1.0000   1.0000   1.0000   1.0000   1.0000
     1.0000   1.0000   1.0000   1.0000   1.0000   1.0000   1.0000   1.0000
     1.0000   1.0000   1.0000   1.0000   1.0000   1.0000   1.0000   1.0000
     1.0000   1.0000   1.0000   1.0000   1.0000   1.0000   1.0000   1.0000
     1.0000   1.0000   1.0000   1.0000   1.0000   1.0000   1.0000   1.0000
     1.0000   1.0000   1.0000   1.0000  -0.0000  -0.0000  -0.0000  -0.0000
    -0.0000  -0.0000  -0.0000  -0.0000  -0.0000  -0.0000  -0.0000  -0.0000
    -0.0000  -0.0000  -0.0000  -0.0000  -0.0000  -0.0000  -0.0000  -0.0000
    -0.0000  -0.0000  -0.0000  -0.0000  -0.0000  -0.0000  -0.0000  -0.0000
    -0.0000  -0.0000  -0.0000  -0.0000  -0.0000  -0.0000  -0.0000  -0.0000

          k = 0.0000-0.5000-0.2500 ( 18802 PWs)   bands (ev):

   -22.8839 -22.8839 -22.8757 -22.8757 -22.8715 -22.8715 -17.6192 -17.6192
   -17.6151 -17.6151 -17.2873 -17.2873 -17.2873 -17.2873 -14.6644 -14.6644
   -14.6527 -14.6527 -14.6171 -14.6171 -14.2945 -14.2945 -14.2940 -14.2940
   -14.2939 -14.2939  -9.5677  -9.5677  -9.5224  -9.5224  -9.4829  -9.4829
    -7.7418  -7.7418  -7.5491  -7.5491  -7.5146  -7.5146  -7.4895  -7.4895
    -7.4377  -7.4377  -7.3923  -7.3923  -3.8472  -3.8472  -3.2779  -3.2779
     3.0411   3.0411   3.8942   3.8942   4.4612   4.4612   4.7962   4.7962
     5.1780   5.1780   5.4734   5.4734   6.9148   6.9148   7.0070   7.0070
     7.3132   7.3132   7.4033   7.4033   7.6378   7.6378   7.9071   7.9071
     8.1581   8.1581   8.4804   8.4804   8.7105   8.7105   8.9323   8.9323
     9.1372   9.1372   9.2013   9.2013   9.3591   9.3591   9.5709   9.5709
     9.7506   9.7506   9.9343   9.9343  10.9873  10.9873  11.2742  11.2742

     occupation numbers 
     1.0000   1.0000   1.0000   1.0000   1.0000   1.0000   1.0000   1.0000
     1.0000   1.0000   1.0000   1.0000   1.0000   1.0000   1.0000   1.0000
     1.0000   1.0000   1.0000   1.0000   1.0000   1.0000   1.0000   1.0000
     1.0000   1.0000   1.0000   1.0000   1.0000   1.0000   1.0000   1.0000
     1.0000   1.0000   1.0000   1.0000   1.0000   1.0000   1.0000   1.0000
     1.0000   1.0000   1.0000   1.0000   1.0000   1.0000   1.0000   1.0000
     1.0000   1.0000   1.0000   1.0000   1.0000   1.0000   1.0000   1.0000
     1.0000   1.0000   1.0000   1.0000  -0.0000  -0.0000  -0.0000  -0.0000
    -0.0000  -0.0000  -0.0000  -0.0000  -0.0000  -0.0000  -0.0000  -0.0000
    -0.0000  -0.0000  -0.0000  -0.0000  -0.0000  -0.0000  -0.0000  -0.0000
    -0.0000  -0.0000  -0.0000  -0.0000  -0.0000  -0.0000  -0.0000  -0.0000
    -0.0000  -0.0000  -0.0000  -0.0000  -0.0000  -0.0000  -0.0000  -0.0000

          k = 0.0000-0.2500 0.0000 ( 18765 PWs)   bands (ev):

   -22.8921 -22.8921 -22.8720 -22.8720 -22.8697 -22.8697 -17.6159 -17.6159
   -17.6136 -17.6136 -17.2873 -17.2873 -17.2873 -17.2873 -14.6551 -14.6551
   -14.6483 -14.6483 -14.6168 -14.6168 -14.2945 -14.2945 -14.2940 -14.2940
   -14.2940 -14.2940  -9.5576  -9.5576  -9.5451  -9.5451  -9.4585  -9.4585
    -7.6646  -7.6646  -7.5691  -7.5691  -7.5382  -7.5382  -7.4629  -7.4629
    -7.4328  -7.4328  -7.3920  -7.3920  -4.2717  -4.2717  -3.2933  -3.2933
     3.7437   3.7437   4.2789   4.2789   4.9815   4.9815   5.2182   5.2182
     5.3623   5.3623   5.7872   5.7872   6.2935   6.2935   6.4507   6.4507
     6.6223   6.6223   6.8794   6.8794   7.3032   7.3032   7.3084   7.3084
     8.2852   8.2852   8.7798   8.7798   8.9180   8.9180   9.0903   9.0903
     9.1592   9.1592   9.4100   9.4100   9.6796   9.6796   9.9650   9.9650
    10.0573  10.0573  10.4984  10.4984  10.8814  10.8814  11.0597  11.0597

     occupation numbers 
     1.0000   1.0000   1.0000   1.0000   1.0000   1.0000   1.0000   1.0000
     1.0000   1.0000   1.0000   1.0000   1.0000   1.0000   1.0000   1.0000
     1.0000   1.0000   1.0000   1.0000   1.0000   1.0000   1.0000   1.0000
     1.0000   1.0000   1.0000   1.0000   1.0000   1.0000   1.0000   1.0000
     1.0000   1.0000   1.0000   1.0000   1.0000   1.0000   1.0000   1.0000
     1.0000   1.0000   1.0000   1.0000   1.0000   1.0000   1.0000   1.0000
     1.0000   1.0000   1.0000   1.0000   1.0000   1.0000   1.0000   1.0000
     1.0000   1.0000   1.0000   1.0000   0.1834   0.1834  -0.0247  -0.0247
    -0.0002  -0.0002  -0.0000  -0.0000  -0.0000  -0.0000  -0.0000  -0.0000
    -0.0000  -0.0000  -0.0000  -0.0000  -0.0000  -0.0000  -0.0000  -0.0000
    -0.0000  -0.0000  -0.0000  -0.0000  -0.0000  -0.0000  -0.0000  -0.0000
    -0.0000  -0.0000  -0.0000  -0.0000  -0.0000  -0.0000  -0.0000  -0.0000

          k = 0.0000-0.2500 0.2500 ( 18821 PWs)   bands (ev):

   -22.8887 -22.8887 -22.8727 -22.8727 -22.8711 -22.8711 -17.6171 -17.6171
   -17.6148 -17.6148 -17.2873 -17.2873 -17.2873 -17.2873 -14.6585 -14.6585
   -14.6517 -14.6517 -14.6169 -14.6169 -14.2945 -14.2945 -14.2940 -14.2940
   -14.2940 -14.2940  -9.5638  -9.5638  -9.5341  -9.5341  -9.4692  -9.4692
    -7.7080  -7.7080  -7.5593  -7.5593  -7.5168  -7.5168  -7.4754  -7.4754
    -7.4501  -7.4501  -7.3840  -7.3840  -4.0661  -4.0661  -3.2855  -3.2855
     3.4388   3.4388   4.0975   4.0975   4.6567   4.6567   4.9563   4.9563
     5.2291   5.2291   5.6044   5.6044   6.5767   6.5767   6.7364   6.7364
     6.8635   6.8635   7.1330   7.1330   7.3664   7.3664   7.8508   7.8508
     8.4836   8.4836   8.6181   8.6181   8.6810   8.6810   8.8512   8.8512
     9.1417   9.1417   9.3951   9.3951   9.5882   9.5882   9.6486   9.6486
     9.9466   9.9466  10.4651  10.4651  10.6072  10.6073  11.5141  11.5142

     occupation numbers 
     1.0000   1.0000   1.0000   1.0000   1.0000   1.0000   1.0000   1.0000
     1.0000   1.0000   1.0000   1.0000   1.0000   1.0000   1.0000   1.0000
     1.0000   1.0000   1.0000   1.0000   1.0000   1.0000   1.0000   1.0000
     1.0000   1.0000   1.0000   1.0000   1.0000   1.0000   1.0000   1.0000
     1.0000   1.0000   1.0000   1.0000   1.0000   1.0000   1.0000   1.0000
     1.0000   1.0000   1.0000   1.0000   1.0000   1.0000   1.0000   1.0000
     1.0000   1.0000   1.0000   1.0000   1.0000   1.0000   1.0000   1.0000
     1.0000   1.0000   1.0000   1.0000  -0.0012  -0.0012  -0.0000  -0.0000
    -0.0000  -0.0000  -0.0000  -0.0000  -0.0000  -0.0000  -0.0000  -0.0000
    -0.0000  -0.0000  -0.0000  -0.0000  -0.0000  -0.0000  -0.0000  -0.0000
    -0.0000  -0.0000  -0.0000  -0.0000  -0.0000  -0.0000  -0.0000  -0.0000
    -0.0000  -0.0000  -0.0000  -0.0000  -0.0000  -0.0000  -0.0000  -0.0000

          k = 0.0000-0.2500-0.5000 ( 18802 PWs)   bands (ev):

   -22.8839 -22.8839 -22.8757 -22.8757 -22.8715 -22.8715 -17.6192 -17.6192
   -17.6151 -17.6151 -17.2873 -17.2873 -17.2873 -17.2873 -14.6644 -14.6644
   -14.6527 -14.6527 -14.6171 -14.6171 -14.2945 -14.2945 -14.2940 -14.2940
   -14.2939 -14.2939  -9.5677  -9.5677  -9.5224  -9.5224  -9.4829  -9.4829
    -7.7418  -7.7418  -7.5491  -7.5491  -7.5146  -7.5146  -7.4895  -7.4895
    -7.4377  -7.4377  -7.3923  -7.3923  -3.8472  -3.8472  -3.2779  -3.2779
     3.0411   3.0411   3.8942   3.8942   4.4612   4.4612   4.7962   4.7962
     5.1780   5.1780   5.4734   5.4734   6.9148   6.9148   7.0070   7.0070
     7.3132   7.3132   7.4033   7.4033   7.6378   7.6378   7.9071   7.9071
     8.1581   8.1581   8.4804   8.4804   8.7105   8.7105   8.9323   8.9323
     9.1372   9.1372   9.2013   9.2013   9.3591   9.3591   9.5709   9.5709
     9.7506   9.7506   9.9343   9.9343  10.9873  10.9873  11.2742  11.2742

     occupation numbers 
     1.0000   1.0000   1.0000   1.0000   1.0000   1.0000   1.0000   1.0000
     1.0000   1.0000   1.0000   1.0000   1.0000   1.0000   1.0000   1.0000
     1.0000   1.0000   1.0000   1.0000   1.0000   1.0000   1.0000   1.0000
     1.0000   1.0000   1.0000   1.0000   1.0000   1.0000   1.0000   1.0000
     1.0000   1.0000   1.0000   1.0000   1.0000   1.0000   1.0000   1.0000
     1.0000   1.0000   1.0000   1.0000   1.0000   1.0000   1.0000   1.0000
     1.0000   1.0000   1.0000   1.0000   1.0000   1.0000   1.0000   1.0000
     1.0000   1.0000   1.0000   1.0000  -0.0000  -0.0000  -0.0000  -0.0000
    -0.0000  -0.0000  -0.0000  -0.0000  -0.0000  -0.0000  -0.0000  -0.0000
    -0.0000  -0.0000  -0.0000  -0.0000  -0.0000  -0.0000  -0.0000  -0.0000
    -0.0000  -0.0000  -0.0000  -0.0000  -0.0000  -0.0000  -0.0000  -0.0000
    -0.0000  -0.0000  -0.0000  -0.0000  -0.0000  -0.0000  -0.0000  -0.0000

          k = 0.0000-0.2500-0.2500 ( 18821 PWs)   bands (ev):

   -22.8887 -22.8887 -22.8727 -22.8727 -22.8711 -22.8711 -17.6171 -17.6171
   -17.6148 -17.6148 -17.2873 -17.2873 -17.2873 -17.2873 -14.6585 -14.6585
   -14.6517 -14.6517 -14.6169 -14.6169 -14.2945 -14.2945 -14.2940 -14.2940
   -14.2940 -14.2940  -9.5638  -9.5638  -9.5341  -9.5341  -9.4692  -9.4692
    -7.7080  -7.7080  -7.5593  -7.5593  -7.5168  -7.5168  -7.4754  -7.4754
    -7.4501  -7.4501  -7.3840  -7.3840  -4.0661  -4.0661  -3.2855  -3.2855
     3.4388   3.4388   4.0975   4.0975   4.6567   4.6567   4.9563   4.9563
     5.2291   5.2291   5.6044   5.6044   6.5767   6.5767   6.7364   6.7364
     6.8635   6.8635   7.1330   7.1330   7.3664   7.3664   7.8508   7.8508
     8.4836   8.4836   8.6181   8.6181   8.6810   8.6810   8.8512   8.8512
     9.1417   9.1417   9.3951   9.3951   9.5882   9.5882   9.6486   9.6486
     9.9466   9.9466  10.4651  10.4651  10.6072  10.6073  11.5141  11.5142

     occupation numbers 
     1.0000   1.0000   1.0000   1.0000   1.0000   1.0000   1.0000   1.0000
     1.0000   1.0000   1.0000   1.0000   1.0000   1.0000   1.0000   1.0000
     1.0000   1.0000   1.0000   1.0000   1.0000   1.0000   1.0000   1.0000
     1.0000   1.0000   1.0000   1.0000   1.0000   1.0000   1.0000   1.0000
     1.0000   1.0000   1.0000   1.0000   1.0000   1.0000   1.0000   1.0000
     1.0000   1.0000   1.0000   1.0000   1.0000   1.0000   1.0000   1.0000
     1.0000   1.0000   1.0000   1.0000   1.0000   1.0000   1.0000   1.0000
     1.0000   1.0000   1.0000   1.0000  -0.0012  -0.0012  -0.0000  -0.0000
    -0.0000  -0.0000  -0.0000  -0.0000  -0.0000  -0.0000  -0.0000  -0.0000
    -0.0000  -0.0000  -0.0000  -0.0000  -0.0000  -0.0000  -0.0000  -0.0000
    -0.0000  -0.0000  -0.0000  -0.0000  -0.0000  -0.0000  -0.0000  -0.0000
    -0.0000  -0.0000  -0.0000  -0.0000  -0.0000  -0.0000  -0.0000  -0.0000

          k = 0.2500 0.0000 0.0000 ( 18765 PWs)   bands (ev):

   -22.8921 -22.8921 -22.8720 -22.8720 -22.8697 -22.8697 -17.6159 -17.6159
   -17.6136 -17.6136 -17.2873 -17.2873 -17.2873 -17.2873 -14.6551 -14.6551
   -14.6483 -14.6483 -14.6168 -14.6168 -14.2945 -14.2945 -14.2940 -14.2940
   -14.2940 -14.2940  -9.5576  -9.5576  -9.5451  -9.5451  -9.4585  -9.4585
    -7.6646  -7.6646  -7.5691  -7.5691  -7.5382  -7.5382  -7.4629  -7.4629
    -7.4328  -7.4328  -7.3920  -7.3920  -4.2717  -4.2717  -3.2933  -3.2933
     3.7437   3.7437   4.2789   4.2789   4.9815   4.9815   5.2182   5.2182
     5.3623   5.3623   5.7872   5.7872   6.2935   6.2935   6.4507   6.4507
     6.6223   6.6223   6.8794   6.8794   7.3032   7.3032   7.3084   7.3084
     8.2852   8.2852   8.7798   8.7798   8.9180   8.9180   9.0903   9.0903
     9.1592   9.1592   9.4100   9.4100   9.6796   9.6796   9.9650   9.9650
    10.0573  10.0573  10.4984  10.4984  10.8814  10.8815  11.0597  11.0597

     occupation numbers 
     1.0000   1.0000   1.0000   1.0000   1.0000   1.0000   1.0000   1.0000
     1.0000   1.0000   1.0000   1.0000   1.0000   1.0000   1.0000   1.0000
     1.0000   1.0000   1.0000   1.0000   1.0000   1.0000   1.0000   1.0000
     1.0000   1.0000   1.0000   1.0000   1.0000   1.0000   1.0000   1.0000
     1.0000   1.0000   1.0000   1.0000   1.0000   1.0000   1.0000   1.0000
     1.0000   1.0000   1.0000   1.0000   1.0000   1.0000   1.0000   1.0000
     1.0000   1.0000   1.0000   1.0000   1.0000   1.0000   1.0000   1.0000
     1.0000   1.0000   1.0000   1.0000   0.1834   0.1834  -0.0247  -0.0247
    -0.0002  -0.0002  -0.0000  -0.0000  -0.0000  -0.0000  -0.0000  -0.0000
    -0.0000  -0.0000  -0.0000  -0.0000  -0.0000  -0.0000  -0.0000  -0.0000
    -0.0000  -0.0000  -0.0000  -0.0000  -0.0000  -0.0000  -0.0000  -0.0000
    -0.0000  -0.0000  -0.0000  -0.0000  -0.0000  -0.0000  -0.0000  -0.0000

          k = 0.2500 0.0000 0.2500 ( 18821 PWs)   bands (ev):

   -22.8887 -22.8887 -22.8727 -22.8727 -22.8711 -22.8711 -17.6171 -17.6171
   -17.6148 -17.6148 -17.2873 -17.2873 -17.2873 -17.2873 -14.6585 -14.6585
   -14.6517 -14.6517 -14.6169 -14.6169 -14.2945 -14.2945 -14.2940 -14.2940
   -14.2940 -14.2940  -9.5638  -9.5638  -9.5341  -9.5341  -9.4692  -9.4692
    -7.7080  -7.7080  -7.5593  -7.5593  -7.5168  -7.5168  -7.4754  -7.4754
    -7.4501  -7.4501  -7.3840  -7.3840  -4.0661  -4.0661  -3.2855  -3.2855
     3.4388   3.4388   4.0975   4.0975   4.6567   4.6567   4.9563   4.9563
     5.2291   5.2291   5.6044   5.6044   6.5767   6.5767   6.7364   6.7364
     6.8635   6.8635   7.1330   7.1330   7.3664   7.3664   7.8508   7.8508
     8.4836   8.4836   8.6181   8.6181   8.6810   8.6810   8.8512   8.8512
     9.1417   9.1417   9.3951   9.3951   9.5882   9.5882   9.6486   9.6486
     9.9466   9.9466  10.4651  10.4651  10.6072  10.6073  11.5141  11.5146

     occupation numbers 
     1.0000   1.0000   1.0000   1.0000   1.0000   1.0000   1.0000   1.0000
     1.0000   1.0000   1.0000   1.0000   1.0000   1.0000   1.0000   1.0000
     1.0000   1.0000   1.0000   1.0000   1.0000   1.0000   1.0000   1.0000
     1.0000   1.0000   1.0000   1.0000   1.0000   1.0000   1.0000   1.0000
     1.0000   1.0000   1.0000   1.0000   1.0000   1.0000   1.0000   1.0000
     1.0000   1.0000   1.0000   1.0000   1.0000   1.0000   1.0000   1.0000
     1.0000   1.0000   1.0000   1.0000   1.0000   1.0000   1.0000   1.0000
     1.0000   1.0000   1.0000   1.0000  -0.0012  -0.0012  -0.0000  -0.0000
    -0.0000  -0.0000  -0.0000  -0.0000  -0.0000  -0.0000  -0.0000  -0.0000
    -0.0000  -0.0000  -0.0000  -0.0000  -0.0000  -0.0000  -0.0000  -0.0000
    -0.0000  -0.0000  -0.0000  -0.0000  -0.0000  -0.0000  -0.0000  -0.0000
    -0.0000  -0.0000  -0.0000  -0.0000  -0.0000  -0.0000  -0.0000  -0.0000

          k = 0.2500 0.0000-0.5000 ( 18802 PWs)   bands (ev):

   -22.8839 -22.8839 -22.8757 -22.8757 -22.8715 -22.8715 -17.6192 -17.6192
   -17.6151 -17.6151 -17.2873 -17.2873 -17.2873 -17.2873 -14.6644 -14.6644
   -14.6527 -14.6527 -14.6171 -14.6171 -14.2945 -14.2945 -14.2940 -14.2940
   -14.2939 -14.2939  -9.5677  -9.5677  -9.5224  -9.5224  -9.4829  -9.4829
    -7.7418  -7.7418  -7.5491  -7.5491  -7.5146  -7.5146  -7.4895  -7.4895
    -7.4377  -7.4377  -7.3923  -7.3923  -3.8472  -3.8472  -3.2779  -3.2779
     3.0411   3.0411   3.8942   3.8942   4.4612   4.4612   4.7962   4.7962
     5.1780   5.1780   5.4734   5.4734   6.9148   6.9148   7.0070   7.0070
     7.3132   7.3132   7.4033   7.4033   7.6378   7.6378   7.9071   7.9071
     8.1581   8.1581   8.4804   8.4804   8.7105   8.7105   8.9323   8.9323
     9.1372   9.1372   9.2013   9.2013   9.3591   9.3591   9.5709   9.5709
     9.7506   9.7506   9.9343   9.9343  10.9873  10.9873  11.2742  11.2743

     occupation numbers 
     1.0000   1.0000   1.0000   1.0000   1.0000   1.0000   1.0000   1.0000
     1.0000   1.0000   1.0000   1.0000   1.0000   1.0000   1.0000   1.0000
     1.0000   1.0000   1.0000   1.0000   1.0000   1.0000   1.0000   1.0000
     1.0000   1.0000   1.0000   1.0000   1.0000   1.0000   1.0000   1.0000
     1.0000   1.0000   1.0000   1.0000   1.0000   1.0000   1.0000   1.0000
     1.0000   1.0000   1.0000   1.0000   1.0000   1.0000   1.0000   1.0000
     1.0000   1.0000   1.0000   1.0000   1.0000   1.0000   1.0000   1.0000
     1.0000   1.0000   1.0000   1.0000  -0.0000  -0.0000  -0.0000  -0.0000
    -0.0000  -0.0000  -0.0000  -0.0000  -0.0000  -0.0000  -0.0000  -0.0000
    -0.0000  -0.0000  -0.0000  -0.0000  -0.0000  -0.0000  -0.0000  -0.0000
    -0.0000  -0.0000  -0.0000  -0.0000  -0.0000  -0.0000  -0.0000  -0.0000
    -0.0000  -0.0000  -0.0000  -0.0000  -0.0000  -0.0000  -0.0000  -0.0000

          k = 0.2500 0.0000-0.2500 ( 18821 PWs)   bands (ev):

   -22.8887 -22.8887 -22.8727 -22.8727 -22.8711 -22.8711 -17.6171 -17.6171
   -17.6148 -17.6148 -17.2873 -17.2873 -17.2873 -17.2873 -14.6585 -14.6585
   -14.6517 -14.6517 -14.6169 -14.6169 -14.2945 -14.2945 -14.2940 -14.2940
   -14.2940 -14.2940  -9.5638  -9.5638  -9.5341  -9.5341  -9.4692  -9.4692
    -7.7080  -7.7080  -7.5593  -7.5593  -7.5168  -7.5168  -7.4754  -7.4754
    -7.4501  -7.4501  -7.3840  -7.3840  -4.0661  -4.0661  -3.2855  -3.2855
     3.4388   3.4388   4.0975   4.0975   4.6567   4.6567   4.9563   4.9563
     5.2291   5.2291   5.6044   5.6044   6.5767   6.5767   6.7364   6.7364
     6.8635   6.8635   7.1330   7.1330   7.3664   7.3664   7.8508   7.8508
     8.4836   8.4836   8.6181   8.6181   8.6810   8.6810   8.8512   8.8512
     9.1417   9.1417   9.3951   9.3951   9.5882   9.5882   9.6486   9.6486
     9.9466   9.9466  10.4651  10.4651  10.6072  10.6072  11.5141  11.5142

     occupation numbers 
     1.0000   1.0000   1.0000   1.0000   1.0000   1.0000   1.0000   1.0000
     1.0000   1.0000   1.0000   1.0000   1.0000   1.0000   1.0000   1.0000
     1.0000   1.0000   1.0000   1.0000   1.0000   1.0000   1.0000   1.0000
     1.0000   1.0000   1.0000   1.0000   1.0000   1.0000   1.0000   1.0000
     1.0000   1.0000   1.0000   1.0000   1.0000   1.0000   1.0000   1.0000
     1.0000   1.0000   1.0000   1.0000   1.0000   1.0000   1.0000   1.0000
     1.0000   1.0000   1.0000   1.0000   1.0000   1.0000   1.0000   1.0000
     1.0000   1.0000   1.0000   1.0000  -0.0012  -0.0012  -0.0000  -0.0000
    -0.0000  -0.0000  -0.0000  -0.0000  -0.0000  -0.0000  -0.0000  -0.0000
    -0.0000  -0.0000  -0.0000  -0.0000  -0.0000  -0.0000  -0.0000  -0.0000
    -0.0000  -0.0000  -0.0000  -0.0000  -0.0000  -0.0000  -0.0000  -0.0000
    -0.0000  -0.0000  -0.0000  -0.0000  -0.0000  -0.0000  -0.0000  -0.0000

          k = 0.2500 0.2500 0.0000 ( 18821 PWs)   bands (ev):

   -22.8887 -22.8887 -22.8727 -22.8727 -22.8711 -22.8711 -17.6171 -17.6171
   -17.6148 -17.6148 -17.2873 -17.2873 -17.2873 -17.2873 -14.6585 -14.6585
   -14.6517 -14.6517 -14.6169 -14.6169 -14.2945 -14.2945 -14.2940 -14.2940
   -14.2940 -14.2940  -9.5638  -9.5638  -9.5341  -9.5341  -9.4692  -9.4692
    -7.7080  -7.7080  -7.5593  -7.5593  -7.5168  -7.5168  -7.4754  -7.4754
    -7.4501  -7.4501  -7.3840  -7.3840  -4.0661  -4.0661  -3.2855  -3.2855
     3.4388   3.4388   4.0975   4.0975   4.6567   4.6567   4.9563   4.9563
     5.2291   5.2291   5.6044   5.6044   6.5767   6.5767   6.7364   6.7364
     6.8635   6.8635   7.1330   7.1330   7.3664   7.3664   7.8508   7.8508
     8.4836   8.4836   8.6181   8.6181   8.6810   8.6810   8.8512   8.8512
     9.1417   9.1417   9.3951   9.3951   9.5882   9.5882   9.6486   9.6486
     9.9466   9.9466  10.4651  10.4651  10.6072  10.6073  11.5142  11.5142

     occupation numbers 
     1.0000   1.0000   1.0000   1.0000   1.0000   1.0000   1.0000   1.0000
     1.0000   1.0000   1.0000   1.0000   1.0000   1.0000   1.0000   1.0000
     1.0000   1.0000   1.0000   1.0000   1.0000   1.0000   1.0000   1.0000
     1.0000   1.0000   1.0000   1.0000   1.0000   1.0000   1.0000   1.0000
     1.0000   1.0000   1.0000   1.0000   1.0000   1.0000   1.0000   1.0000
     1.0000   1.0000   1.0000   1.0000   1.0000   1.0000   1.0000   1.0000
     1.0000   1.0000   1.0000   1.0000   1.0000   1.0000   1.0000   1.0000
     1.0000   1.0000   1.0000   1.0000  -0.0012  -0.0012  -0.0000  -0.0000
    -0.0000  -0.0000  -0.0000  -0.0000  -0.0000  -0.0000  -0.0000  -0.0000
    -0.0000  -0.0000  -0.0000  -0.0000  -0.0000  -0.0000  -0.0000  -0.0000
    -0.0000  -0.0000  -0.0000  -0.0000  -0.0000  -0.0000  -0.0000  -0.0000
    -0.0000  -0.0000  -0.0000  -0.0000  -0.0000  -0.0000  -0.0000  -0.0000

          k = 0.2500 0.2500 0.2500 ( 18805 PWs)   bands (ev):

   -22.8857 -22.8857 -22.8728 -22.8728 -22.8726 -22.8726 -17.6171 -17.6171
   -17.6171 -17.6171 -17.2873 -17.2873 -17.2873 -17.2873 -14.6585 -14.6585
   -14.6585 -14.6585 -14.6171 -14.6171 -14.2945 -14.2945 -14.2940 -14.2940
   -14.2940 -14.2940  -9.5820  -9.5820  -9.5192  -9.5192  -9.4752  -9.4752
    -7.7747  -7.7747  -7.5396  -7.5396  -7.5003  -7.5003  -7.4759  -7.4759
    -7.4442  -7.4442  -7.3742  -7.3742  -3.8720  -3.8720  -3.2817  -3.2817
     3.1994   3.1994   4.0194   4.0194   4.3512   4.3512   4.6252   4.6252
     5.1921   5.1921   5.5240   5.5240   6.7344   6.7344   6.9536   6.9536
     6.9985   6.9985   7.4216   7.4216   7.7224   7.7224   7.7950   7.7950
     8.2774   8.2774   8.4082   8.4082   8.5792   8.5792   8.9370   8.9370
     9.1655   9.1655   9.2010   9.2010   9.3395   9.3395  10.2582  10.2582
    10.4898  10.4898  10.6009  10.6009  10.7581  10.7581  10.8005  10.8005

     occupation numbers 
     1.0000   1.0000   1.0000   1.0000   1.0000   1.0000   1.0000   1.0000
     1.0000   1.0000   1.0000   1.0000   1.0000   1.0000   1.0000   1.0000
     1.0000   1.0000   1.0000   1.0000   1.0000   1.0000   1.0000   1.0000
     1.0000   1.0000   1.0000   1.0000   1.0000   1.0000   1.0000   1.0000
     1.0000   1.0000   1.0000   1.0000   1.0000   1.0000   1.0000   1.0000
     1.0000   1.0000   1.0000   1.0000   1.0000   1.0000   1.0000   1.0000
     1.0000   1.0000   1.0000   1.0000   1.0000   1.0000   1.0000   1.0000
     1.0000   1.0000   1.0000   1.0000  -0.0000  -0.0000  -0.0000  -0.0000
    -0.0000  -0.0000  -0.0000  -0.0000  -0.0000  -0.0000  -0.0000  -0.0000
    -0.0000  -0.0000  -0.0000  -0.0000  -0.0000  -0.0000  -0.0000  -0.0000
    -0.0000  -0.0000  -0.0000  -0.0000  -0.0000  -0.0000  -0.0000  -0.0000
    -0.0000  -0.0000  -0.0000  -0.0000  -0.0000  -0.0000  -0.0000  -0.0000

          k = 0.2500 0.2500-0.5000 ( 18726 PWs)   bands (ev):

   -22.8814 -22.8814 -22.8757 -22.8757 -22.8727 -22.8727 -17.6195 -17.6195
   -17.6171 -17.6171 -17.2873 -17.2873 -17.2873 -17.2873 -14.6653 -14.6653
   -14.6585 -14.6585 -14.6173 -14.6173 -14.2945 -14.2945 -14.2940 -14.2940
   -14.2939 -14.2939  -9.5951  -9.5951  -9.5068  -9.5068  -9.4836  -9.4836
    -7.8203  -7.8203  -7.5457  -7.5457  -7.4921  -7.4921  -7.4710  -7.4710
    -7.4171  -7.4171  -7.3774  -7.3774  -3.6626  -3.6626  -3.2781  -3.2781
     2.8660   2.8660   3.8453   3.8453   4.1681   4.1681   4.4573   4.4573
     5.1951   5.1951   5.4429   5.4429   7.0516   7.0516   7.1340   7.1340
     7.4161   7.4161   7.4784   7.4784   7.7440   7.7440   7.7995   7.7995
     8.1874   8.1874   8.3324   8.3324   8.5522   8.5522   9.0024   9.0024
     9.0514   9.0514   9.2132   9.2132   9.3446   9.3446   9.6631   9.6631
    10.5234  10.5234  10.5876  10.5876  10.9536  10.9536  11.2027  11.2027

     occupation numbers 
     1.0000   1.0000   1.0000   1.0000   1.0000   1.0000   1.0000   1.0000
     1.0000   1.0000   1.0000   1.0000   1.0000   1.0000   1.0000   1.0000
     1.0000   1.0000   1.0000   1.0000   1.0000   1.0000   1.0000   1.0000
     1.0000   1.0000   1.0000   1.0000   1.0000   1.0000   1.0000   1.0000
     1.0000   1.0000   1.0000   1.0000   1.0000   1.0000   1.0000   1.0000
     1.0000   1.0000   1.0000   1.0000   1.0000   1.0000   1.0000   1.0000
     1.0000   1.0000   1.0000   1.0000   1.0000   1.0000   1.0000   1.0000
     1.0000   1.0000   1.0000   1.0000  -0.0000  -0.0000  -0.0000  -0.0000
    -0.0000  -0.0000  -0.0000  -0.0000  -0.0000  -0.0000  -0.0000  -0.0000
    -0.0000  -0.0000  -0.0000  -0.0000  -0.0000  -0.0000  -0.0000  -0.0000
    -0.0000  -0.0000  -0.0000  -0.0000  -0.0000  -0.0000  -0.0000  -0.0000
    -0.0000  -0.0000  -0.0000  -0.0000  -0.0000  -0.0000  -0.0000  -0.0000

          k = 0.2500 0.2500-0.2500 ( 18805 PWs)   bands (ev):

   -22.8857 -22.8857 -22.8728 -22.8728 -22.8726 -22.8726 -17.6171 -17.6171
   -17.6171 -17.6171 -17.2873 -17.2873 -17.2873 -17.2873 -14.6585 -14.6585
   -14.6585 -14.6585 -14.6171 -14.6171 -14.2945 -14.2945 -14.2940 -14.2940
   -14.2940 -14.2940  -9.5820  -9.5820  -9.5192  -9.5192  -9.4752  -9.4752
    -7.7747  -7.7747  -7.5396  -7.5396  -7.5003  -7.5003  -7.4759  -7.4759
    -7.4442  -7.4442  -7.3742  -7.3742  -3.8720  -3.8720  -3.2817  -3.2817
     3.1994   3.1994   4.0194   4.0194   4.3512   4.3512   4.6252   4.6252
     5.1921   5.1921   5.5240   5.5240   6.7344   6.7344   6.9536   6.9536
     6.9985   6.9985   7.4216   7.4216   7.7224   7.7224   7.7950   7.7950
     8.2774   8.2774   8.4082   8.4082   8.5792   8.5792   8.9370   8.9370
     9.1655   9.1655   9.2010   9.2010   9.3395   9.3395  10.2582  10.2582
    10.4898  10.4898  10.6009  10.6009  10.7581  10.7581  10.8005  10.8005

     occupation numbers 
     1.0000   1.0000   1.0000   1.0000   1.0000   1.0000   1.0000   1.0000
     1.0000   1.0000   1.0000   1.0000   1.0000   1.0000   1.0000   1.0000
     1.0000   1.0000   1.0000   1.0000   1.0000   1.0000   1.0000   1.0000
     1.0000   1.0000   1.0000   1.0000   1.0000   1.0000   1.0000   1.0000
     1.0000   1.0000   1.0000   1.0000   1.0000   1.0000   1.0000   1.0000
     1.0000   1.0000   1.0000   1.0000   1.0000   1.0000   1.0000   1.0000
     1.0000   1.0000   1.0000   1.0000   1.0000   1.0000   1.0000   1.0000
     1.0000   1.0000   1.0000   1.0000  -0.0000  -0.0000  -0.0000  -0.0000
    -0.0000  -0.0000  -0.0000  -0.0000  -0.0000  -0.0000  -0.0000  -0.0000
    -0.0000  -0.0000  -0.0000  -0.0000  -0.0000  -0.0000  -0.0000  -0.0000
    -0.0000  -0.0000  -0.0000  -0.0000  -0.0000  -0.0000  -0.0000  -0.0000
    -0.0000  -0.0000  -0.0000  -0.0000  -0.0000  -0.0000  -0.0000  -0.0000

          k = 0.2500-0.5000 0.0000 ( 18802 PWs)   bands (ev):

   -22.8839 -22.8839 -22.8757 -22.8757 -22.8715 -22.8715 -17.6192 -17.6192
   -17.6151 -17.6151 -17.2873 -17.2873 -17.2873 -17.2873 -14.6644 -14.6644
   -14.6527 -14.6527 -14.6171 -14.6171 -14.2945 -14.2945 -14.2940 -14.2940
   -14.2939 -14.2939  -9.5677  -9.5677  -9.5224  -9.5224  -9.4829  -9.4829
    -7.7418  -7.7418  -7.5491  -7.5491  -7.5146  -7.5146  -7.4895  -7.4895
    -7.4377  -7.4377  -7.3923  -7.3923  -3.8472  -3.8472  -3.2779  -3.2779
     3.0411   3.0411   3.8942   3.8942   4.4612   4.4612   4.7962   4.7962
     5.1780   5.1780   5.4734   5.4734   6.9148   6.9148   7.0070   7.0070
     7.3132   7.3132   7.4033   7.4033   7.6378   7.6378   7.9071   7.9071
     8.1581   8.1581   8.4804   8.4804   8.7105   8.7105   8.9323   8.9323
     9.1372   9.1372   9.2013   9.2013   9.3591   9.3591   9.5709   9.5709
     9.7506   9.7506   9.9343   9.9343  10.9873  10.9873  11.2742  11.2742

     occupation numbers 
     1.0000   1.0000   1.0000   1.0000   1.0000   1.0000   1.0000   1.0000
     1.0000   1.0000   1.0000   1.0000   1.0000   1.0000   1.0000   1.0000
     1.0000   1.0000   1.0000   1.0000   1.0000   1.0000   1.0000   1.0000
     1.0000   1.0000   1.0000   1.0000   1.0000   1.0000   1.0000   1.0000
     1.0000   1.0000   1.0000   1.0000   1.0000   1.0000   1.0000   1.0000
     1.0000   1.0000   1.0000   1.0000   1.0000   1.0000   1.0000   1.0000
     1.0000   1.0000   1.0000   1.0000   1.0000   1.0000   1.0000   1.0000
     1.0000   1.0000   1.0000   1.0000  -0.0000  -0.0000  -0.0000  -0.0000
    -0.0000  -0.0000  -0.0000  -0.0000  -0.0000  -0.0000  -0.0000  -0.0000
    -0.0000  -0.0000  -0.0000  -0.0000  -0.0000  -0.0000  -0.0000  -0.0000
    -0.0000  -0.0000  -0.0000  -0.0000  -0.0000  -0.0000  -0.0000  -0.0000
    -0.0000  -0.0000  -0.0000  -0.0000  -0.0000  -0.0000  -0.0000  -0.0000

          k = 0.2500-0.5000 0.2500 ( 18726 PWs)   bands (ev):

   -22.8814 -22.8814 -22.8757 -22.8757 -22.8727 -22.8727 -17.6195 -17.6195
   -17.6171 -17.6171 -17.2873 -17.2873 -17.2873 -17.2873 -14.6653 -14.6653
   -14.6585 -14.6585 -14.6173 -14.6173 -14.2945 -14.2945 -14.2940 -14.2940
   -14.2939 -14.2939  -9.5951  -9.5951  -9.5068  -9.5068  -9.4836  -9.4836
    -7.8203  -7.8203  -7.5457  -7.5457  -7.4921  -7.4921  -7.4710  -7.4710
    -7.4171  -7.4171  -7.3774  -7.3774  -3.6626  -3.6626  -3.2781  -3.2781
     2.8660   2.8660   3.8453   3.8453   4.1681   4.1681   4.4573   4.4573
     5.1951   5.1951   5.4429   5.4429   7.0516   7.0516   7.1340   7.1340
     7.4161   7.4161   7.4784   7.4784   7.7440   7.7440   7.7995   7.7995
     8.1874   8.1874   8.3324   8.3324   8.5522   8.5522   9.0024   9.0024
     9.0514   9.0514   9.2132   9.2132   9.3446   9.3446   9.6631   9.6631
    10.5234  10.5234  10.5876  10.5876  10.9536  10.9536  11.2027  11.2027

     occupation numbers 
     1.0000   1.0000   1.0000   1.0000   1.0000   1.0000   1.0000   1.0000
     1.0000   1.0000   1.0000   1.0000   1.0000   1.0000   1.0000   1.0000
     1.0000   1.0000   1.0000   1.0000   1.0000   1.0000   1.0000   1.0000
     1.0000   1.0000   1.0000   1.0000   1.0000   1.0000   1.0000   1.0000
     1.0000   1.0000   1.0000   1.0000   1.0000   1.0000   1.0000   1.0000
     1.0000   1.0000   1.0000   1.0000   1.0000   1.0000   1.0000   1.0000
     1.0000   1.0000   1.0000   1.0000   1.0000   1.0000   1.0000   1.0000
     1.0000   1.0000   1.0000   1.0000  -0.0000  -0.0000  -0.0000  -0.0000
    -0.0000  -0.0000  -0.0000  -0.0000  -0.0000  -0.0000  -0.0000  -0.0000
    -0.0000  -0.0000  -0.0000  -0.0000  -0.0000  -0.0000  -0.0000  -0.0000
    -0.0000  -0.0000  -0.0000  -0.0000  -0.0000  -0.0000  -0.0000  -0.0000
    -0.0000  -0.0000  -0.0000  -0.0000  -0.0000  -0.0000  -0.0000  -0.0000

          k = 0.2500-0.5000-0.5000 ( 18732 PWs)   bands (ev):

   -22.8770 -22.8770 -22.8758 -22.8758 -22.8756 -22.8756 -17.6207 -17.6207
   -17.6184 -17.6184 -17.2873 -17.2873 -17.2873 -17.2873 -14.6686 -14.6686
   -14.6620 -14.6620 -14.6174 -14.6174 -14.2945 -14.2945 -14.2940 -14.2940
   -14.2939 -14.2939  -9.6154  -9.6154  -9.4975  -9.4975  -9.4849  -9.4849
    -7.8715  -7.8715  -7.5614  -7.5614  -7.4726  -7.4726  -7.4665  -7.4665
    -7.3921  -7.3921  -7.3582  -7.3582  -3.4612  -3.4612  -3.2784  -3.2784
     2.6210   2.6210   3.5848   3.5848   4.0388   4.0388   4.3212   4.3212
     5.2797   5.2797   5.4176   5.4176   7.1913   7.1913   7.2599   7.2599
     7.4254   7.4254   7.4857   7.4857   7.6079   7.6079   7.7001   7.7001
     7.9569   7.9569   8.6966   8.6966   8.7737   8.7737   9.1201   9.1201
     9.1777   9.1777   9.2614   9.2614   9.5645   9.5645   9.6806   9.6806
    10.3678  10.3678  10.4097  10.4097  11.2515  11.2515  11.3536  11.3536

     occupation numbers 
     1.0000   1.0000   1.0000   1.0000   1.0000   1.0000   1.0000   1.0000
     1.0000   1.0000   1.0000   1.0000   1.0000   1.0000   1.0000   1.0000
     1.0000   1.0000   1.0000   1.0000   1.0000   1.0000   1.0000   1.0000
     1.0000   1.0000   1.0000   1.0000   1.0000   1.0000   1.0000   1.0000
     1.0000   1.0000   1.0000   1.0000   1.0000   1.0000   1.0000   1.0000
     1.0000   1.0000   1.0000   1.0000   1.0000   1.0000   1.0000   1.0000
     1.0000   1.0000   1.0000   1.0000   1.0000   1.0000   1.0000   1.0000
     1.0000   1.0000   1.0000   1.0000  -0.0000  -0.0000  -0.0000  -0.0000
    -0.0000  -0.0000  -0.0000  -0.0000  -0.0000  -0.0000  -0.0000  -0.0000
    -0.0000  -0.0000  -0.0000  -0.0000  -0.0000  -0.0000  -0.0000  -0.0000
    -0.0000  -0.0000  -0.0000  -0.0000  -0.0000  -0.0000  -0.0000  -0.0000
    -0.0000  -0.0000  -0.0000  -0.0000  -0.0000  -0.0000  -0.0000  -0.0000

          k = 0.2500-0.5000-0.2500 ( 18726 PWs)   bands (ev):

   -22.8814 -22.8814 -22.8757 -22.8757 -22.8727 -22.8727 -17.6195 -17.6195
   -17.6171 -17.6171 -17.2873 -17.2873 -17.2873 -17.2873 -14.6653 -14.6653
   -14.6585 -14.6585 -14.6173 -14.6173 -14.2945 -14.2945 -14.2940 -14.2940
   -14.2939 -14.2939  -9.5951  -9.5951  -9.5068  -9.5068  -9.4836  -9.4836
    -7.8203  -7.8203  -7.5457  -7.5457  -7.4921  -7.4921  -7.4710  -7.4710
    -7.4171  -7.4171  -7.3774  -7.3774  -3.6626  -3.6626  -3.2781  -3.2781
     2.8660   2.8660   3.8453   3.8453   4.1681   4.1681   4.4573   4.4573
     5.1951   5.1951   5.4429   5.4429   7.0516   7.0516   7.1340   7.1340
     7.4161   7.4161   7.4784   7.4784   7.7440   7.7440   7.7995   7.7995
     8.1874   8.1874   8.3324   8.3324   8.5522   8.5522   9.0024   9.0024
     9.0514   9.0514   9.2132   9.2132   9.3446   9.3446   9.6631   9.6631
    10.5234  10.5234  10.5876  10.5876  10.9536  10.9536  11.2027  11.2027

     occupation numbers 
     1.0000   1.0000   1.0000   1.0000   1.0000   1.0000   1.0000   1.0000
     1.0000   1.0000   1.0000   1.0000   1.0000   1.0000   1.0000   1.0000
     1.0000   1.0000   1.0000   1.0000   1.0000   1.0000   1.0000   1.0000
     1.0000   1.0000   1.0000   1.0000   1.0000   1.0000   1.0000   1.0000
     1.0000   1.0000   1.0000   1.0000   1.0000   1.0000   1.0000   1.0000
     1.0000   1.0000   1.0000   1.0000   1.0000   1.0000   1.0000   1.0000
     1.0000   1.0000   1.0000   1.0000   1.0000   1.0000   1.0000   1.0000
     1.0000   1.0000   1.0000   1.0000  -0.0000  -0.0000  -0.0000  -0.0000
    -0.0000  -0.0000  -0.0000  -0.0000  -0.0000  -0.0000  -0.0000  -0.0000
    -0.0000  -0.0000  -0.0000  -0.0000  -0.0000  -0.0000  -0.0000  -0.0000
    -0.0000  -0.0000  -0.0000  -0.0000  -0.0000  -0.0000  -0.0000  -0.0000
    -0.0000  -0.0000  -0.0000  -0.0000  -0.0000  -0.0000  -0.0000  -0.0000

          k = 0.2500-0.2500 0.0000 ( 18821 PWs)   bands (ev):

   -22.8887 -22.8887 -22.8727 -22.8727 -22.8711 -22.8711 -17.6171 -17.6171
   -17.6148 -17.6148 -17.2873 -17.2873 -17.2873 -17.2873 -14.6585 -14.6585
   -14.6517 -14.6517 -14.6169 -14.6169 -14.2945 -14.2945 -14.2940 -14.2940
   -14.2940 -14.2940  -9.5638  -9.5638  -9.5341  -9.5341  -9.4692  -9.4692
    -7.7080  -7.7080  -7.5593  -7.5593  -7.5168  -7.5168  -7.4754  -7.4754
    -7.4501  -7.4501  -7.3840  -7.3840  -4.0661  -4.0661  -3.2855  -3.2855
     3.4388   3.4388   4.0975   4.0975   4.6567   4.6567   4.9563   4.9563
     5.2291   5.2291   5.6044   5.6044   6.5767   6.5767   6.7364   6.7364
     6.8635   6.8635   7.1330   7.1330   7.3664   7.3664   7.8508   7.8508
     8.4836   8.4836   8.6181   8.6181   8.6810   8.6810   8.8512   8.8512
     9.1417   9.1417   9.3951   9.3951   9.5882   9.5882   9.6486   9.6486
     9.9466   9.9466  10.4651  10.4651  10.6072  10.6072  11.5141  11.5143

     occupation numbers 
     1.0000   1.0000   1.0000   1.0000   1.0000   1.0000   1.0000   1.0000
     1.0000   1.0000   1.0000   1.0000   1.0000   1.0000   1.0000   1.0000
     1.0000   1.0000   1.0000   1.0000   1.0000   1.0000   1.0000   1.0000
     1.0000   1.0000   1.0000   1.0000   1.0000   1.0000   1.0000   1.0000
     1.0000   1.0000   1.0000   1.0000   1.0000   1.0000   1.0000   1.0000
     1.0000   1.0000   1.0000   1.0000   1.0000   1.0000   1.0000   1.0000
     1.0000   1.0000   1.0000   1.0000   1.0000   1.0000   1.0000   1.0000
     1.0000   1.0000   1.0000   1.0000  -0.0012  -0.0012  -0.0000  -0.0000
    -0.0000  -0.0000  -0.0000  -0.0000  -0.0000  -0.0000  -0.0000  -0.0000
    -0.0000  -0.0000  -0.0000  -0.0000  -0.0000  -0.0000  -0.0000  -0.0000
    -0.0000  -0.0000  -0.0000  -0.0000  -0.0000  -0.0000  -0.0000  -0.0000
    -0.0000  -0.0000  -0.0000  -0.0000  -0.0000  -0.0000  -0.0000  -0.0000

          k = 0.2500-0.2500 0.2500 ( 18805 PWs)   bands (ev):

   -22.8857 -22.8857 -22.8728 -22.8728 -22.8726 -22.8726 -17.6171 -17.6171
   -17.6171 -17.6171 -17.2873 -17.2873 -17.2873 -17.2873 -14.6585 -14.6585
   -14.6585 -14.6585 -14.6171 -14.6171 -14.2945 -14.2945 -14.2940 -14.2940
   -14.2940 -14.2940  -9.5820  -9.5820  -9.5192  -9.5192  -9.4752  -9.4752
    -7.7747  -7.7747  -7.5396  -7.5396  -7.5003  -7.5003  -7.4759  -7.4759
    -7.4442  -7.4442  -7.3742  -7.3742  -3.8720  -3.8720  -3.2817  -3.2817
     3.1994   3.1994   4.0194   4.0194   4.3512   4.3512   4.6252   4.6252
     5.1921   5.1921   5.5240   5.5240   6.7344   6.7344   6.9536   6.9536
     6.9985   6.9985   7.4216   7.4216   7.7224   7.7224   7.7950   7.7950
     8.2774   8.2774   8.4082   8.4082   8.5792   8.5792   8.9370   8.9370
     9.1655   9.1655   9.2010   9.2010   9.3395   9.3395  10.2582  10.2582
    10.4898  10.4898  10.6009  10.6009  10.7581  10.7581  10.8005  10.8005

     occupation numbers 
     1.0000   1.0000   1.0000   1.0000   1.0000   1.0000   1.0000   1.0000
     1.0000   1.0000   1.0000   1.0000   1.0000   1.0000   1.0000   1.0000
     1.0000   1.0000   1.0000   1.0000   1.0000   1.0000   1.0000   1.0000
     1.0000   1.0000   1.0000   1.0000   1.0000   1.0000   1.0000   1.0000
     1.0000   1.0000   1.0000   1.0000   1.0000   1.0000   1.0000   1.0000
     1.0000   1.0000   1.0000   1.0000   1.0000   1.0000   1.0000   1.0000
     1.0000   1.0000   1.0000   1.0000   1.0000   1.0000   1.0000   1.0000
     1.0000   1.0000   1.0000   1.0000  -0.0000  -0.0000  -0.0000  -0.0000
    -0.0000  -0.0000  -0.0000  -0.0000  -0.0000  -0.0000  -0.0000  -0.0000
    -0.0000  -0.0000  -0.0000  -0.0000  -0.0000  -0.0000  -0.0000  -0.0000
    -0.0000  -0.0000  -0.0000  -0.0000  -0.0000  -0.0000  -0.0000  -0.0000
    -0.0000  -0.0000  -0.0000  -0.0000  -0.0000  -0.0000  -0.0000  -0.0000

          k = 0.2500-0.2500-0.5000 ( 18726 PWs)   bands (ev):

   -22.8814 -22.8814 -22.8757 -22.8757 -22.8727 -22.8727 -17.6195 -17.6195
   -17.6171 -17.6171 -17.2873 -17.2873 -17.2873 -17.2873 -14.6653 -14.6653
   -14.6585 -14.6585 -14.6173 -14.6173 -14.2945 -14.2945 -14.2940 -14.2940
   -14.2939 -14.2939  -9.5951  -9.5951  -9.5068  -9.5068  -9.4836  -9.4836
    -7.8203  -7.8203  -7.5457  -7.5457  -7.4921  -7.4921  -7.4710  -7.4710
    -7.4171  -7.4171  -7.3774  -7.3774  -3.6626  -3.6626  -3.2781  -3.2781
     2.8660   2.8660   3.8453   3.8453   4.1681   4.1681   4.4573   4.4573
     5.1951   5.1951   5.4429   5.4429   7.0516   7.0516   7.1340   7.1340
     7.4161   7.4161   7.4784   7.4784   7.7440   7.7440   7.7995   7.7995
     8.1874   8.1874   8.3324   8.3324   8.5522   8.5522   9.0024   9.0024
     9.0514   9.0514   9.2132   9.2132   9.3446   9.3446   9.6631   9.6631
    10.5234  10.5234  10.5876  10.5876  10.9536  10.9536  11.2027  11.2027

     occupation numbers 
     1.0000   1.0000   1.0000   1.0000   1.0000   1.0000   1.0000   1.0000
     1.0000   1.0000   1.0000   1.0000   1.0000   1.0000   1.0000   1.0000
     1.0000   1.0000   1.0000   1.0000   1.0000   1.0000   1.0000   1.0000
     1.0000   1.0000   1.0000   1.0000   1.0000   1.0000   1.0000   1.0000
     1.0000   1.0000   1.0000   1.0000   1.0000   1.0000   1.0000   1.0000
     1.0000   1.0000   1.0000   1.0000   1.0000   1.0000   1.0000   1.0000
     1.0000   1.0000   1.0000   1.0000   1.0000   1.0000   1.0000   1.0000
     1.0000   1.0000   1.0000   1.0000  -0.0000  -0.0000  -0.0000  -0.0000
    -0.0000  -0.0000  -0.0000  -0.0000  -0.0000  -0.0000  -0.0000  -0.0000
    -0.0000  -0.0000  -0.0000  -0.0000  -0.0000  -0.0000  -0.0000  -0.0000
    -0.0000  -0.0000  -0.0000  -0.0000  -0.0000  -0.0000  -0.0000  -0.0000
    -0.0000  -0.0000  -0.0000  -0.0000  -0.0000  -0.0000  -0.0000  -0.0000

          k = 0.2500-0.2500-0.2500 ( 18805 PWs)   bands (ev):

   -22.8857 -22.8857 -22.8728 -22.8728 -22.8726 -22.8726 -17.6171 -17.6171
   -17.6171 -17.6171 -17.2873 -17.2873 -17.2873 -17.2873 -14.6585 -14.6585
   -14.6585 -14.6585 -14.6171 -14.6171 -14.2945 -14.2945 -14.2940 -14.2940
   -14.2940 -14.2940  -9.5820  -9.5820  -9.5192  -9.5192  -9.4752  -9.4752
    -7.7747  -7.7747  -7.5396  -7.5396  -7.5003  -7.5003  -7.4759  -7.4759
    -7.4442  -7.4442  -7.3742  -7.3742  -3.8720  -3.8720  -3.2817  -3.2817
     3.1994   3.1994   4.0194   4.0194   4.3512   4.3512   4.6252   4.6252
     5.1921   5.1921   5.5240   5.5240   6.7344   6.7344   6.9536   6.9536
     6.9985   6.9985   7.4216   7.4216   7.7224   7.7224   7.7950   7.7950
     8.2774   8.2774   8.4082   8.4082   8.5792   8.5792   8.9370   8.9370
     9.1655   9.1655   9.2010   9.2010   9.3395   9.3395  10.2582  10.2582
    10.4898  10.4898  10.6009  10.6009  10.7581  10.7581  10.8005  10.8005

     occupation numbers 
     1.0000   1.0000   1.0000   1.0000   1.0000   1.0000   1.0000   1.0000
     1.0000   1.0000   1.0000   1.0000   1.0000   1.0000   1.0000   1.0000
     1.0000   1.0000   1.0000   1.0000   1.0000   1.0000   1.0000   1.0000
     1.0000   1.0000   1.0000   1.0000   1.0000   1.0000   1.0000   1.0000
     1.0000   1.0000   1.0000   1.0000   1.0000   1.0000   1.0000   1.0000
     1.0000   1.0000   1.0000   1.0000   1.0000   1.0000   1.0000   1.0000
     1.0000   1.0000   1.0000   1.0000   1.0000   1.0000   1.0000   1.0000
     1.0000   1.0000   1.0000   1.0000  -0.0000  -0.0000  -0.0000  -0.0000
    -0.0000  -0.0000  -0.0000  -0.0000  -0.0000  -0.0000  -0.0000  -0.0000
    -0.0000  -0.0000  -0.0000  -0.0000  -0.0000  -0.0000  -0.0000  -0.0000
    -0.0000  -0.0000  -0.0000  -0.0000  -0.0000  -0.0000  -0.0000  -0.0000
    -0.0000  -0.0000  -0.0000  -0.0000  -0.0000  -0.0000  -0.0000  -0.0000

          k =-0.5000 0.0000 0.0000 ( 18752 PWs)   bands (ev):

   -22.8871 -22.8871 -22.8757 -22.8757 -22.8697 -22.8697 -17.6183 -17.6183
   -17.6136 -17.6136 -17.2873 -17.2873 -17.2873 -17.2873 -14.6619 -14.6619
   -14.6483 -14.6483 -14.6169 -14.6169 -14.2945 -14.2945 -14.2940 -14.2940
   -14.2940 -14.2940  -9.5573  -9.5573  -9.5244  -9.5244  -9.4823  -9.4823
    -7.6212  -7.6212  -7.6190  -7.6190  -7.5109  -7.5109  -7.4769  -7.4769
    -7.4766  -7.4766  -7.4065  -7.4065  -4.0403  -4.0403  -3.2819  -3.2819
     3.2541   3.2541   4.0515   4.0515   4.7440   4.7440   5.0016   5.0016
     5.2720   5.2720   5.5920   5.5920   6.5651   6.5651   6.6548   6.6548
     7.1282   7.1282   7.4694   7.4694   7.7693   7.7693   7.8930   7.8930
     7.9966   7.9966   8.4673   8.4673   8.7512   8.7512   8.9908   8.9908
     9.1286   9.1286   9.3919   9.3919   9.4604   9.4604   9.4811   9.4811
    10.1173  10.1173  10.3667  10.3667  10.4198  10.4198  10.5068  10.5068

     occupation numbers 
     1.0000   1.0000   1.0000   1.0000   1.0000   1.0000   1.0000   1.0000
     1.0000   1.0000   1.0000   1.0000   1.0000   1.0000   1.0000   1.0000
     1.0000   1.0000   1.0000   1.0000   1.0000   1.0000   1.0000   1.0000
     1.0000   1.0000   1.0000   1.0000   1.0000   1.0000   1.0000   1.0000
     1.0000   1.0000   1.0000   1.0000   1.0000   1.0000   1.0000   1.0000
     1.0000   1.0000   1.0000   1.0000   1.0000   1.0000   1.0000   1.0000
     1.0000   1.0000   1.0000   1.0000   1.0000   1.0000   1.0000   1.0000
     1.0000   1.0000   1.0000   1.0000  -0.0017  -0.0017  -0.0001  -0.0001
    -0.0000  -0.0000  -0.0000  -0.0000  -0.0000  -0.0000  -0.0000  -0.0000
    -0.0000  -0.0000  -0.0000  -0.0000  -0.0000  -0.0000  -0.0000  -0.0000
    -0.0000  -0.0000  -0.0000  -0.0000  -0.0000  -0.0000  -0.0000  -0.0000
    -0.0000  -0.0000  -0.0000  -0.0000  -0.0000  -0.0000  -0.0000  -0.0000

          k =-0.5000 0.0000 0.2500 ( 18802 PWs)   bands (ev):

   -22.8839 -22.8839 -22.8757 -22.8757 -22.8715 -22.8715 -17.6192 -17.6192
   -17.6151 -17.6151 -17.2873 -17.2873 -17.2873 -17.2873 -14.6644 -14.6644
   -14.6527 -14.6527 -14.6171 -14.6171 -14.2945 -14.2945 -14.2940 -14.2940
   -14.2939 -14.2939  -9.5677  -9.5677  -9.5224  -9.5224  -9.4829  -9.4829
    -7.7418  -7.7418  -7.5491  -7.5491  -7.5146  -7.5146  -7.4895  -7.4895
    -7.4377  -7.4377  -7.3923  -7.3923  -3.8472  -3.8472  -3.2779  -3.2779
     3.0411   3.0411   3.8942   3.8942   4.4612   4.4612   4.7962   4.7962
     5.1780   5.1780   5.4734   5.4734   6.9148   6.9148   7.0070   7.0070
     7.3132   7.3132   7.4033   7.4033   7.6378   7.6378   7.9071   7.9071
     8.1581   8.1581   8.4804   8.4804   8.7105   8.7105   8.9323   8.9323
     9.1372   9.1372   9.2013   9.2013   9.3591   9.3591   9.5709   9.5709
     9.7506   9.7506   9.9343   9.9343  10.9873  10.9873  11.2742  11.2742

     occupation numbers 
     1.0000   1.0000   1.0000   1.0000   1.0000   1.0000   1.0000   1.0000
     1.0000   1.0000   1.0000   1.0000   1.0000   1.0000   1.0000   1.0000
     1.0000   1.0000   1.0000   1.0000   1.0000   1.0000   1.0000   1.0000
     1.0000   1.0000   1.0000   1.0000   1.0000   1.0000   1.0000   1.0000
     1.0000   1.0000   1.0000   1.0000   1.0000   1.0000   1.0000   1.0000
     1.0000   1.0000   1.0000   1.0000   1.0000   1.0000   1.0000   1.0000
     1.0000   1.0000   1.0000   1.0000   1.0000   1.0000   1.0000   1.0000
     1.0000   1.0000   1.0000   1.0000  -0.0000  -0.0000  -0.0000  -0.0000
    -0.0000  -0.0000  -0.0000  -0.0000  -0.0000  -0.0000  -0.0000  -0.0000
    -0.0000  -0.0000  -0.0000  -0.0000  -0.0000  -0.0000  -0.0000  -0.0000
    -0.0000  -0.0000  -0.0000  -0.0000  -0.0000  -0.0000  -0.0000  -0.0000
    -0.0000  -0.0000  -0.0000  -0.0000  -0.0000  -0.0000  -0.0000  -0.0000

          k =-0.5000 0.0000-0.5000 ( 18800 PWs)   bands (ev):

   -22.8784 -22.8784 -22.8758 -22.8758 -22.8756 -22.8756 -17.6207 -17.6207
   -17.6160 -17.6160 -17.2873 -17.2873 -17.2873 -17.2873 -14.6686 -14.6686
   -14.6553 -14.6553 -14.6173 -14.6173 -14.2945 -14.2945 -14.2940 -14.2940
   -14.2939 -14.2939  -9.5779  -9.5779  -9.5199  -9.5199  -9.4843  -9.4843
    -7.7961  -7.7961  -7.5342  -7.5342  -7.5282  -7.5282  -7.4851  -7.4851
    -7.4239  -7.4239  -7.3708  -7.3708  -3.6389  -3.6389  -3.2740  -3.2740
     2.7622   2.7622   3.5911   3.5911   4.3748   4.3748   4.6475   4.6475
     5.2262   5.2262   5.4076   5.4076   7.2673   7.2673   7.3140   7.3140
     7.3545   7.3545   7.4365   7.4365   7.6043   7.6043   7.7281   7.7281
     8.3723   8.3723   8.4353   8.4353   8.5619   8.5619   8.7993   8.7993
     9.1243   9.1243   9.2488   9.2488   9.4134   9.4134   9.6320   9.6320
     9.6553   9.6553  10.3946  10.3947  10.4940  10.4941  11.5172  11.5179

     occupation numbers 
     1.0000   1.0000   1.0000   1.0000   1.0000   1.0000   1.0000   1.0000
     1.0000   1.0000   1.0000   1.0000   1.0000   1.0000   1.0000   1.0000
     1.0000   1.0000   1.0000   1.0000   1.0000   1.0000   1.0000   1.0000
     1.0000   1.0000   1.0000   1.0000   1.0000   1.0000   1.0000   1.0000
     1.0000   1.0000   1.0000   1.0000   1.0000   1.0000   1.0000   1.0000
     1.0000   1.0000   1.0000   1.0000   1.0000   1.0000   1.0000   1.0000
     1.0000   1.0000   1.0000   1.0000   1.0000   1.0000   1.0000   1.0000
     1.0000   1.0000   1.0000   1.0000  -0.0000  -0.0000  -0.0000  -0.0000
    -0.0000  -0.0000  -0.0000  -0.0000  -0.0000  -0.0000  -0.0000  -0.0000
    -0.0000  -0.0000  -0.0000  -0.0000  -0.0000  -0.0000  -0.0000  -0.0000
    -0.0000  -0.0000  -0.0000  -0.0000  -0.0000  -0.0000  -0.0000  -0.0000
    -0.0000  -0.0000  -0.0000  -0.0000  -0.0000  -0.0000  -0.0000  -0.0000

          k =-0.5000 0.0000-0.2500 ( 18802 PWs)   bands (ev):

   -22.8839 -22.8839 -22.8757 -22.8757 -22.8715 -22.8715 -17.6192 -17.6192
   -17.6151 -17.6151 -17.2873 -17.2873 -17.2873 -17.2873 -14.6644 -14.6644
   -14.6527 -14.6527 -14.6171 -14.6171 -14.2945 -14.2945 -14.2940 -14.2940
   -14.2939 -14.2939  -9.5677  -9.5677  -9.5224  -9.5224  -9.4829  -9.4829
    -7.7418  -7.7418  -7.5491  -7.5491  -7.5146  -7.5146  -7.4895  -7.4895
    -7.4377  -7.4377  -7.3923  -7.3923  -3.8472  -3.8472  -3.2779  -3.2779
     3.0411   3.0411   3.8942   3.8942   4.4612   4.4612   4.7962   4.7962
     5.1780   5.1780   5.4734   5.4734   6.9148   6.9148   7.0070   7.0070
     7.3132   7.3132   7.4033   7.4033   7.6378   7.6378   7.9071   7.9071
     8.1581   8.1581   8.4804   8.4804   8.7105   8.7105   8.9323   8.9323
     9.1372   9.1372   9.2013   9.2013   9.3591   9.3591   9.5709   9.5709
     9.7506   9.7506   9.9343   9.9343  10.9873  10.9873  11.2742  11.2742

     occupation numbers 
     1.0000   1.0000   1.0000   1.0000   1.0000   1.0000   1.0000   1.0000
     1.0000   1.0000   1.0000   1.0000   1.0000   1.0000   1.0000   1.0000
     1.0000   1.0000   1.0000   1.0000   1.0000   1.0000   1.0000   1.0000
     1.0000   1.0000   1.0000   1.0000   1.0000   1.0000   1.0000   1.0000
     1.0000   1.0000   1.0000   1.0000   1.0000   1.0000   1.0000   1.0000
     1.0000   1.0000   1.0000   1.0000   1.0000   1.0000   1.0000   1.0000
     1.0000   1.0000   1.0000   1.0000   1.0000   1.0000   1.0000   1.0000
     1.0000   1.0000   1.0000   1.0000  -0.0000  -0.0000  -0.0000  -0.0000
    -0.0000  -0.0000  -0.0000  -0.0000  -0.0000  -0.0000  -0.0000  -0.0000
    -0.0000  -0.0000  -0.0000  -0.0000  -0.0000  -0.0000  -0.0000  -0.0000
    -0.0000  -0.0000  -0.0000  -0.0000  -0.0000  -0.0000  -0.0000  -0.0000
    -0.0000  -0.0000  -0.0000  -0.0000  -0.0000  -0.0000  -0.0000  -0.0000

          k =-0.5000 0.2500 0.0000 ( 18802 PWs)   bands (ev):

   -22.8839 -22.8839 -22.8757 -22.8757 -22.8715 -22.8715 -17.6192 -17.6192
   -17.6151 -17.6151 -17.2873 -17.2873 -17.2873 -17.2873 -14.6644 -14.6644
   -14.6527 -14.6527 -14.6171 -14.6171 -14.2945 -14.2945 -14.2940 -14.2940
   -14.2939 -14.2939  -9.5677  -9.5677  -9.5224  -9.5224  -9.4829  -9.4829
    -7.7418  -7.7418  -7.5491  -7.5491  -7.5146  -7.5146  -7.4895  -7.4895
    -7.4377  -7.4377  -7.3923  -7.3923  -3.8472  -3.8472  -3.2779  -3.2779
     3.0411   3.0411   3.8942   3.8942   4.4612   4.4612   4.7962   4.7962
     5.1780   5.1780   5.4734   5.4734   6.9148   6.9148   7.0070   7.0070
     7.3132   7.3132   7.4033   7.4033   7.6378   7.6378   7.9071   7.9071
     8.1581   8.1581   8.4804   8.4804   8.7105   8.7105   8.9323   8.9323
     9.1372   9.1372   9.2013   9.2013   9.3591   9.3591   9.5709   9.5709
     9.7506   9.7506   9.9343   9.9343  10.9873  10.9873  11.2743  11.2743

     occupation numbers 
     1.0000   1.0000   1.0000   1.0000   1.0000   1.0000   1.0000   1.0000
     1.0000   1.0000   1.0000   1.0000   1.0000   1.0000   1.0000   1.0000
     1.0000   1.0000   1.0000   1.0000   1.0000   1.0000   1.0000   1.0000
     1.0000   1.0000   1.0000   1.0000   1.0000   1.0000   1.0000   1.0000
     1.0000   1.0000   1.0000   1.0000   1.0000   1.0000   1.0000   1.0000
     1.0000   1.0000   1.0000   1.0000   1.0000   1.0000   1.0000   1.0000
     1.0000   1.0000   1.0000   1.0000   1.0000   1.0000   1.0000   1.0000
     1.0000   1.0000   1.0000   1.0000  -0.0000  -0.0000  -0.0000  -0.0000
    -0.0000  -0.0000  -0.0000  -0.0000  -0.0000  -0.0000  -0.0000  -0.0000
    -0.0000  -0.0000  -0.0000  -0.0000  -0.0000  -0.0000  -0.0000  -0.0000
    -0.0000  -0.0000  -0.0000  -0.0000  -0.0000  -0.0000  -0.0000  -0.0000
    -0.0000  -0.0000  -0.0000  -0.0000  -0.0000  -0.0000  -0.0000  -0.0000

          k =-0.5000 0.2500 0.2500 ( 18726 PWs)   bands (ev):

   -22.8814 -22.8814 -22.8757 -22.8757 -22.8727 -22.8727 -17.6195 -17.6195
   -17.6171 -17.6171 -17.2873 -17.2873 -17.2873 -17.2873 -14.6653 -14.6653
   -14.6585 -14.6585 -14.6173 -14.6173 -14.2945 -14.2945 -14.2940 -14.2940
   -14.2939 -14.2939  -9.5951  -9.5951  -9.5068  -9.5068  -9.4836  -9.4836
    -7.8203  -7.8203  -7.5457  -7.5457  -7.4921  -7.4921  -7.4710  -7.4710
    -7.4171  -7.4171  -7.3774  -7.3774  -3.6626  -3.6626  -3.2781  -3.2781
     2.8660   2.8660   3.8453   3.8453   4.1681   4.1681   4.4573   4.4573
     5.1951   5.1951   5.4429   5.4429   7.0516   7.0516   7.1340   7.1340
     7.4161   7.4161   7.4784   7.4784   7.7440   7.7440   7.7995   7.7995
     8.1874   8.1874   8.3324   8.3324   8.5522   8.5522   9.0024   9.0024
     9.0514   9.0514   9.2132   9.2132   9.3446   9.3446   9.6631   9.6631
    10.5234  10.5234  10.5876  10.5876  10.9536  10.9536  11.2027  11.2027

     occupation numbers 
     1.0000   1.0000   1.0000   1.0000   1.0000   1.0000   1.0000   1.0000
     1.0000   1.0000   1.0000   1.0000   1.0000   1.0000   1.0000   1.0000
     1.0000   1.0000   1.0000   1.0000   1.0000   1.0000   1.0000   1.0000
     1.0000   1.0000   1.0000   1.0000   1.0000   1.0000   1.0000   1.0000
     1.0000   1.0000   1.0000   1.0000   1.0000   1.0000   1.0000   1.0000
     1.0000   1.0000   1.0000   1.0000   1.0000   1.0000   1.0000   1.0000
     1.0000   1.0000   1.0000   1.0000   1.0000   1.0000   1.0000   1.0000
     1.0000   1.0000   1.0000   1.0000  -0.0000  -0.0000  -0.0000  -0.0000
    -0.0000  -0.0000  -0.0000  -0.0000  -0.0000  -0.0000  -0.0000  -0.0000
    -0.0000  -0.0000  -0.0000  -0.0000  -0.0000  -0.0000  -0.0000  -0.0000
    -0.0000  -0.0000  -0.0000  -0.0000  -0.0000  -0.0000  -0.0000  -0.0000
    -0.0000  -0.0000  -0.0000  -0.0000  -0.0000  -0.0000  -0.0000  -0.0000

          k =-0.5000 0.2500-0.5000 ( 18732 PWs)   bands (ev):

   -22.8770 -22.8770 -22.8758 -22.8758 -22.8756 -22.8756 -17.6207 -17.6207
   -17.6184 -17.6184 -17.2873 -17.2873 -17.2873 -17.2873 -14.6686 -14.6686
   -14.6620 -14.6620 -14.6174 -14.6174 -14.2945 -14.2945 -14.2940 -14.2940
   -14.2939 -14.2939  -9.6154  -9.6154  -9.4975  -9.4975  -9.4849  -9.4849
    -7.8715  -7.8715  -7.5614  -7.5614  -7.4726  -7.4726  -7.4665  -7.4665
    -7.3921  -7.3921  -7.3582  -7.3582  -3.4612  -3.4612  -3.2784  -3.2784
     2.6210   2.6210   3.5848   3.5848   4.0388   4.0388   4.3212   4.3212
     5.2797   5.2797   5.4176   5.4176   7.1913   7.1913   7.2599   7.2599
     7.4254   7.4254   7.4857   7.4857   7.6079   7.6079   7.7001   7.7001
     7.9569   7.9569   8.6966   8.6966   8.7737   8.7737   9.1201   9.1201
     9.1777   9.1777   9.2614   9.2614   9.5645   9.5645   9.6806   9.6806
    10.3678  10.3678  10.4097  10.4097  11.2515  11.2515  11.3535  11.3536

     occupation numbers 
     1.0000   1.0000   1.0000   1.0000   1.0000   1.0000   1.0000   1.0000
     1.0000   1.0000   1.0000   1.0000   1.0000   1.0000   1.0000   1.0000
     1.0000   1.0000   1.0000   1.0000   1.0000   1.0000   1.0000   1.0000
     1.0000   1.0000   1.0000   1.0000   1.0000   1.0000   1.0000   1.0000
     1.0000   1.0000   1.0000   1.0000   1.0000   1.0000   1.0000   1.0000
     1.0000   1.0000   1.0000   1.0000   1.0000   1.0000   1.0000   1.0000
     1.0000   1.0000   1.0000   1.0000   1.0000   1.0000   1.0000   1.0000
     1.0000   1.0000   1.0000   1.0000  -0.0000  -0.0000  -0.0000  -0.0000
    -0.0000  -0.0000  -0.0000  -0.0000  -0.0000  -0.0000  -0.0000  -0.0000
    -0.0000  -0.0000  -0.0000  -0.0000  -0.0000  -0.0000  -0.0000  -0.0000
    -0.0000  -0.0000  -0.0000  -0.0000  -0.0000  -0.0000  -0.0000  -0.0000
    -0.0000  -0.0000  -0.0000  -0.0000  -0.0000  -0.0000  -0.0000  -0.0000

          k =-0.5000 0.2500-0.2500 ( 18726 PWs)   bands (ev):

   -22.8814 -22.8814 -22.8757 -22.8757 -22.8727 -22.8727 -17.6195 -17.6195
   -17.6171 -17.6171 -17.2873 -17.2873 -17.2873 -17.2873 -14.6653 -14.6653
   -14.6585 -14.6585 -14.6173 -14.6173 -14.2945 -14.2945 -14.2940 -14.2940
   -14.2939 -14.2939  -9.5951  -9.5951  -9.5068  -9.5068  -9.4836  -9.4836
    -7.8203  -7.8203  -7.5457  -7.5457  -7.4921  -7.4921  -7.4710  -7.4710
    -7.4171  -7.4171  -7.3774  -7.3774  -3.6626  -3.6626  -3.2781  -3.2781
     2.8660   2.8660   3.8453   3.8453   4.1681   4.1681   4.4573   4.4573
     5.1951   5.1951   5.4429   5.4429   7.0516   7.0516   7.1340   7.1340
     7.4161   7.4161   7.4784   7.4784   7.7440   7.7440   7.7995   7.7995
     8.1874   8.1874   8.3324   8.3324   8.5522   8.5522   9.0024   9.0024
     9.0514   9.0514   9.2132   9.2132   9.3446   9.3446   9.6631   9.6631
    10.5234  10.5234  10.5876  10.5876  10.9536  10.9536  11.2027  11.2027

     occupation numbers 
     1.0000   1.0000   1.0000   1.0000   1.0000   1.0000   1.0000   1.0000
     1.0000   1.0000   1.0000   1.0000   1.0000   1.0000   1.0000   1.0000
     1.0000   1.0000   1.0000   1.0000   1.0000   1.0000   1.0000   1.0000
     1.0000   1.0000   1.0000   1.0000   1.0000   1.0000   1.0000   1.0000
     1.0000   1.0000   1.0000   1.0000   1.0000   1.0000   1.0000   1.0000
     1.0000   1.0000   1.0000   1.0000   1.0000   1.0000   1.0000   1.0000
     1.0000   1.0000   1.0000   1.0000   1.0000   1.0000   1.0000   1.0000
     1.0000   1.0000   1.0000   1.0000  -0.0000  -0.0000  -0.0000  -0.0000
    -0.0000  -0.0000  -0.0000  -0.0000  -0.0000  -0.0000  -0.0000  -0.0000
    -0.0000  -0.0000  -0.0000  -0.0000  -0.0000  -0.0000  -0.0000  -0.0000
    -0.0000  -0.0000  -0.0000  -0.0000  -0.0000  -0.0000  -0.0000  -0.0000
    -0.0000  -0.0000  -0.0000  -0.0000  -0.0000  -0.0000  -0.0000  -0.0000

          k =-0.5000-0.5000 0.0000 ( 18800 PWs)   bands (ev):

   -22.8784 -22.8784 -22.8758 -22.8758 -22.8756 -22.8756 -17.6207 -17.6207
   -17.6160 -17.6160 -17.2873 -17.2873 -17.2873 -17.2873 -14.6686 -14.6686
   -14.6553 -14.6553 -14.6173 -14.6173 -14.2945 -14.2945 -14.2940 -14.2940
   -14.2939 -14.2939  -9.5779  -9.5779  -9.5199  -9.5199  -9.4843  -9.4843
    -7.7961  -7.7961  -7.5342  -7.5342  -7.5282  -7.5282  -7.4851  -7.4851
    -7.4239  -7.4239  -7.3708  -7.3708  -3.6389  -3.6389  -3.2740  -3.2740
     2.7622   2.7622   3.5911   3.5911   4.3748   4.3748   4.6475   4.6475
     5.2262   5.2262   5.4076   5.4076   7.2673   7.2673   7.3140   7.3140
     7.3545   7.3545   7.4365   7.4365   7.6043   7.6043   7.7281   7.7281
     8.3723   8.3723   8.4353   8.4353   8.5619   8.5619   8.7993   8.7993
     9.1243   9.1243   9.2488   9.2488   9.4134   9.4134   9.6320   9.6320
     9.6553   9.6553  10.3946  10.3946  10.4940  10.4940  11.5172  11.5172

     occupation numbers 
     1.0000   1.0000   1.0000   1.0000   1.0000   1.0000   1.0000   1.0000
     1.0000   1.0000   1.0000   1.0000   1.0000   1.0000   1.0000   1.0000
     1.0000   1.0000   1.0000   1.0000   1.0000   1.0000   1.0000   1.0000
     1.0000   1.0000   1.0000   1.0000   1.0000   1.0000   1.0000   1.0000
     1.0000   1.0000   1.0000   1.0000   1.0000   1.0000   1.0000   1.0000
     1.0000   1.0000   1.0000   1.0000   1.0000   1.0000   1.0000   1.0000
     1.0000   1.0000   1.0000   1.0000   1.0000   1.0000   1.0000   1.0000
     1.0000   1.0000   1.0000   1.0000  -0.0000  -0.0000  -0.0000  -0.0000
    -0.0000  -0.0000  -0.0000  -0.0000  -0.0000  -0.0000  -0.0000  -0.0000
    -0.0000  -0.0000  -0.0000  -0.0000  -0.0000  -0.0000  -0.0000  -0.0000
    -0.0000  -0.0000  -0.0000  -0.0000  -0.0000  -0.0000  -0.0000  -0.0000
    -0.0000  -0.0000  -0.0000  -0.0000  -0.0000  -0.0000  -0.0000  -0.0000

          k =-0.5000-0.5000 0.2500 ( 18732 PWs)   bands (ev):

   -22.8770 -22.8770 -22.8758 -22.8758 -22.8756 -22.8756 -17.6207 -17.6207
   -17.6184 -17.6184 -17.2873 -17.2873 -17.2873 -17.2873 -14.6686 -14.6686
   -14.6620 -14.6620 -14.6174 -14.6174 -14.2945 -14.2945 -14.2940 -14.2940
   -14.2939 -14.2939  -9.6154  -9.6154  -9.4975  -9.4975  -9.4849  -9.4849
    -7.8715  -7.8715  -7.5614  -7.5614  -7.4726  -7.4726  -7.4665  -7.4665
    -7.3921  -7.3921  -7.3582  -7.3582  -3.4612  -3.4612  -3.2784  -3.2784
     2.6210   2.6210   3.5848   3.5848   4.0388   4.0388   4.3212   4.3212
     5.2797   5.2797   5.4176   5.4176   7.1913   7.1913   7.2599   7.2599
     7.4254   7.4254   7.4857   7.4857   7.6079   7.6079   7.7001   7.7001
     7.9569   7.9569   8.6966   8.6966   8.7737   8.7737   9.1201   9.1201
     9.1777   9.1777   9.2614   9.2614   9.5645   9.5645   9.6806   9.6806
    10.3678  10.3678  10.4097  10.4097  11.2515  11.2515  11.3534  11.3539

     occupation numbers 
     1.0000   1.0000   1.0000   1.0000   1.0000   1.0000   1.0000   1.0000
     1.0000   1.0000   1.0000   1.0000   1.0000   1.0000   1.0000   1.0000
     1.0000   1.0000   1.0000   1.0000   1.0000   1.0000   1.0000   1.0000
     1.0000   1.0000   1.0000   1.0000   1.0000   1.0000   1.0000   1.0000
     1.0000   1.0000   1.0000   1.0000   1.0000   1.0000   1.0000   1.0000
     1.0000   1.0000   1.0000   1.0000   1.0000   1.0000   1.0000   1.0000
     1.0000   1.0000   1.0000   1.0000   1.0000   1.0000   1.0000   1.0000
     1.0000   1.0000   1.0000   1.0000  -0.0000  -0.0000  -0.0000  -0.0000
    -0.0000  -0.0000  -0.0000  -0.0000  -0.0000  -0.0000  -0.0000  -0.0000
    -0.0000  -0.0000  -0.0000  -0.0000  -0.0000  -0.0000  -0.0000  -0.0000
    -0.0000  -0.0000  -0.0000  -0.0000  -0.0000  -0.0000  -0.0000  -0.0000
    -0.0000  -0.0000  -0.0000  -0.0000  -0.0000  -0.0000  -0.0000  -0.0000

          k =-0.5000-0.5000-0.5000 ( 18656 PWs)   bands (ev):

   -22.8759 -22.8759 -22.8755 -22.8755 -22.8755 -22.8755 -17.6207 -17.6207
   -17.6207 -17.6207 -17.2873 -17.2873 -17.2873 -17.2873 -14.6686 -14.6686
   -14.6686 -14.6686 -14.6176 -14.6176 -14.2945 -14.2945 -14.2939 -14.2939
   -14.2939 -14.2939  -9.6422  -9.6422  -9.4855  -9.4855  -9.4855  -9.4855
    -7.9219  -7.9219  -7.5792  -7.5792  -7.4573  -7.4573  -7.4573  -7.4573
    -7.3457  -7.3457  -7.3457  -7.3457  -3.2827  -3.2827  -3.2653  -3.2653
     2.4204   2.4204   3.5639   3.5639   3.5639   3.5639   4.2962   4.2962
     5.4439   5.4439   5.4439   5.4439   7.0113   7.0113   7.0556   7.0556
     7.3303   7.3303   7.3303   7.3303   7.7072   7.7072   7.7072   7.7072
     7.7755   7.7755   9.0455   9.0455   9.0455   9.0455   9.3766   9.3766
    10.1144  10.1144  10.1390  10.1390  10.1390  10.1390  10.1608  10.1608
    10.1608  10.1608  10.1866  10.1866  10.4439  10.4439  10.5877  10.5877

     occupation numbers 
     1.0000   1.0000   1.0000   1.0000   1.0000   1.0000   1.0000   1.0000
     1.0000   1.0000   1.0000   1.0000   1.0000   1.0000   1.0000   1.0000
     1.0000   1.0000   1.0000   1.0000   1.0000   1.0000   1.0000   1.0000
     1.0000   1.0000   1.0000   1.0000   1.0000   1.0000   1.0000   1.0000
     1.0000   1.0000   1.0000   1.0000   1.0000   1.0000   1.0000   1.0000
     1.0000   1.0000   1.0000   1.0000   1.0000   1.0000   1.0000   1.0000
     1.0000   1.0000   1.0000   1.0000   1.0000   1.0000   1.0000   1.0000
     1.0000   1.0000   1.0000   1.0000  -0.0000  -0.0000  -0.0000  -0.0000
    -0.0000  -0.0000  -0.0000  -0.0000  -0.0000  -0.0000  -0.0000  -0.0000
    -0.0000  -0.0000  -0.0000  -0.0000  -0.0000  -0.0000  -0.0000  -0.0000
    -0.0000  -0.0000  -0.0000  -0.0000  -0.0000  -0.0000  -0.0000  -0.0000
    -0.0000  -0.0000  -0.0000  -0.0000  -0.0000  -0.0000  -0.0000  -0.0000

          k =-0.5000-0.5000-0.2500 ( 18732 PWs)   bands (ev):

   -22.8770 -22.8770 -22.8758 -22.8758 -22.8756 -22.8756 -17.6207 -17.6207
   -17.6184 -17.6184 -17.2873 -17.2873 -17.2873 -17.2873 -14.6686 -14.6686
   -14.6620 -14.6620 -14.6174 -14.6174 -14.2945 -14.2945 -14.2940 -14.2940
   -14.2939 -14.2939  -9.6154  -9.6154  -9.4975  -9.4975  -9.4849  -9.4849
    -7.8715  -7.8715  -7.5614  -7.5614  -7.4726  -7.4726  -7.4665  -7.4665
    -7.3921  -7.3921  -7.3582  -7.3582  -3.4612  -3.4612  -3.2784  -3.2784
     2.6210   2.6210   3.5848   3.5848   4.0388   4.0388   4.3212   4.3212
     5.2797   5.2797   5.4176   5.4176   7.1913   7.1913   7.2599   7.2599
     7.4254   7.4254   7.4857   7.4857   7.6079   7.6079   7.7001   7.7001
     7.9569   7.9569   8.6966   8.6966   8.7737   8.7737   9.1201   9.1201
     9.1777   9.1777   9.2614   9.2614   9.5645   9.5645   9.6806   9.6806
    10.3678  10.3678  10.4097  10.4097  11.2515  11.2515  11.3535  11.3536

     occupation numbers 
     1.0000   1.0000   1.0000   1.0000   1.0000   1.0000   1.0000   1.0000
     1.0000   1.0000   1.0000   1.0000   1.0000   1.0000   1.0000   1.0000
     1.0000   1.0000   1.0000   1.0000   1.0000   1.0000   1.0000   1.0000
     1.0000   1.0000   1.0000   1.0000   1.0000   1.0000   1.0000   1.0000
     1.0000   1.0000   1.0000   1.0000   1.0000   1.0000   1.0000   1.0000
     1.0000   1.0000   1.0000   1.0000   1.0000   1.0000   1.0000   1.0000
     1.0000   1.0000   1.0000   1.0000   1.0000   1.0000   1.0000   1.0000
     1.0000   1.0000   1.0000   1.0000  -0.0000  -0.0000  -0.0000  -0.0000
    -0.0000  -0.0000  -0.0000  -0.0000  -0.0000  -0.0000  -0.0000  -0.0000
    -0.0000  -0.0000  -0.0000  -0.0000  -0.0000  -0.0000  -0.0000  -0.0000
    -0.0000  -0.0000  -0.0000  -0.0000  -0.0000  -0.0000  -0.0000  -0.0000
    -0.0000  -0.0000  -0.0000  -0.0000  -0.0000  -0.0000  -0.0000  -0.0000

          k =-0.5000-0.2500 0.0000 ( 18802 PWs)   bands (ev):

   -22.8839 -22.8839 -22.8757 -22.8757 -22.8715 -22.8715 -17.6192 -17.6192
   -17.6151 -17.6151 -17.2873 -17.2873 -17.2873 -17.2873 -14.6644 -14.6644
   -14.6527 -14.6527 -14.6171 -14.6171 -14.2945 -14.2945 -14.2940 -14.2940
   -14.2939 -14.2939  -9.5677  -9.5677  -9.5224  -9.5224  -9.4829  -9.4829
    -7.7418  -7.7418  -7.5491  -7.5491  -7.5146  -7.5146  -7.4895  -7.4895
    -7.4377  -7.4377  -7.3923  -7.3923  -3.8472  -3.8472  -3.2779  -3.2779
     3.0411   3.0411   3.8942   3.8942   4.4612   4.4612   4.7962   4.7962
     5.1780   5.1780   5.4734   5.4734   6.9148   6.9148   7.0070   7.0070
     7.3132   7.3132   7.4033   7.4033   7.6378   7.6378   7.9071   7.9071
     8.1581   8.1581   8.4804   8.4804   8.7105   8.7105   8.9323   8.9323
     9.1372   9.1372   9.2013   9.2013   9.3591   9.3591   9.5709   9.5709
     9.7506   9.7506   9.9343   9.9343  10.9873  10.9873  11.2742  11.2742

     occupation numbers 
     1.0000   1.0000   1.0000   1.0000   1.0000   1.0000   1.0000   1.0000
     1.0000   1.0000   1.0000   1.0000   1.0000   1.0000   1.0000   1.0000
     1.0000   1.0000   1.0000   1.0000   1.0000   1.0000   1.0000   1.0000
     1.0000   1.0000   1.0000   1.0000   1.0000   1.0000   1.0000   1.0000
     1.0000   1.0000   1.0000   1.0000   1.0000   1.0000   1.0000   1.0000
     1.0000   1.0000   1.0000   1.0000   1.0000   1.0000   1.0000   1.0000
     1.0000   1.0000   1.0000   1.0000   1.0000   1.0000   1.0000   1.0000
     1.0000   1.0000   1.0000   1.0000  -0.0000  -0.0000  -0.0000  -0.0000
    -0.0000  -0.0000  -0.0000  -0.0000  -0.0000  -0.0000  -0.0000  -0.0000
    -0.0000  -0.0000  -0.0000  -0.0000  -0.0000  -0.0000  -0.0000  -0.0000
    -0.0000  -0.0000  -0.0000  -0.0000  -0.0000  -0.0000  -0.0000  -0.0000
    -0.0000  -0.0000  -0.0000  -0.0000  -0.0000  -0.0000  -0.0000  -0.0000

          k =-0.5000-0.2500 0.2500 ( 18726 PWs)   bands (ev):

   -22.8814 -22.8814 -22.8757 -22.8757 -22.8727 -22.8727 -17.6195 -17.6195
   -17.6171 -17.6171 -17.2873 -17.2873 -17.2873 -17.2873 -14.6653 -14.6653
   -14.6585 -14.6585 -14.6173 -14.6173 -14.2945 -14.2945 -14.2940 -14.2940
   -14.2939 -14.2939  -9.5951  -9.5951  -9.5068  -9.5068  -9.4836  -9.4836
    -7.8203  -7.8203  -7.5457  -7.5457  -7.4921  -7.4921  -7.4710  -7.4710
    -7.4171  -7.4171  -7.3774  -7.3774  -3.6626  -3.6626  -3.2781  -3.2781
     2.8660   2.8660   3.8453   3.8453   4.1681   4.1681   4.4573   4.4573
     5.1951   5.1951   5.4429   5.4429   7.0516   7.0516   7.1340   7.1340
     7.4161   7.4161   7.4784   7.4784   7.7440   7.7440   7.7995   7.7995
     8.1874   8.1874   8.3324   8.3324   8.5522   8.5522   9.0024   9.0024
     9.0514   9.0514   9.2132   9.2132   9.3446   9.3446   9.6631   9.6631
    10.5234  10.5234  10.5876  10.5876  10.9536  10.9536  11.2027  11.2027

     occupation numbers 
     1.0000   1.0000   1.0000   1.0000   1.0000   1.0000   1.0000   1.0000
     1.0000   1.0000   1.0000   1.0000   1.0000   1.0000   1.0000   1.0000
     1.0000   1.0000   1.0000   1.0000   1.0000   1.0000   1.0000   1.0000
     1.0000   1.0000   1.0000   1.0000   1.0000   1.0000   1.0000   1.0000
     1.0000   1.0000   1.0000   1.0000   1.0000   1.0000   1.0000   1.0000
     1.0000   1.0000   1.0000   1.0000   1.0000   1.0000   1.0000   1.0000
     1.0000   1.0000   1.0000   1.0000   1.0000   1.0000   1.0000   1.0000
     1.0000   1.0000   1.0000   1.0000  -0.0000  -0.0000  -0.0000  -0.0000
    -0.0000  -0.0000  -0.0000  -0.0000  -0.0000  -0.0000  -0.0000  -0.0000
    -0.0000  -0.0000  -0.0000  -0.0000  -0.0000  -0.0000  -0.0000  -0.0000
    -0.0000  -0.0000  -0.0000  -0.0000  -0.0000  -0.0000  -0.0000  -0.0000
    -0.0000  -0.0000  -0.0000  -0.0000  -0.0000  -0.0000  -0.0000  -0.0000

          k =-0.5000-0.2500-0.5000 ( 18732 PWs)   bands (ev):

   -22.8770 -22.8770 -22.8758 -22.8758 -22.8756 -22.8756 -17.6207 -17.6207
   -17.6184 -17.6184 -17.2873 -17.2873 -17.2873 -17.2873 -14.6686 -14.6686
   -14.6620 -14.6620 -14.6174 -14.6174 -14.2945 -14.2945 -14.2940 -14.2940
   -14.2939 -14.2939  -9.6154  -9.6154  -9.4975  -9.4975  -9.4849  -9.4849
    -7.8715  -7.8715  -7.5614  -7.5614  -7.4726  -7.4726  -7.4665  -7.4665
    -7.3921  -7.3921  -7.3582  -7.3582  -3.4612  -3.4612  -3.2784  -3.2784
     2.6210   2.6210   3.5848   3.5848   4.0388   4.0388   4.3212   4.3212
     5.2797   5.2797   5.4176   5.4176   7.1913   7.1913   7.2599   7.2599
     7.4254   7.4254   7.4857   7.4857   7.6079   7.6079   7.7001   7.7001
     7.9569   7.9569   8.6966   8.6966   8.7737   8.7737   9.1201   9.1201
     9.1777   9.1777   9.2614   9.2614   9.5645   9.5645   9.6806   9.6806
    10.3678  10.3678  10.4097  10.4097  11.2515  11.2515  11.3536  11.3537

     occupation numbers 
     1.0000   1.0000   1.0000   1.0000   1.0000   1.0000   1.0000   1.0000
     1.0000   1.0000   1.0000   1.0000   1.0000   1.0000   1.0000   1.0000
     1.0000   1.0000   1.0000   1.0000   1.0000   1.0000   1.0000   1.0000
     1.0000   1.0000   1.0000   1.0000   1.0000   1.0000   1.0000   1.0000
     1.0000   1.0000   1.0000   1.0000   1.0000   1.0000   1.0000   1.0000
     1.0000   1.0000   1.0000   1.0000   1.0000   1.0000   1.0000   1.0000
     1.0000   1.0000   1.0000   1.0000   1.0000   1.0000   1.0000   1.0000
     1.0000   1.0000   1.0000   1.0000  -0.0000  -0.0000  -0.0000  -0.0000
    -0.0000  -0.0000  -0.0000  -0.0000  -0.0000  -0.0000  -0.0000  -0.0000
    -0.0000  -0.0000  -0.0000  -0.0000  -0.0000  -0.0000  -0.0000  -0.0000
    -0.0000  -0.0000  -0.0000  -0.0000  -0.0000  -0.0000  -0.0000  -0.0000
    -0.0000  -0.0000  -0.0000  -0.0000  -0.0000  -0.0000  -0.0000  -0.0000

          k =-0.5000-0.2500-0.2500 ( 18726 PWs)   bands (ev):

   -22.8814 -22.8814 -22.8757 -22.8757 -22.8727 -22.8727 -17.6195 -17.6195
   -17.6171 -17.6171 -17.2873 -17.2873 -17.2873 -17.2873 -14.6653 -14.6653
   -14.6585 -14.6585 -14.6173 -14.6173 -14.2945 -14.2945 -14.2940 -14.2940
   -14.2939 -14.2939  -9.5951  -9.5951  -9.5068  -9.5068  -9.4836  -9.4836
    -7.8203  -7.8203  -7.5457  -7.5457  -7.4921  -7.4921  -7.4710  -7.4710
    -7.4171  -7.4171  -7.3774  -7.3774  -3.6626  -3.6626  -3.2781  -3.2781
     2.8660   2.8660   3.8453   3.8453   4.1681   4.1681   4.4573   4.4573
     5.1951   5.1951   5.4429   5.4429   7.0516   7.0516   7.1340   7.1340
     7.4161   7.4161   7.4784   7.4784   7.7440   7.7440   7.7995   7.7995
     8.1874   8.1874   8.3324   8.3324   8.5522   8.5522   9.0024   9.0024
     9.0514   9.0514   9.2132   9.2132   9.3446   9.3446   9.6631   9.6631
    10.5234  10.5234  10.5876  10.5876  10.9536  10.9536  11.2027  11.2027

     occupation numbers 
     1.0000   1.0000   1.0000   1.0000   1.0000   1.0000   1.0000   1.0000
     1.0000   1.0000   1.0000   1.0000   1.0000   1.0000   1.0000   1.0000
     1.0000   1.0000   1.0000   1.0000   1.0000   1.0000   1.0000   1.0000
     1.0000   1.0000   1.0000   1.0000   1.0000   1.0000   1.0000   1.0000
     1.0000   1.0000   1.0000   1.0000   1.0000   1.0000   1.0000   1.0000
     1.0000   1.0000   1.0000   1.0000   1.0000   1.0000   1.0000   1.0000
     1.0000   1.0000   1.0000   1.0000   1.0000   1.0000   1.0000   1.0000
     1.0000   1.0000   1.0000   1.0000  -0.0000  -0.0000  -0.0000  -0.0000
    -0.0000  -0.0000  -0.0000  -0.0000  -0.0000  -0.0000  -0.0000  -0.0000
    -0.0000  -0.0000  -0.0000  -0.0000  -0.0000  -0.0000  -0.0000  -0.0000
    -0.0000  -0.0000  -0.0000  -0.0000  -0.0000  -0.0000  -0.0000  -0.0000
    -0.0000  -0.0000  -0.0000  -0.0000  -0.0000  -0.0000  -0.0000  -0.0000

          k =-0.2500 0.0000 0.0000 ( 18765 PWs)   bands (ev):

   -22.8921 -22.8921 -22.8720 -22.8720 -22.8697 -22.8697 -17.6159 -17.6159
   -17.6136 -17.6136 -17.2873 -17.2873 -17.2873 -17.2873 -14.6551 -14.6551
   -14.6483 -14.6483 -14.6168 -14.6168 -14.2945 -14.2945 -14.2940 -14.2940
   -14.2940 -14.2940  -9.5576  -9.5576  -9.5451  -9.5451  -9.4585  -9.4585
    -7.6646  -7.6646  -7.5691  -7.5691  -7.5382  -7.5382  -7.4629  -7.4629
    -7.4328  -7.4328  -7.3920  -7.3920  -4.2717  -4.2717  -3.2933  -3.2933
     3.7437   3.7437   4.2789   4.2789   4.9815   4.9815   5.2182   5.2182
     5.3623   5.3623   5.7872   5.7872   6.2935   6.2935   6.4507   6.4507
     6.6223   6.6223   6.8794   6.8794   7.3032   7.3032   7.3084   7.3084
     8.2852   8.2852   8.7798   8.7798   8.9180   8.9180   9.0903   9.0903
     9.1592   9.1592   9.4100   9.4100   9.6796   9.6796   9.9650   9.9650
    10.0573  10.0573  10.4984  10.4984  10.8814  10.8814  11.0597  11.0597

     occupation numbers 
     1.0000   1.0000   1.0000   1.0000   1.0000   1.0000   1.0000   1.0000
     1.0000   1.0000   1.0000   1.0000   1.0000   1.0000   1.0000   1.0000
     1.0000   1.0000   1.0000   1.0000   1.0000   1.0000   1.0000   1.0000
     1.0000   1.0000   1.0000   1.0000   1.0000   1.0000   1.0000   1.0000
     1.0000   1.0000   1.0000   1.0000   1.0000   1.0000   1.0000   1.0000
     1.0000   1.0000   1.0000   1.0000   1.0000   1.0000   1.0000   1.0000
     1.0000   1.0000   1.0000   1.0000   1.0000   1.0000   1.0000   1.0000
     1.0000   1.0000   1.0000   1.0000   0.1834   0.1834  -0.0247  -0.0247
    -0.0002  -0.0002  -0.0000  -0.0000  -0.0000  -0.0000  -0.0000  -0.0000
    -0.0000  -0.0000  -0.0000  -0.0000  -0.0000  -0.0000  -0.0000  -0.0000
    -0.0000  -0.0000  -0.0000  -0.0000  -0.0000  -0.0000  -0.0000  -0.0000
    -0.0000  -0.0000  -0.0000  -0.0000  -0.0000  -0.0000  -0.0000  -0.0000

          k =-0.2500 0.0000 0.2500 ( 18821 PWs)   bands (ev):

   -22.8887 -22.8887 -22.8727 -22.8727 -22.8711 -22.8711 -17.6171 -17.6171
   -17.6148 -17.6148 -17.2873 -17.2873 -17.2873 -17.2873 -14.6585 -14.6585
   -14.6517 -14.6517 -14.6169 -14.6169 -14.2945 -14.2945 -14.2940 -14.2940
   -14.2940 -14.2940  -9.5638  -9.5638  -9.5341  -9.5341  -9.4692  -9.4692
    -7.7080  -7.7080  -7.5593  -7.5593  -7.5168  -7.5168  -7.4754  -7.4754
    -7.4501  -7.4501  -7.3840  -7.3840  -4.0661  -4.0661  -3.2855  -3.2855
     3.4388   3.4388   4.0975   4.0975   4.6567   4.6567   4.9563   4.9563
     5.2291   5.2291   5.6044   5.6044   6.5767   6.5767   6.7364   6.7364
     6.8635   6.8635   7.1330   7.1330   7.3664   7.3664   7.8508   7.8508
     8.4836   8.4836   8.6181   8.6181   8.6810   8.6810   8.8512   8.8512
     9.1417   9.1417   9.3951   9.3951   9.5882   9.5882   9.6486   9.6486
     9.9466   9.9466  10.4651  10.4651  10.6072  10.6072  11.5142  11.5144

     occupation numbers 
     1.0000   1.0000   1.0000   1.0000   1.0000   1.0000   1.0000   1.0000
     1.0000   1.0000   1.0000   1.0000   1.0000   1.0000   1.0000   1.0000
     1.0000   1.0000   1.0000   1.0000   1.0000   1.0000   1.0000   1.0000
     1.0000   1.0000   1.0000   1.0000   1.0000   1.0000   1.0000   1.0000
     1.0000   1.0000   1.0000   1.0000   1.0000   1.0000   1.0000   1.0000
     1.0000   1.0000   1.0000   1.0000   1.0000   1.0000   1.0000   1.0000
     1.0000   1.0000   1.0000   1.0000   1.0000   1.0000   1.0000   1.0000
     1.0000   1.0000   1.0000   1.0000  -0.0012  -0.0012  -0.0000  -0.0000
    -0.0000  -0.0000  -0.0000  -0.0000  -0.0000  -0.0000  -0.0000  -0.0000
    -0.0000  -0.0000  -0.0000  -0.0000  -0.0000  -0.0000  -0.0000  -0.0000
    -0.0000  -0.0000  -0.0000  -0.0000  -0.0000  -0.0000  -0.0000  -0.0000
    -0.0000  -0.0000  -0.0000  -0.0000  -0.0000  -0.0000  -0.0000  -0.0000

          k =-0.2500 0.0000-0.5000 ( 18802 PWs)   bands (ev):

   -22.8839 -22.8839 -22.8757 -22.8757 -22.8715 -22.8715 -17.6192 -17.6192
   -17.6151 -17.6151 -17.2873 -17.2873 -17.2873 -17.2873 -14.6644 -14.6644
   -14.6527 -14.6527 -14.6171 -14.6171 -14.2945 -14.2945 -14.2940 -14.2940
   -14.2939 -14.2939  -9.5677  -9.5677  -9.5224  -9.5224  -9.4829  -9.4829
    -7.7418  -7.7418  -7.5491  -7.5491  -7.5146  -7.5146  -7.4895  -7.4895
    -7.4377  -7.4377  -7.3923  -7.3923  -3.8472  -3.8472  -3.2779  -3.2779
     3.0411   3.0411   3.8942   3.8942   4.4612   4.4612   4.7962   4.7962
     5.1780   5.1780   5.4734   5.4734   6.9148   6.9148   7.0070   7.0070
     7.3132   7.3132   7.4033   7.4033   7.6378   7.6378   7.9071   7.9071
     8.1581   8.1581   8.4804   8.4804   8.7105   8.7105   8.9323   8.9323
     9.1372   9.1372   9.2013   9.2013   9.3591   9.3591   9.5709   9.5709
     9.7506   9.7506   9.9343   9.9343  10.9873  10.9873  11.2742  11.2742

     occupation numbers 
     1.0000   1.0000   1.0000   1.0000   1.0000   1.0000   1.0000   1.0000
     1.0000   1.0000   1.0000   1.0000   1.0000   1.0000   1.0000   1.0000
     1.0000   1.0000   1.0000   1.0000   1.0000   1.0000   1.0000   1.0000
     1.0000   1.0000   1.0000   1.0000   1.0000   1.0000   1.0000   1.0000
     1.0000   1.0000   1.0000   1.0000   1.0000   1.0000   1.0000   1.0000
     1.0000   1.0000   1.0000   1.0000   1.0000   1.0000   1.0000   1.0000
     1.0000   1.0000   1.0000   1.0000   1.0000   1.0000   1.0000   1.0000
     1.0000   1.0000   1.0000   1.0000  -0.0000  -0.0000  -0.0000  -0.0000
    -0.0000  -0.0000  -0.0000  -0.0000  -0.0000  -0.0000  -0.0000  -0.0000
    -0.0000  -0.0000  -0.0000  -0.0000  -0.0000  -0.0000  -0.0000  -0.0000
    -0.0000  -0.0000  -0.0000  -0.0000  -0.0000  -0.0000  -0.0000  -0.0000
    -0.0000  -0.0000  -0.0000  -0.0000  -0.0000  -0.0000  -0.0000  -0.0000

          k =-0.2500 0.0000-0.2500 ( 18821 PWs)   bands (ev):

   -22.8887 -22.8887 -22.8727 -22.8727 -22.8711 -22.8711 -17.6171 -17.6171
   -17.6148 -17.6148 -17.2873 -17.2873 -17.2873 -17.2873 -14.6585 -14.6585
   -14.6517 -14.6517 -14.6169 -14.6169 -14.2945 -14.2945 -14.2940 -14.2940
   -14.2940 -14.2940  -9.5638  -9.5638  -9.5341  -9.5341  -9.4692  -9.4692
    -7.7080  -7.7080  -7.5593  -7.5593  -7.5168  -7.5168  -7.4754  -7.4754
    -7.4501  -7.4501  -7.3840  -7.3840  -4.0661  -4.0661  -3.2855  -3.2855
     3.4388   3.4388   4.0975   4.0975   4.6567   4.6567   4.9563   4.9563
     5.2291   5.2291   5.6044   5.6044   6.5767   6.5767   6.7364   6.7364
     6.8635   6.8635   7.1330   7.1330   7.3664   7.3664   7.8508   7.8508
     8.4836   8.4836   8.6181   8.6181   8.6810   8.6810   8.8512   8.8512
     9.1417   9.1417   9.3951   9.3951   9.5882   9.5882   9.6486   9.6486
     9.9466   9.9466  10.4651  10.4651  10.6072  10.6072  11.5142  11.5143

     occupation numbers 
     1.0000   1.0000   1.0000   1.0000   1.0000   1.0000   1.0000   1.0000
     1.0000   1.0000   1.0000   1.0000   1.0000   1.0000   1.0000   1.0000
     1.0000   1.0000   1.0000   1.0000   1.0000   1.0000   1.0000   1.0000
     1.0000   1.0000   1.0000   1.0000   1.0000   1.0000   1.0000   1.0000
     1.0000   1.0000   1.0000   1.0000   1.0000   1.0000   1.0000   1.0000
     1.0000   1.0000   1.0000   1.0000   1.0000   1.0000   1.0000   1.0000
     1.0000   1.0000   1.0000   1.0000   1.0000   1.0000   1.0000   1.0000
     1.0000   1.0000   1.0000   1.0000  -0.0012  -0.0012  -0.0000  -0.0000
    -0.0000  -0.0000  -0.0000  -0.0000  -0.0000  -0.0000  -0.0000  -0.0000
    -0.0000  -0.0000  -0.0000  -0.0000  -0.0000  -0.0000  -0.0000  -0.0000
    -0.0000  -0.0000  -0.0000  -0.0000  -0.0000  -0.0000  -0.0000  -0.0000
    -0.0000  -0.0000  -0.0000  -0.0000  -0.0000  -0.0000  -0.0000  -0.0000

          k =-0.2500 0.2500 0.0000 ( 18821 PWs)   bands (ev):

   -22.8887 -22.8887 -22.8727 -22.8727 -22.8711 -22.8711 -17.6171 -17.6171
   -17.6148 -17.6148 -17.2873 -17.2873 -17.2873 -17.2873 -14.6585 -14.6585
   -14.6517 -14.6517 -14.6169 -14.6169 -14.2945 -14.2945 -14.2940 -14.2940
   -14.2940 -14.2940  -9.5638  -9.5638  -9.5341  -9.5341  -9.4692  -9.4692
    -7.7080  -7.7080  -7.5593  -7.5593  -7.5168  -7.5168  -7.4754  -7.4754
    -7.4501  -7.4501  -7.3840  -7.3840  -4.0661  -4.0661  -3.2855  -3.2855
     3.4388   3.4388   4.0975   4.0975   4.6567   4.6567   4.9563   4.9563
     5.2291   5.2291   5.6044   5.6044   6.5767   6.5767   6.7364   6.7364
     6.8635   6.8635   7.1330   7.1330   7.3664   7.3664   7.8508   7.8508
     8.4836   8.4836   8.6181   8.6181   8.6810   8.6810   8.8512   8.8512
     9.1417   9.1417   9.3951   9.3951   9.5882   9.5882   9.6486   9.6486
     9.9466   9.9466  10.4651  10.4651  10.6072  10.6073  11.5141  11.5142

     occupation numbers 
     1.0000   1.0000   1.0000   1.0000   1.0000   1.0000   1.0000   1.0000
     1.0000   1.0000   1.0000   1.0000   1.0000   1.0000   1.0000   1.0000
     1.0000   1.0000   1.0000   1.0000   1.0000   1.0000   1.0000   1.0000
     1.0000   1.0000   1.0000   1.0000   1.0000   1.0000   1.0000   1.0000
     1.0000   1.0000   1.0000   1.0000   1.0000   1.0000   1.0000   1.0000
     1.0000   1.0000   1.0000   1.0000   1.0000   1.0000   1.0000   1.0000
     1.0000   1.0000   1.0000   1.0000   1.0000   1.0000   1.0000   1.0000
     1.0000   1.0000   1.0000   1.0000  -0.0012  -0.0012  -0.0000  -0.0000
    -0.0000  -0.0000  -0.0000  -0.0000  -0.0000  -0.0000  -0.0000  -0.0000
    -0.0000  -0.0000  -0.0000  -0.0000  -0.0000  -0.0000  -0.0000  -0.0000
    -0.0000  -0.0000  -0.0000  -0.0000  -0.0000  -0.0000  -0.0000  -0.0000
    -0.0000  -0.0000  -0.0000  -0.0000  -0.0000  -0.0000  -0.0000  -0.0000

          k =-0.2500 0.2500 0.2500 ( 18805 PWs)   bands (ev):

   -22.8857 -22.8857 -22.8728 -22.8728 -22.8726 -22.8726 -17.6171 -17.6171
   -17.6171 -17.6171 -17.2873 -17.2873 -17.2873 -17.2873 -14.6585 -14.6585
   -14.6585 -14.6585 -14.6171 -14.6171 -14.2945 -14.2945 -14.2940 -14.2940
   -14.2940 -14.2940  -9.5820  -9.5820  -9.5192  -9.5192  -9.4752  -9.4752
    -7.7747  -7.7747  -7.5396  -7.5396  -7.5003  -7.5003  -7.4759  -7.4759
    -7.4442  -7.4442  -7.3742  -7.3742  -3.8720  -3.8720  -3.2817  -3.2817
     3.1994   3.1994   4.0194   4.0194   4.3512   4.3512   4.6252   4.6252
     5.1921   5.1921   5.5240   5.5240   6.7344   6.7344   6.9536   6.9536
     6.9985   6.9985   7.4216   7.4216   7.7224   7.7224   7.7950   7.7950
     8.2774   8.2774   8.4082   8.4082   8.5792   8.5792   8.9370   8.9370
     9.1655   9.1655   9.2010   9.2010   9.3395   9.3395  10.2582  10.2582
    10.4898  10.4898  10.6009  10.6009  10.7581  10.7581  10.8005  10.8005

     occupation numbers 
     1.0000   1.0000   1.0000   1.0000   1.0000   1.0000   1.0000   1.0000
     1.0000   1.0000   1.0000   1.0000   1.0000   1.0000   1.0000   1.0000
     1.0000   1.0000   1.0000   1.0000   1.0000   1.0000   1.0000   1.0000
     1.0000   1.0000   1.0000   1.0000   1.0000   1.0000   1.0000   1.0000
     1.0000   1.0000   1.0000   1.0000   1.0000   1.0000   1.0000   1.0000
     1.0000   1.0000   1.0000   1.0000   1.0000   1.0000   1.0000   1.0000
     1.0000   1.0000   1.0000   1.0000   1.0000   1.0000   1.0000   1.0000
     1.0000   1.0000   1.0000   1.0000  -0.0000  -0.0000  -0.0000  -0.0000
    -0.0000  -0.0000  -0.0000  -0.0000  -0.0000  -0.0000  -0.0000  -0.0000
    -0.0000  -0.0000  -0.0000  -0.0000  -0.0000  -0.0000  -0.0000  -0.0000
    -0.0000  -0.0000  -0.0000  -0.0000  -0.0000  -0.0000  -0.0000  -0.0000
    -0.0000  -0.0000  -0.0000  -0.0000  -0.0000  -0.0000  -0.0000  -0.0000

          k =-0.2500 0.2500-0.5000 ( 18726 PWs)   bands (ev):

   -22.8814 -22.8814 -22.8757 -22.8757 -22.8727 -22.8727 -17.6195 -17.6195
   -17.6171 -17.6171 -17.2873 -17.2873 -17.2873 -17.2873 -14.6653 -14.6653
   -14.6585 -14.6585 -14.6173 -14.6173 -14.2945 -14.2945 -14.2940 -14.2940
   -14.2939 -14.2939  -9.5951  -9.5951  -9.5068  -9.5068  -9.4836  -9.4836
    -7.8203  -7.8203  -7.5457  -7.5457  -7.4921  -7.4921  -7.4710  -7.4710
    -7.4171  -7.4171  -7.3774  -7.3774  -3.6626  -3.6626  -3.2781  -3.2781
     2.8660   2.8660   3.8453   3.8453   4.1681   4.1681   4.4573   4.4573
     5.1951   5.1951   5.4429   5.4429   7.0516   7.0516   7.1340   7.1340
     7.4161   7.4161   7.4784   7.4784   7.7440   7.7440   7.7995   7.7995
     8.1874   8.1874   8.3324   8.3324   8.5522   8.5522   9.0024   9.0024
     9.0514   9.0514   9.2132   9.2132   9.3446   9.3446   9.6631   9.6631
    10.5234  10.5234  10.5876  10.5876  10.9536  10.9536  11.2027  11.2027

     occupation numbers 
     1.0000   1.0000   1.0000   1.0000   1.0000   1.0000   1.0000   1.0000
     1.0000   1.0000   1.0000   1.0000   1.0000   1.0000   1.0000   1.0000
     1.0000   1.0000   1.0000   1.0000   1.0000   1.0000   1.0000   1.0000
     1.0000   1.0000   1.0000   1.0000   1.0000   1.0000   1.0000   1.0000
     1.0000   1.0000   1.0000   1.0000   1.0000   1.0000   1.0000   1.0000
     1.0000   1.0000   1.0000   1.0000   1.0000   1.0000   1.0000   1.0000
     1.0000   1.0000   1.0000   1.0000   1.0000   1.0000   1.0000   1.0000
     1.0000   1.0000   1.0000   1.0000  -0.0000  -0.0000  -0.0000  -0.0000
    -0.0000  -0.0000  -0.0000  -0.0000  -0.0000  -0.0000  -0.0000  -0.0000
    -0.0000  -0.0000  -0.0000  -0.0000  -0.0000  -0.0000  -0.0000  -0.0000
    -0.0000  -0.0000  -0.0000  -0.0000  -0.0000  -0.0000  -0.0000  -0.0000
    -0.0000  -0.0000  -0.0000  -0.0000  -0.0000  -0.0000  -0.0000  -0.0000

          k =-0.2500 0.2500-0.2500 ( 18805 PWs)   bands (ev):

   -22.8857 -22.8857 -22.8728 -22.8728 -22.8726 -22.8726 -17.6171 -17.6171
   -17.6171 -17.6171 -17.2873 -17.2873 -17.2873 -17.2873 -14.6585 -14.6585
   -14.6585 -14.6585 -14.6171 -14.6171 -14.2945 -14.2945 -14.2940 -14.2940
   -14.2940 -14.2940  -9.5820  -9.5820  -9.5192  -9.5192  -9.4752  -9.4752
    -7.7747  -7.7747  -7.5396  -7.5396  -7.5003  -7.5003  -7.4759  -7.4759
    -7.4442  -7.4442  -7.3742  -7.3742  -3.8720  -3.8720  -3.2817  -3.2817
     3.1994   3.1994   4.0194   4.0194   4.3512   4.3512   4.6252   4.6252
     5.1921   5.1921   5.5240   5.5240   6.7344   6.7344   6.9536   6.9536
     6.9985   6.9985   7.4216   7.4216   7.7224   7.7224   7.7950   7.7950
     8.2774   8.2774   8.4082   8.4082   8.5792   8.5792   8.9370   8.9370
     9.1655   9.1655   9.2010   9.2010   9.3395   9.3395  10.2582  10.2582
    10.4898  10.4898  10.6009  10.6009  10.7581  10.7581  10.8005  10.8005

     occupation numbers 
     1.0000   1.0000   1.0000   1.0000   1.0000   1.0000   1.0000   1.0000
     1.0000   1.0000   1.0000   1.0000   1.0000   1.0000   1.0000   1.0000
     1.0000   1.0000   1.0000   1.0000   1.0000   1.0000   1.0000   1.0000
     1.0000   1.0000   1.0000   1.0000   1.0000   1.0000   1.0000   1.0000
     1.0000   1.0000   1.0000   1.0000   1.0000   1.0000   1.0000   1.0000
     1.0000   1.0000   1.0000   1.0000   1.0000   1.0000   1.0000   1.0000
     1.0000   1.0000   1.0000   1.0000   1.0000   1.0000   1.0000   1.0000
     1.0000   1.0000   1.0000   1.0000  -0.0000  -0.0000  -0.0000  -0.0000
    -0.0000  -0.0000  -0.0000  -0.0000  -0.0000  -0.0000  -0.0000  -0.0000
    -0.0000  -0.0000  -0.0000  -0.0000  -0.0000  -0.0000  -0.0000  -0.0000
    -0.0000  -0.0000  -0.0000  -0.0000  -0.0000  -0.0000  -0.0000  -0.0000
    -0.0000  -0.0000  -0.0000  -0.0000  -0.0000  -0.0000  -0.0000  -0.0000

          k =-0.2500-0.5000 0.0000 ( 18802 PWs)   bands (ev):

   -22.8839 -22.8839 -22.8757 -22.8757 -22.8715 -22.8715 -17.6192 -17.6192
   -17.6151 -17.6151 -17.2873 -17.2873 -17.2873 -17.2873 -14.6644 -14.6644
   -14.6527 -14.6527 -14.6171 -14.6171 -14.2945 -14.2945 -14.2940 -14.2940
   -14.2939 -14.2939  -9.5677  -9.5677  -9.5224  -9.5224  -9.4829  -9.4829
    -7.7418  -7.7418  -7.5491  -7.5491  -7.5146  -7.5146  -7.4895  -7.4895
    -7.4377  -7.4377  -7.3923  -7.3923  -3.8472  -3.8472  -3.2779  -3.2779
     3.0411   3.0411   3.8942   3.8942   4.4612   4.4612   4.7962   4.7962
     5.1780   5.1780   5.4734   5.4734   6.9148   6.9148   7.0070   7.0070
     7.3132   7.3132   7.4033   7.4033   7.6378   7.6378   7.9071   7.9071
     8.1581   8.1581   8.4804   8.4804   8.7105   8.7105   8.9323   8.9323
     9.1372   9.1372   9.2013   9.2013   9.3591   9.3591   9.5709   9.5709
     9.7506   9.7506   9.9343   9.9343  10.9873  10.9873  11.2742  11.2742

     occupation numbers 
     1.0000   1.0000   1.0000   1.0000   1.0000   1.0000   1.0000   1.0000
     1.0000   1.0000   1.0000   1.0000   1.0000   1.0000   1.0000   1.0000
     1.0000   1.0000   1.0000   1.0000   1.0000   1.0000   1.0000   1.0000
     1.0000   1.0000   1.0000   1.0000   1.0000   1.0000   1.0000   1.0000
     1.0000   1.0000   1.0000   1.0000   1.0000   1.0000   1.0000   1.0000
     1.0000   1.0000   1.0000   1.0000   1.0000   1.0000   1.0000   1.0000
     1.0000   1.0000   1.0000   1.0000   1.0000   1.0000   1.0000   1.0000
     1.0000   1.0000   1.0000   1.0000  -0.0000  -0.0000  -0.0000  -0.0000
    -0.0000  -0.0000  -0.0000  -0.0000  -0.0000  -0.0000  -0.0000  -0.0000
    -0.0000  -0.0000  -0.0000  -0.0000  -0.0000  -0.0000  -0.0000  -0.0000
    -0.0000  -0.0000  -0.0000  -0.0000  -0.0000  -0.0000  -0.0000  -0.0000
    -0.0000  -0.0000  -0.0000  -0.0000  -0.0000  -0.0000  -0.0000  -0.0000

          k =-0.2500-0.5000 0.2500 ( 18726 PWs)   bands (ev):

   -22.8814 -22.8814 -22.8757 -22.8757 -22.8727 -22.8727 -17.6195 -17.6195
   -17.6171 -17.6171 -17.2873 -17.2873 -17.2873 -17.2873 -14.6653 -14.6653
   -14.6585 -14.6585 -14.6173 -14.6173 -14.2945 -14.2945 -14.2940 -14.2940
   -14.2939 -14.2939  -9.5951  -9.5951  -9.5068  -9.5068  -9.4836  -9.4836
    -7.8203  -7.8203  -7.5457  -7.5457  -7.4921  -7.4921  -7.4710  -7.4710
    -7.4171  -7.4171  -7.3774  -7.3774  -3.6626  -3.6626  -3.2781  -3.2781
     2.8660   2.8660   3.8453   3.8453   4.1681   4.1681   4.4573   4.4573
     5.1951   5.1951   5.4429   5.4429   7.0516   7.0516   7.1340   7.1340
     7.4161   7.4161   7.4784   7.4784   7.7440   7.7440   7.7995   7.7995
     8.1874   8.1874   8.3324   8.3324   8.5522   8.5522   9.0024   9.0024
     9.0514   9.0514   9.2132   9.2132   9.3446   9.3446   9.6631   9.6631
    10.5234  10.5234  10.5876  10.5876  10.9536  10.9536  11.2028  11.2029

     occupation numbers 
     1.0000   1.0000   1.0000   1.0000   1.0000   1.0000   1.0000   1.0000
     1.0000   1.0000   1.0000   1.0000   1.0000   1.0000   1.0000   1.0000
     1.0000   1.0000   1.0000   1.0000   1.0000   1.0000   1.0000   1.0000
     1.0000   1.0000   1.0000   1.0000   1.0000   1.0000   1.0000   1.0000
     1.0000   1.0000   1.0000   1.0000   1.0000   1.0000   1.0000   1.0000
     1.0000   1.0000   1.0000   1.0000   1.0000   1.0000   1.0000   1.0000
     1.0000   1.0000   1.0000   1.0000   1.0000   1.0000   1.0000   1.0000
     1.0000   1.0000   1.0000   1.0000  -0.0000  -0.0000  -0.0000  -0.0000
    -0.0000  -0.0000  -0.0000  -0.0000  -0.0000  -0.0000  -0.0000  -0.0000
    -0.0000  -0.0000  -0.0000  -0.0000  -0.0000  -0.0000  -0.0000  -0.0000
    -0.0000  -0.0000  -0.0000  -0.0000  -0.0000  -0.0000  -0.0000  -0.0000
    -0.0000  -0.0000  -0.0000  -0.0000  -0.0000  -0.0000  -0.0000  -0.0000

          k =-0.2500-0.5000-0.5000 ( 18732 PWs)   bands (ev):

   -22.8770 -22.8770 -22.8758 -22.8758 -22.8756 -22.8756 -17.6207 -17.6207
   -17.6184 -17.6184 -17.2873 -17.2873 -17.2873 -17.2873 -14.6686 -14.6686
   -14.6620 -14.6620 -14.6174 -14.6174 -14.2945 -14.2945 -14.2940 -14.2940
   -14.2939 -14.2939  -9.6154  -9.6154  -9.4975  -9.4975  -9.4849  -9.4849
    -7.8715  -7.8715  -7.5614  -7.5614  -7.4726  -7.4726  -7.4665  -7.4665
    -7.3921  -7.3921  -7.3582  -7.3582  -3.4612  -3.4612  -3.2784  -3.2784
     2.6210   2.6210   3.5848   3.5848   4.0388   4.0388   4.3212   4.3212
     5.2797   5.2797   5.4176   5.4176   7.1913   7.1913   7.2599   7.2599
     7.4254   7.4254   7.4857   7.4857   7.6079   7.6079   7.7001   7.7001
     7.9569   7.9569   8.6966   8.6966   8.7737   8.7737   9.1201   9.1201
     9.1777   9.1777   9.2614   9.2614   9.5645   9.5645   9.6806   9.6806
    10.3678  10.3678  10.4097  10.4097  11.2515  11.2515  11.3536  11.3536

     occupation numbers 
     1.0000   1.0000   1.0000   1.0000   1.0000   1.0000   1.0000   1.0000
     1.0000   1.0000   1.0000   1.0000   1.0000   1.0000   1.0000   1.0000
     1.0000   1.0000   1.0000   1.0000   1.0000   1.0000   1.0000   1.0000
     1.0000   1.0000   1.0000   1.0000   1.0000   1.0000   1.0000   1.0000
     1.0000   1.0000   1.0000   1.0000   1.0000   1.0000   1.0000   1.0000
     1.0000   1.0000   1.0000   1.0000   1.0000   1.0000   1.0000   1.0000
     1.0000   1.0000   1.0000   1.0000   1.0000   1.0000   1.0000   1.0000
     1.0000   1.0000   1.0000   1.0000  -0.0000  -0.0000  -0.0000  -0.0000
    -0.0000  -0.0000  -0.0000  -0.0000  -0.0000  -0.0000  -0.0000  -0.0000
    -0.0000  -0.0000  -0.0000  -0.0000  -0.0000  -0.0000  -0.0000  -0.0000
    -0.0000  -0.0000  -0.0000  -0.0000  -0.0000  -0.0000  -0.0000  -0.0000
    -0.0000  -0.0000  -0.0000  -0.0000  -0.0000  -0.0000  -0.0000  -0.0000

          k =-0.2500-0.5000-0.2500 ( 18726 PWs)   bands (ev):

   -22.8814 -22.8814 -22.8757 -22.8757 -22.8727 -22.8727 -17.6195 -17.6195
   -17.6171 -17.6171 -17.2873 -17.2873 -17.2873 -17.2873 -14.6653 -14.6653
   -14.6585 -14.6585 -14.6173 -14.6173 -14.2945 -14.2945 -14.2940 -14.2940
   -14.2939 -14.2939  -9.5951  -9.5951  -9.5068  -9.5068  -9.4836  -9.4836
    -7.8203  -7.8203  -7.5457  -7.5457  -7.4921  -7.4921  -7.4710  -7.4710
    -7.4171  -7.4171  -7.3774  -7.3774  -3.6626  -3.6626  -3.2781  -3.2781
     2.8660   2.8660   3.8453   3.8453   4.1681   4.1681   4.4573   4.4573
     5.1951   5.1951   5.4429   5.4429   7.0516   7.0516   7.1340   7.1340
     7.4161   7.4161   7.4784   7.4784   7.7440   7.7440   7.7995   7.7995
     8.1874   8.1874   8.3324   8.3324   8.5522   8.5522   9.0024   9.0024
     9.0514   9.0514   9.2132   9.2132   9.3446   9.3446   9.6631   9.6631
    10.5234  10.5234  10.5876  10.5876  10.9536  10.9536  11.2027  11.2027

     occupation numbers 
     1.0000   1.0000   1.0000   1.0000   1.0000   1.0000   1.0000   1.0000
     1.0000   1.0000   1.0000   1.0000   1.0000   1.0000   1.0000   1.0000
     1.0000   1.0000   1.0000   1.0000   1.0000   1.0000   1.0000   1.0000
     1.0000   1.0000   1.0000   1.0000   1.0000   1.0000   1.0000   1.0000
     1.0000   1.0000   1.0000   1.0000   1.0000   1.0000   1.0000   1.0000
     1.0000   1.0000   1.0000   1.0000   1.0000   1.0000   1.0000   1.0000
     1.0000   1.0000   1.0000   1.0000   1.0000   1.0000   1.0000   1.0000
     1.0000   1.0000   1.0000   1.0000  -0.0000  -0.0000  -0.0000  -0.0000
    -0.0000  -0.0000  -0.0000  -0.0000  -0.0000  -0.0000  -0.0000  -0.0000
    -0.0000  -0.0000  -0.0000  -0.0000  -0.0000  -0.0000  -0.0000  -0.0000
    -0.0000  -0.0000  -0.0000  -0.0000  -0.0000  -0.0000  -0.0000  -0.0000
    -0.0000  -0.0000  -0.0000  -0.0000  -0.0000  -0.0000  -0.0000  -0.0000

          k =-0.2500-0.2500 0.0000 ( 18821 PWs)   bands (ev):

   -22.8887 -22.8887 -22.8727 -22.8727 -22.8711 -22.8711 -17.6171 -17.6171
   -17.6148 -17.6148 -17.2873 -17.2873 -17.2873 -17.2873 -14.6585 -14.6585
   -14.6517 -14.6517 -14.6169 -14.6169 -14.2945 -14.2945 -14.2940 -14.2940
   -14.2940 -14.2940  -9.5638  -9.5638  -9.5341  -9.5341  -9.4692  -9.4692
    -7.7080  -7.7080  -7.5593  -7.5593  -7.5168  -7.5168  -7.4754  -7.4754
    -7.4501  -7.4501  -7.3840  -7.3840  -4.0661  -4.0661  -3.2855  -3.2855
     3.4388   3.4388   4.0975   4.0975   4.6567   4.6567   4.9563   4.9563
     5.2291   5.2291   5.6044   5.6044   6.5767   6.5767   6.7364   6.7364
     6.8635   6.8635   7.1330   7.1330   7.3664   7.3664   7.8508   7.8508
     8.4836   8.4836   8.6181   8.6181   8.6810   8.6810   8.8512   8.8512
     9.1417   9.1417   9.3951   9.3951   9.5882   9.5882   9.6486   9.6486
     9.9466   9.9466  10.4651  10.4651  10.6072  10.6072  11.5141  11.5142

     occupation numbers 
     1.0000   1.0000   1.0000   1.0000   1.0000   1.0000   1.0000   1.0000
     1.0000   1.0000   1.0000   1.0000   1.0000   1.0000   1.0000   1.0000
     1.0000   1.0000   1.0000   1.0000   1.0000   1.0000   1.0000   1.0000
     1.0000   1.0000   1.0000   1.0000   1.0000   1.0000   1.0000   1.0000
     1.0000   1.0000   1.0000   1.0000   1.0000   1.0000   1.0000   1.0000
     1.0000   1.0000   1.0000   1.0000   1.0000   1.0000   1.0000   1.0000
     1.0000   1.0000   1.0000   1.0000   1.0000   1.0000   1.0000   1.0000
     1.0000   1.0000   1.0000   1.0000  -0.0012  -0.0012  -0.0000  -0.0000
    -0.0000  -0.0000  -0.0000  -0.0000  -0.0000  -0.0000  -0.0000  -0.0000
    -0.0000  -0.0000  -0.0000  -0.0000  -0.0000  -0.0000  -0.0000  -0.0000
    -0.0000  -0.0000  -0.0000  -0.0000  -0.0000  -0.0000  -0.0000  -0.0000
    -0.0000  -0.0000  -0.0000  -0.0000  -0.0000  -0.0000  -0.0000  -0.0000

          k =-0.2500-0.2500 0.2500 ( 18805 PWs)   bands (ev):

   -22.8857 -22.8857 -22.8728 -22.8728 -22.8726 -22.8726 -17.6171 -17.6171
   -17.6171 -17.6171 -17.2873 -17.2873 -17.2873 -17.2873 -14.6585 -14.6585
   -14.6585 -14.6585 -14.6171 -14.6171 -14.2945 -14.2945 -14.2940 -14.2940
   -14.2940 -14.2940  -9.5820  -9.5820  -9.5192  -9.5192  -9.4752  -9.4752
    -7.7747  -7.7747  -7.5396  -7.5396  -7.5003  -7.5003  -7.4759  -7.4759
    -7.4442  -7.4442  -7.3742  -7.3742  -3.8720  -3.8720  -3.2817  -3.2817
     3.1994   3.1994   4.0194   4.0194   4.3512   4.3512   4.6252   4.6252
     5.1921   5.1921   5.5240   5.5240   6.7344   6.7344   6.9536   6.9536
     6.9985   6.9985   7.4216   7.4216   7.7224   7.7224   7.7950   7.7950
     8.2774   8.2774   8.4082   8.4082   8.5792   8.5792   8.9370   8.9370
     9.1655   9.1655   9.2010   9.2010   9.3395   9.3395  10.2582  10.2582
    10.4898  10.4898  10.6009  10.6009  10.7581  10.7581  10.8005  10.8005

     occupation numbers 
     1.0000   1.0000   1.0000   1.0000   1.0000   1.0000   1.0000   1.0000
     1.0000   1.0000   1.0000   1.0000   1.0000   1.0000   1.0000   1.0000
     1.0000   1.0000   1.0000   1.0000   1.0000   1.0000   1.0000   1.0000
     1.0000   1.0000   1.0000   1.0000   1.0000   1.0000   1.0000   1.0000
     1.0000   1.0000   1.0000   1.0000   1.0000   1.0000   1.0000   1.0000
     1.0000   1.0000   1.0000   1.0000   1.0000   1.0000   1.0000   1.0000
     1.0000   1.0000   1.0000   1.0000   1.0000   1.0000   1.0000   1.0000
     1.0000   1.0000   1.0000   1.0000  -0.0000  -0.0000  -0.0000  -0.0000
    -0.0000  -0.0000  -0.0000  -0.0000  -0.0000  -0.0000  -0.0000  -0.0000
    -0.0000  -0.0000  -0.0000  -0.0000  -0.0000  -0.0000  -0.0000  -0.0000
    -0.0000  -0.0000  -0.0000  -0.0000  -0.0000  -0.0000  -0.0000  -0.0000
    -0.0000  -0.0000  -0.0000  -0.0000  -0.0000  -0.0000  -0.0000  -0.0000

          k =-0.2500-0.2500-0.5000 ( 18726 PWs)   bands (ev):

   -22.8814 -22.8814 -22.8757 -22.8757 -22.8727 -22.8727 -17.6195 -17.6195
   -17.6171 -17.6171 -17.2873 -17.2873 -17.2873 -17.2873 -14.6653 -14.6653
   -14.6585 -14.6585 -14.6173 -14.6173 -14.2945 -14.2945 -14.2940 -14.2940
   -14.2939 -14.2939  -9.5951  -9.5951  -9.5068  -9.5068  -9.4836  -9.4836
    -7.8203  -7.8203  -7.5457  -7.5457  -7.4921  -7.4921  -7.4710  -7.4710
    -7.4171  -7.4171  -7.3774  -7.3774  -3.6626  -3.6626  -3.2781  -3.2781
     2.8660   2.8660   3.8453   3.8453   4.1681   4.1681   4.4573   4.4573
     5.1951   5.1951   5.4429   5.4429   7.0516   7.0516   7.1340   7.1340
     7.4161   7.4161   7.4784   7.4784   7.7440   7.7440   7.7995   7.7995
     8.1874   8.1874   8.3324   8.3324   8.5522   8.5522   9.0024   9.0024
     9.0514   9.0514   9.2132   9.2132   9.3446   9.3446   9.6631   9.6631
    10.5234  10.5234  10.5876  10.5876  10.9536  10.9536  11.2027  11.2027

     occupation numbers 
     1.0000   1.0000   1.0000   1.0000   1.0000   1.0000   1.0000   1.0000
     1.0000   1.0000   1.0000   1.0000   1.0000   1.0000   1.0000   1.0000
     1.0000   1.0000   1.0000   1.0000   1.0000   1.0000   1.0000   1.0000
     1.0000   1.0000   1.0000   1.0000   1.0000   1.0000   1.0000   1.0000
     1.0000   1.0000   1.0000   1.0000   1.0000   1.0000   1.0000   1.0000
     1.0000   1.0000   1.0000   1.0000   1.0000   1.0000   1.0000   1.0000
     1.0000   1.0000   1.0000   1.0000   1.0000   1.0000   1.0000   1.0000
     1.0000   1.0000   1.0000   1.0000  -0.0000  -0.0000  -0.0000  -0.0000
    -0.0000  -0.0000  -0.0000  -0.0000  -0.0000  -0.0000  -0.0000  -0.0000
    -0.0000  -0.0000  -0.0000  -0.0000  -0.0000  -0.0000  -0.0000  -0.0000
    -0.0000  -0.0000  -0.0000  -0.0000  -0.0000  -0.0000  -0.0000  -0.0000
    -0.0000  -0.0000  -0.0000  -0.0000  -0.0000  -0.0000  -0.0000  -0.0000

          k =-0.2500-0.2500-0.2500 ( 18805 PWs)   bands (ev):

   -22.8857 -22.8857 -22.8728 -22.8728 -22.8726 -22.8726 -17.6171 -17.6171
   -17.6171 -17.6171 -17.2873 -17.2873 -17.2873 -17.2873 -14.6585 -14.6585
   -14.6585 -14.6585 -14.6171 -14.6171 -14.2945 -14.2945 -14.2940 -14.2940
   -14.2940 -14.2940  -9.5820  -9.5820  -9.5192  -9.5192  -9.4752  -9.4752
    -7.7747  -7.7747  -7.5396  -7.5396  -7.5003  -7.5003  -7.4759  -7.4759
    -7.4442  -7.4442  -7.3742  -7.3742  -3.8720  -3.8720  -3.2817  -3.2817
     3.1994   3.1994   4.0194   4.0194   4.3512   4.3512   4.6252   4.6252
     5.1921   5.1921   5.5240   5.5240   6.7344   6.7344   6.9536   6.9536
     6.9985   6.9985   7.4216   7.4216   7.7224   7.7224   7.7950   7.7950
     8.2774   8.2774   8.4082   8.4082   8.5792   8.5792   8.9370   8.9370
     9.1655   9.1655   9.2010   9.2010   9.3395   9.3395  10.2582  10.2582
    10.4898  10.4898  10.6009  10.6009  10.7581  10.7581  10.8005  10.8005

     occupation numbers 
     1.0000   1.0000   1.0000   1.0000   1.0000   1.0000   1.0000   1.0000
     1.0000   1.0000   1.0000   1.0000   1.0000   1.0000   1.0000   1.0000
     1.0000   1.0000   1.0000   1.0000   1.0000   1.0000   1.0000   1.0000
     1.0000   1.0000   1.0000   1.0000   1.0000   1.0000   1.0000   1.0000
     1.0000   1.0000   1.0000   1.0000   1.0000   1.0000   1.0000   1.0000
     1.0000   1.0000   1.0000   1.0000   1.0000   1.0000   1.0000   1.0000
     1.0000   1.0000   1.0000   1.0000   1.0000   1.0000   1.0000   1.0000
     1.0000   1.0000   1.0000   1.0000  -0.0000  -0.0000  -0.0000  -0.0000
    -0.0000  -0.0000  -0.0000  -0.0000  -0.0000  -0.0000  -0.0000  -0.0000
    -0.0000  -0.0000  -0.0000  -0.0000  -0.0000  -0.0000  -0.0000  -0.0000
    -0.0000  -0.0000  -0.0000  -0.0000  -0.0000  -0.0000  -0.0000  -0.0000
    -0.0000  -0.0000  -0.0000  -0.0000  -0.0000  -0.0000  -0.0000  -0.0000

     the Fermi energy is     6.2377 ev

!    total energy              =    -496.42655099 Ry
     estimated scf accuracy    <          2.4E-10 Ry
     smearing contrib. (-TS)   =       0.00001174 Ry
     internal energy E=F+TS    =    -496.42656273 Ry

     The total energy is F=E-TS. E is the sum of the following terms:
     one-electron contribution =    -223.62903750 Ry
     hartree contribution      =     131.85680592 Ry
     xc contribution           =    -126.10189031 Ry
     ewald contribution        =    -278.55244084 Ry

     convergence has been achieved in  11 iterations

     Writing all to output data dir ./out_soc_nc_Ba3Bi2/Ba3Bi2_soc_nc.save/ :
     XML data file, charge density, pseudopotentials, collected wavefunctions

     init_run     :     15.99s CPU     17.82s WALL (       1 calls)
     electrons    :    647.93s CPU    696.24s WALL (       1 calls)

     Called by init_run:
     wfcinit      :     14.73s CPU     16.49s WALL (       1 calls)
     wfcinit:atom :      0.08s CPU      0.16s WALL (       8 calls)
     wfcinit:wfcr :     14.21s CPU     14.72s WALL (       8 calls)
     potinit      :      0.17s CPU      0.21s WALL (       1 calls)
     hinit0       :      1.05s CPU      1.07s WALL (       1 calls)

     Called by electrons:
     c_bands      :    596.70s CPU    633.59s WALL (      12 calls)
     sum_band     :     48.66s CPU     57.59s WALL (      12 calls)
     v_of_rho     :      1.48s CPU      2.06s WALL (      12 calls)
     v_h          :      0.07s CPU      0.14s WALL (      12 calls)
     v_xc         :      1.41s CPU      1.92s WALL (      12 calls)
     mix_rho      :      0.52s CPU      1.83s WALL (      12 calls)

     Called by c_bands:
     init_us_2    :      2.75s CPU      6.06s WALL (     200 calls)
     cegterg      :    535.20s CPU    554.76s WALL (      96 calls)

     Called by sum_band:
     sum_band:wei :      0.10s CPU      0.12s WALL (      12 calls)
     sum_band:loo :     47.69s CPU     55.44s WALL (      12 calls)
     sum_band:buf :      0.00s CPU      4.32s WALL (      96 calls)
     sum_band:ini :      1.30s CPU      2.74s WALL (      96 calls)

     Called by *egterg:
     cdiaghg      :      4.85s CPU      5.07s WALL (     484 calls)
     cegterg:over :     71.33s CPU     72.82s WALL (     396 calls)
     cegterg:upda :     42.07s CPU     44.29s WALL (     396 calls)
     cegterg:last :     78.05s CPU     81.33s WALL (     202 calls)
     h_psi        :    319.73s CPU    330.93s WALL (     500 calls)
     g_psi        :      1.07s CPU      1.10s WALL (     396 calls)

     Called by h_psi:
     h_psi:calbec :     60.93s CPU     63.02s WALL (     500 calls)
     vloc_psi     :    198.68s CPU    204.27s WALL (     500 calls)
                                        0.00s GPU  (     500 calls)
     add_vuspsi   :     58.97s CPU     60.11s WALL (     500 calls)

     General routines
     calbec       :     60.93s CPU     63.02s WALL (     500 calls)
     fft          :      1.13s CPU      1.18s WALL (     190 calls)
     ffts         :      0.13s CPU      0.14s WALL (      48 calls)
     fftw         :    198.48s CPU    203.56s WALL (  109264 calls)
     davcio       :      0.01s CPU     20.12s WALL (     430 calls)

     Parallel routines

     PWSCF        :  11m 4.75s CPU  11m59.12s WALL


   This run was terminated on:  22:39:39  10Jul2026            

=------------------------------------------------------------------------------=
   JOB DONE.
=------------------------------------------------------------------------------=
