
     Program PWSCF v.7.5 starts on 12Jul2026 at 22: 4:53 

     This program is part of the open-source Quantum ESPRESSO suite
     for quantum simulation of materials; please cite
         "P. Giannozzi et al., J. Phys.:Condens. Matter 21 395502 (2009);
         "P. Giannozzi et al., J. Phys.:Condens. Matter 29 465901 (2017);
         "P. Giannozzi et al., J. Chem. Phys. 152 154105 (2020);
          URL http://www.quantum-espresso.org", 
     in publications or presentations arising from this work. More details at
     http://www.quantum-espresso.org/quote

     Parallel version (MPI & OpenMP), running on       8 processor cores
     Number of MPI processes:                 8
     Threads/MPI process:                     1

     MPI processes distributed on     1 nodes
     0 MiB available memory on the printing compute node when the environment starts

     Reading input from BaMg2Bi2.scf.soc.nc.in

     Current dimensions of program PWSCF are:
     Max number of different atomic species (ntypx) = 10
     Max number of k-points (npk) =  40000
     Max angular momentum in pseudopotentials (lmaxx) =  4

     K-points division:     npool     =       8
     Subspace diagonalization in iterative solution of the eigenvalue problem:
     a serial algorithm will be used


     G-vector sticks info
     --------------------
     sticks:   dense  smooth     PW     G-vecs:    dense   smooth      PW
     Sum        1663    1663    499                92297    92297   14787

     Using Slab Decomposition



     bravais-lattice index     =            0
     lattice parameter (alat)  =       9.2706  a.u.
     unit-cell volume          =    1166.3793 (a.u.)^3
     number of atoms/cell      =            5
     number of atomic types    =            3
     number of electrons       =        60.00
     number of Kohn-Sham states=           96
     kinetic-energy cutoff     =      70.0000  Ry
     charge density cutoff     =     280.0000  Ry
     scf convergence threshold =      1.0E-08
     mixing beta               =       0.3000
     number of iterations used =            8  plain     mixing
     Exchange-correlation= PBE
                           (   1   4   3   4   0   0   0)
     Non magnetic calculation with spin-orbit


     celldm(1)=   9.270596  celldm(2)=   0.000000  celldm(3)=   0.000000
     celldm(4)=   0.000000  celldm(5)=   0.000000  celldm(6)=   0.000000

     crystal axes: (cart. coord. in units of alat)
               a(1) = (   0.500000  -0.866025   0.000000 )  
               a(2) = (   0.500000   0.866025   0.000000 )  
               a(3) = (   0.000000   0.000000   1.690387 )  

     reciprocal axes: (cart. coord. in units 2 pi/alat)
               b(1) = (  1.000000 -0.577350  0.000000 )  
               b(2) = (  1.000000  0.577350 -0.000000 )  
               b(3) = ( -0.000000  0.000000  0.591580 )  


     PseudoPot. # 1 for Ba read from file:
     ./pseudo_nc/Ba_FR.upf
     MD5 check sum: c3493f42e3a3b2e6d8ad780f479f7165
     Pseudo is Norm-conserving + core correction, Zval = 10.0
     Generated using ONCVPSP code by D. R. Hamann
     Using radial grid of 1958 points, 10 beta functions with: 
                l(1) =   0
                l(2) =   0
                l(3) =   1
                l(4) =   1
                l(5) =   1
                l(6) =   1
                l(7) =   2
                l(8) =   2
                l(9) =   2
               l(10) =   2

     PseudoPot. # 2 for Mg read from file:
     ./pseudo_nc/Mg_FR.upf
     MD5 check sum: 750ff570619d62cb51988197239ea73b
     Pseudo is Norm-conserving, Zval = 10.0
     Generated using ONCVPSP code by D. R. Hamann
     Using radial grid of 1510 points,  6 beta functions with: 
                l(1) =   0
                l(2) =   0
                l(3) =   1
                l(4) =   1
                l(5) =   1
                l(6) =   1

     PseudoPot. # 3 for Bi read from file:
     ./pseudo_nc/Bi_FR.upf
     MD5 check sum: 260977096fd1df4b879f04c556a28fcb
     Pseudo is Norm-conserving + core correction, Zval = 15.0
     Generated using ONCVPSP code by D. R. Hamann
     Using radial grid of 1562 points, 10 beta functions with: 
                l(1) =   0
                l(2) =   0
                l(3) =   1
                l(4) =   1
                l(5) =   1
                l(6) =   1
                l(7) =   2
                l(8) =   2
                l(9) =   2
               l(10) =   2

     atomic species   valence    mass     pseudopotential
     Ba               10.00   137.32700     Ba( 1.00)
     Mg               10.00    24.30500     Mg( 1.00)
     Bi               15.00   208.98000     Bi( 1.00)

     No symmetry found


                                    s                        frac. trans.

      isym =  1     identity                                     

 cryst.   s( 1) = (     1          0          0      )
                  (     0          1          0      )
                  (     0          0          1      )

 cart.    s( 1) = (  1.0000000  0.0000000  0.0000000 )
                  (  0.0000000  1.0000000  0.0000000 )
                  (  0.0000000  0.0000000  1.0000000 )


   Cartesian axes

     site n.     atom                  positions (alat units)
         1        Ba     tau(   1) = (   0.0000000   0.0000000   0.0000000  )
         2        Mg     tau(   2) = (   0.5000000  -0.2886757   0.6363463  )
         3        Mg     tau(   3) = (   0.5000000   0.2886757   1.0540410  )
         4        Bi     tau(   4) = (   0.5000000   0.2886757   0.4449133  )
         5        Bi     tau(   5) = (   0.5000000  -0.2886757   1.2454740  )

   Crystallographic axes

     site n.     atom                  positions (cryst. coord.)
         1        Ba     tau(   1) = (  0.0000000  0.0000000  0.0000000  )
         2        Mg     tau(   2) = (  0.6666670  0.3333330  0.3764500  )
         3        Mg     tau(   3) = (  0.3333330  0.6666670  0.6235500  )
         4        Bi     tau(   4) = (  0.3333330  0.6666670  0.2632020  )
         5        Bi     tau(   5) = (  0.6666670  0.3333330  0.7367980  )

     number of k points=   144  Methfessel-Paxton smearing, width (Ry)=  0.0100
                       cart. coord. in units 2pi/alat
        k(    1) = (   0.0000000   0.0000000   0.0000000), wk =   0.0069444
        k(    2) = (   0.0000000   0.0000000   0.1478951), wk =   0.0069444
        k(    3) = (   0.0000000   0.0000000  -0.2957902), wk =   0.0069444
        k(    4) = (   0.0000000   0.0000000  -0.1478951), wk =   0.0069444
        k(    5) = (   0.1666667   0.0962250   0.0000000), wk =   0.0069444
        k(    6) = (   0.1666667   0.0962250   0.1478951), wk =   0.0069444
        k(    7) = (   0.1666667   0.0962250  -0.2957902), wk =   0.0069444
        k(    8) = (   0.1666667   0.0962250  -0.1478951), wk =   0.0069444
        k(    9) = (   0.3333333   0.1924501   0.0000000), wk =   0.0069444
        k(   10) = (   0.3333333   0.1924501   0.1478951), wk =   0.0069444
        k(   11) = (   0.3333333   0.1924501  -0.2957902), wk =   0.0069444
        k(   12) = (   0.3333333   0.1924501  -0.1478951), wk =   0.0069444
        k(   13) = (  -0.5000000  -0.2886751   0.0000000), wk =   0.0069444
        k(   14) = (  -0.5000000  -0.2886751   0.1478951), wk =   0.0069444
        k(   15) = (  -0.5000000  -0.2886751  -0.2957902), wk =   0.0069444
        k(   16) = (  -0.5000000  -0.2886751  -0.1478951), wk =   0.0069444
        k(   17) = (  -0.3333333  -0.1924501   0.0000000), wk =   0.0069444
        k(   18) = (  -0.3333333  -0.1924501   0.1478951), wk =   0.0069444
        k(   19) = (  -0.3333333  -0.1924501  -0.2957902), wk =   0.0069444
        k(   20) = (  -0.3333333  -0.1924501  -0.1478951), wk =   0.0069444
        k(   21) = (  -0.1666667  -0.0962250   0.0000000), wk =   0.0069444
        k(   22) = (  -0.1666667  -0.0962250   0.1478951), wk =   0.0069444
        k(   23) = (  -0.1666667  -0.0962250  -0.2957902), wk =   0.0069444
        k(   24) = (  -0.1666667  -0.0962250  -0.1478951), wk =   0.0069444
        k(   25) = (   0.1666667  -0.0962250   0.0000000), wk =   0.0069444
        k(   26) = (   0.1666667  -0.0962250   0.1478951), wk =   0.0069444
        k(   27) = (   0.1666667  -0.0962250  -0.2957902), wk =   0.0069444
        k(   28) = (   0.1666667  -0.0962250  -0.1478951), wk =   0.0069444
        k(   29) = (   0.3333333   0.0000000   0.0000000), wk =   0.0069444
        k(   30) = (   0.3333333   0.0000000   0.1478951), wk =   0.0069444
        k(   31) = (   0.3333333   0.0000000  -0.2957902), wk =   0.0069444
        k(   32) = (   0.3333333   0.0000000  -0.1478951), wk =   0.0069444
        k(   33) = (   0.5000000   0.0962250   0.0000000), wk =   0.0069444
        k(   34) = (   0.5000000   0.0962250   0.1478951), wk =   0.0069444
        k(   35) = (   0.5000000   0.0962250  -0.2957902), wk =   0.0069444
        k(   36) = (   0.5000000   0.0962250  -0.1478951), wk =   0.0069444
        k(   37) = (  -0.3333333  -0.3849002   0.0000000), wk =   0.0069444
        k(   38) = (  -0.3333333  -0.3849002   0.1478951), wk =   0.0069444
        k(   39) = (  -0.3333333  -0.3849002  -0.2957902), wk =   0.0069444
        k(   40) = (  -0.3333333  -0.3849002  -0.1478951), wk =   0.0069444
        k(   41) = (  -0.1666667  -0.2886751   0.0000000), wk =   0.0069444
        k(   42) = (  -0.1666667  -0.2886751   0.1478951), wk =   0.0069444
        k(   43) = (  -0.1666667  -0.2886751  -0.2957902), wk =   0.0069444
        k(   44) = (  -0.1666667  -0.2886751  -0.1478951), wk =   0.0069444
        k(   45) = (   0.0000000  -0.1924501   0.0000000), wk =   0.0069444
        k(   46) = (   0.0000000  -0.1924501   0.1478951), wk =   0.0069444
        k(   47) = (   0.0000000  -0.1924501  -0.2957902), wk =   0.0069444
        k(   48) = (   0.0000000  -0.1924501  -0.1478951), wk =   0.0069444
        k(   49) = (   0.3333333  -0.1924501   0.0000000), wk =   0.0069444
        k(   50) = (   0.3333333  -0.1924501   0.1478951), wk =   0.0069444
        k(   51) = (   0.3333333  -0.1924501  -0.2957902), wk =   0.0069444
        k(   52) = (   0.3333333  -0.1924501  -0.1478951), wk =   0.0069444
        k(   53) = (   0.5000000  -0.0962250   0.0000000), wk =   0.0069444
        k(   54) = (   0.5000000  -0.0962250   0.1478951), wk =   0.0069444
        k(   55) = (   0.5000000  -0.0962250  -0.2957902), wk =   0.0069444
        k(   56) = (   0.5000000  -0.0962250  -0.1478951), wk =   0.0069444
        k(   57) = (   0.6666667   0.0000000   0.0000000), wk =   0.0069444
        k(   58) = (   0.6666667   0.0000000   0.1478951), wk =   0.0069444
        k(   59) = (   0.6666667   0.0000000  -0.2957902), wk =   0.0069444
        k(   60) = (   0.6666667   0.0000000  -0.1478951), wk =   0.0069444
        k(   61) = (  -0.1666667  -0.4811252   0.0000000), wk =   0.0069444
        k(   62) = (  -0.1666667  -0.4811252   0.1478951), wk =   0.0069444
        k(   63) = (  -0.1666667  -0.4811252  -0.2957902), wk =   0.0069444
        k(   64) = (  -0.1666667  -0.4811252  -0.1478951), wk =   0.0069444
        k(   65) = (  -0.0000000  -0.3849002   0.0000000), wk =   0.0069444
        k(   66) = (  -0.0000000  -0.3849002   0.1478951), wk =   0.0069444
        k(   67) = (  -0.0000000  -0.3849002  -0.2957902), wk =   0.0069444
        k(   68) = (  -0.0000000  -0.3849002  -0.1478951), wk =   0.0069444
        k(   69) = (   0.1666667  -0.2886751   0.0000000), wk =   0.0069444
        k(   70) = (   0.1666667  -0.2886751   0.1478951), wk =   0.0069444
        k(   71) = (   0.1666667  -0.2886751  -0.2957902), wk =   0.0069444
        k(   72) = (   0.1666667  -0.2886751  -0.1478951), wk =   0.0069444
        k(   73) = (  -0.5000000   0.2886751   0.0000000), wk =   0.0069444
        k(   74) = (  -0.5000000   0.2886751   0.1478951), wk =   0.0069444
        k(   75) = (  -0.5000000   0.2886751  -0.2957902), wk =   0.0069444
        k(   76) = (  -0.5000000   0.2886751  -0.1478951), wk =   0.0069444
        k(   77) = (  -0.3333333   0.3849002   0.0000000), wk =   0.0069444
        k(   78) = (  -0.3333333   0.3849002   0.1478951), wk =   0.0069444
        k(   79) = (  -0.3333333   0.3849002  -0.2957902), wk =   0.0069444
        k(   80) = (  -0.3333333   0.3849002  -0.1478951), wk =   0.0069444
        k(   81) = (  -0.1666667   0.4811252   0.0000000), wk =   0.0069444
        k(   82) = (  -0.1666667   0.4811252   0.1478951), wk =   0.0069444
        k(   83) = (  -0.1666667   0.4811252  -0.2957902), wk =   0.0069444
        k(   84) = (  -0.1666667   0.4811252  -0.1478951), wk =   0.0069444
        k(   85) = (  -1.0000000   0.0000000   0.0000000), wk =   0.0069444
        k(   86) = (  -1.0000000   0.0000000   0.1478951), wk =   0.0069444
        k(   87) = (  -1.0000000   0.0000000  -0.2957902), wk =   0.0069444
        k(   88) = (  -1.0000000   0.0000000  -0.1478951), wk =   0.0069444
        k(   89) = (  -0.8333333   0.0962250   0.0000000), wk =   0.0069444
        k(   90) = (  -0.8333333   0.0962250   0.1478951), wk =   0.0069444
        k(   91) = (  -0.8333333   0.0962250  -0.2957902), wk =   0.0069444
        k(   92) = (  -0.8333333   0.0962250  -0.1478951), wk =   0.0069444
        k(   93) = (  -0.6666667   0.1924501   0.0000000), wk =   0.0069444
        k(   94) = (  -0.6666667   0.1924501   0.1478951), wk =   0.0069444
        k(   95) = (  -0.6666667   0.1924501  -0.2957902), wk =   0.0069444
        k(   96) = (  -0.6666667   0.1924501  -0.1478951), wk =   0.0069444
        k(   97) = (  -0.3333333   0.1924501   0.0000000), wk =   0.0069444
        k(   98) = (  -0.3333333   0.1924501   0.1478951), wk =   0.0069444
        k(   99) = (  -0.3333333   0.1924501  -0.2957902), wk =   0.0069444
        k(  100) = (  -0.3333333   0.1924501  -0.1478951), wk =   0.0069444
        k(  101) = (  -0.1666667   0.2886751   0.0000000), wk =   0.0069444
        k(  102) = (  -0.1666667   0.2886751   0.1478951), wk =   0.0069444
        k(  103) = (  -0.1666667   0.2886751  -0.2957902), wk =   0.0069444
        k(  104) = (  -0.1666667   0.2886751  -0.1478951), wk =   0.0069444
        k(  105) = (  -0.0000000   0.3849002   0.0000000), wk =   0.0069444
        k(  106) = (  -0.0000000   0.3849002   0.1478951), wk =   0.0069444
        k(  107) = (  -0.0000000   0.3849002  -0.2957902), wk =   0.0069444
        k(  108) = (  -0.0000000   0.3849002  -0.1478951), wk =   0.0069444
        k(  109) = (  -0.8333333  -0.0962250   0.0000000), wk =   0.0069444
        k(  110) = (  -0.8333333  -0.0962250   0.1478951), wk =   0.0069444
        k(  111) = (  -0.8333333  -0.0962250  -0.2957902), wk =   0.0069444
        k(  112) = (  -0.8333333  -0.0962250  -0.1478951), wk =   0.0069444
        k(  113) = (  -0.6666667   0.0000000   0.0000000), wk =   0.0069444
        k(  114) = (  -0.6666667   0.0000000   0.1478951), wk =   0.0069444
        k(  115) = (  -0.6666667   0.0000000  -0.2957902), wk =   0.0069444
        k(  116) = (  -0.6666667   0.0000000  -0.1478951), wk =   0.0069444
        k(  117) = (  -0.5000000   0.0962250   0.0000000), wk =   0.0069444
        k(  118) = (  -0.5000000   0.0962250   0.1478951), wk =   0.0069444
        k(  119) = (  -0.5000000   0.0962250  -0.2957902), wk =   0.0069444
        k(  120) = (  -0.5000000   0.0962250  -0.1478951), wk =   0.0069444
        k(  121) = (  -0.1666667   0.0962250   0.0000000), wk =   0.0069444
        k(  122) = (  -0.1666667   0.0962250   0.1478951), wk =   0.0069444
        k(  123) = (  -0.1666667   0.0962250  -0.2957902), wk =   0.0069444
        k(  124) = (  -0.1666667   0.0962250  -0.1478951), wk =   0.0069444
        k(  125) = (   0.0000000   0.1924501   0.0000000), wk =   0.0069444
        k(  126) = (   0.0000000   0.1924501   0.1478951), wk =   0.0069444
        k(  127) = (   0.0000000   0.1924501  -0.2957902), wk =   0.0069444
        k(  128) = (   0.0000000   0.1924501  -0.1478951), wk =   0.0069444
        k(  129) = (   0.1666667   0.2886751   0.0000000), wk =   0.0069444
        k(  130) = (   0.1666667   0.2886751   0.1478951), wk =   0.0069444
        k(  131) = (   0.1666667   0.2886751  -0.2957902), wk =   0.0069444
        k(  132) = (   0.1666667   0.2886751  -0.1478951), wk =   0.0069444
        k(  133) = (  -0.6666667  -0.1924501   0.0000000), wk =   0.0069444
        k(  134) = (  -0.6666667  -0.1924501   0.1478951), wk =   0.0069444
        k(  135) = (  -0.6666667  -0.1924501  -0.2957902), wk =   0.0069444
        k(  136) = (  -0.6666667  -0.1924501  -0.1478951), wk =   0.0069444
        k(  137) = (  -0.5000000  -0.0962250   0.0000000), wk =   0.0069444
        k(  138) = (  -0.5000000  -0.0962250   0.1478951), wk =   0.0069444
        k(  139) = (  -0.5000000  -0.0962250  -0.2957902), wk =   0.0069444
        k(  140) = (  -0.5000000  -0.0962250  -0.1478951), wk =   0.0069444
        k(  141) = (  -0.3333333   0.0000000   0.0000000), wk =   0.0069444
        k(  142) = (  -0.3333333   0.0000000   0.1478951), wk =   0.0069444
        k(  143) = (  -0.3333333   0.0000000  -0.2957902), wk =   0.0069444
        k(  144) = (  -0.3333333   0.0000000  -0.1478951), wk =   0.0069444

                       cryst. coord.
        k(    1) = (   0.0000000   0.0000000   0.0000000), wk =   0.0069444
        k(    2) = (   0.0000000   0.0000000   0.2500000), wk =   0.0069444
        k(    3) = (   0.0000000   0.0000000  -0.5000000), wk =   0.0069444
        k(    4) = (   0.0000000   0.0000000  -0.2500000), wk =   0.0069444
        k(    5) = (  -0.0000000   0.1666667   0.0000000), wk =   0.0069444
        k(    6) = (  -0.0000000   0.1666667   0.2500000), wk =   0.0069444
        k(    7) = (  -0.0000000   0.1666667  -0.5000000), wk =   0.0069444
        k(    8) = (  -0.0000000   0.1666667  -0.2500000), wk =   0.0069444
        k(    9) = (  -0.0000000   0.3333333   0.0000000), wk =   0.0069444
        k(   10) = (  -0.0000000   0.3333333   0.2500000), wk =   0.0069444
        k(   11) = (  -0.0000000   0.3333333  -0.5000000), wk =   0.0069444
        k(   12) = (  -0.0000000   0.3333333  -0.2500000), wk =   0.0069444
        k(   13) = (   0.0000000  -0.5000000   0.0000000), wk =   0.0069444
        k(   14) = (   0.0000000  -0.5000000   0.2500000), wk =   0.0069444
        k(   15) = (   0.0000000  -0.5000000  -0.5000000), wk =   0.0069444
        k(   16) = (   0.0000000  -0.5000000  -0.2500000), wk =   0.0069444
        k(   17) = (   0.0000000  -0.3333333   0.0000000), wk =   0.0069444
        k(   18) = (   0.0000000  -0.3333333   0.2500000), wk =   0.0069444
        k(   19) = (   0.0000000  -0.3333333  -0.5000000), wk =   0.0069444
        k(   20) = (   0.0000000  -0.3333333  -0.2500000), wk =   0.0069444
        k(   21) = (   0.0000000  -0.1666667   0.0000000), wk =   0.0069444
        k(   22) = (   0.0000000  -0.1666667   0.2500000), wk =   0.0069444
        k(   23) = (   0.0000000  -0.1666667  -0.5000000), wk =   0.0069444
        k(   24) = (   0.0000000  -0.1666667  -0.2500000), wk =   0.0069444
        k(   25) = (   0.1666667  -0.0000000   0.0000000), wk =   0.0069444
        k(   26) = (   0.1666667  -0.0000000   0.2500000), wk =   0.0069444
        k(   27) = (   0.1666667  -0.0000000  -0.5000000), wk =   0.0069444
        k(   28) = (   0.1666667  -0.0000000  -0.2500000), wk =   0.0069444
        k(   29) = (   0.1666667   0.1666667   0.0000000), wk =   0.0069444
        k(   30) = (   0.1666667   0.1666667   0.2500000), wk =   0.0069444
        k(   31) = (   0.1666667   0.1666667  -0.5000000), wk =   0.0069444
        k(   32) = (   0.1666667   0.1666667  -0.2500000), wk =   0.0069444
        k(   33) = (   0.1666667   0.3333333   0.0000000), wk =   0.0069444
        k(   34) = (   0.1666667   0.3333333   0.2500000), wk =   0.0069444
        k(   35) = (   0.1666667   0.3333333  -0.5000000), wk =   0.0069444
        k(   36) = (   0.1666667   0.3333333  -0.2500000), wk =   0.0069444
        k(   37) = (   0.1666667  -0.5000000   0.0000000), wk =   0.0069444
        k(   38) = (   0.1666667  -0.5000000   0.2500000), wk =   0.0069444
        k(   39) = (   0.1666667  -0.5000000  -0.5000000), wk =   0.0069444
        k(   40) = (   0.1666667  -0.5000000  -0.2500000), wk =   0.0069444
        k(   41) = (   0.1666667  -0.3333333   0.0000000), wk =   0.0069444
        k(   42) = (   0.1666667  -0.3333333   0.2500000), wk =   0.0069444
        k(   43) = (   0.1666667  -0.3333333  -0.5000000), wk =   0.0069444
        k(   44) = (   0.1666667  -0.3333333  -0.2500000), wk =   0.0069444
        k(   45) = (   0.1666667  -0.1666667   0.0000000), wk =   0.0069444
        k(   46) = (   0.1666667  -0.1666667   0.2500000), wk =   0.0069444
        k(   47) = (   0.1666667  -0.1666667  -0.5000000), wk =   0.0069444
        k(   48) = (   0.1666667  -0.1666667  -0.2500000), wk =   0.0069444
        k(   49) = (   0.3333333  -0.0000000   0.0000000), wk =   0.0069444
        k(   50) = (   0.3333333  -0.0000000   0.2500000), wk =   0.0069444
        k(   51) = (   0.3333333  -0.0000000  -0.5000000), wk =   0.0069444
        k(   52) = (   0.3333333  -0.0000000  -0.2500000), wk =   0.0069444
        k(   53) = (   0.3333333   0.1666667   0.0000000), wk =   0.0069444
        k(   54) = (   0.3333333   0.1666667   0.2500000), wk =   0.0069444
        k(   55) = (   0.3333333   0.1666667  -0.5000000), wk =   0.0069444
        k(   56) = (   0.3333333   0.1666667  -0.2500000), wk =   0.0069444
        k(   57) = (   0.3333333   0.3333333   0.0000000), wk =   0.0069444
        k(   58) = (   0.3333333   0.3333333   0.2500000), wk =   0.0069444
        k(   59) = (   0.3333333   0.3333333  -0.5000000), wk =   0.0069444
        k(   60) = (   0.3333333   0.3333333  -0.2500000), wk =   0.0069444
        k(   61) = (   0.3333333  -0.5000000   0.0000000), wk =   0.0069444
        k(   62) = (   0.3333333  -0.5000000   0.2500000), wk =   0.0069444
        k(   63) = (   0.3333333  -0.5000000  -0.5000000), wk =   0.0069444
        k(   64) = (   0.3333333  -0.5000000  -0.2500000), wk =   0.0069444
        k(   65) = (   0.3333333  -0.3333333   0.0000000), wk =   0.0069444
        k(   66) = (   0.3333333  -0.3333333   0.2500000), wk =   0.0069444
        k(   67) = (   0.3333333  -0.3333333  -0.5000000), wk =   0.0069444
        k(   68) = (   0.3333333  -0.3333333  -0.2500000), wk =   0.0069444
        k(   69) = (   0.3333333  -0.1666667   0.0000000), wk =   0.0069444
        k(   70) = (   0.3333333  -0.1666667   0.2500000), wk =   0.0069444
        k(   71) = (   0.3333333  -0.1666667  -0.5000000), wk =   0.0069444
        k(   72) = (   0.3333333  -0.1666667  -0.2500000), wk =   0.0069444
        k(   73) = (  -0.5000000   0.0000000   0.0000000), wk =   0.0069444
        k(   74) = (  -0.5000000   0.0000000   0.2500000), wk =   0.0069444
        k(   75) = (  -0.5000000   0.0000000  -0.5000000), wk =   0.0069444
        k(   76) = (  -0.5000000   0.0000000  -0.2500000), wk =   0.0069444
        k(   77) = (  -0.5000000   0.1666667   0.0000000), wk =   0.0069444
        k(   78) = (  -0.5000000   0.1666667   0.2500000), wk =   0.0069444
        k(   79) = (  -0.5000000   0.1666667  -0.5000000), wk =   0.0069444
        k(   80) = (  -0.5000000   0.1666667  -0.2500000), wk =   0.0069444
        k(   81) = (  -0.5000000   0.3333333   0.0000000), wk =   0.0069444
        k(   82) = (  -0.5000000   0.3333333   0.2500000), wk =   0.0069444
        k(   83) = (  -0.5000000   0.3333333  -0.5000000), wk =   0.0069444
        k(   84) = (  -0.5000000   0.3333333  -0.2500000), wk =   0.0069444
        k(   85) = (  -0.5000000  -0.5000000   0.0000000), wk =   0.0069444
        k(   86) = (  -0.5000000  -0.5000000   0.2500000), wk =   0.0069444
        k(   87) = (  -0.5000000  -0.5000000  -0.5000000), wk =   0.0069444
        k(   88) = (  -0.5000000  -0.5000000  -0.2500000), wk =   0.0069444
        k(   89) = (  -0.5000000  -0.3333333   0.0000000), wk =   0.0069444
        k(   90) = (  -0.5000000  -0.3333333   0.2500000), wk =   0.0069444
        k(   91) = (  -0.5000000  -0.3333333  -0.5000000), wk =   0.0069444
        k(   92) = (  -0.5000000  -0.3333333  -0.2500000), wk =   0.0069444
        k(   93) = (  -0.5000000  -0.1666667   0.0000000), wk =   0.0069444
        k(   94) = (  -0.5000000  -0.1666667   0.2500000), wk =   0.0069444
        k(   95) = (  -0.5000000  -0.1666667  -0.5000000), wk =   0.0069444
        k(   96) = (  -0.5000000  -0.1666667  -0.2500000), wk =   0.0069444
        k(   97) = (  -0.3333333   0.0000000   0.0000000), wk =   0.0069444
        k(   98) = (  -0.3333333   0.0000000   0.2500000), wk =   0.0069444
        k(   99) = (  -0.3333333   0.0000000  -0.5000000), wk =   0.0069444
        k(  100) = (  -0.3333333   0.0000000  -0.2500000), wk =   0.0069444
        k(  101) = (  -0.3333333   0.1666667   0.0000000), wk =   0.0069444
        k(  102) = (  -0.3333333   0.1666667   0.2500000), wk =   0.0069444
        k(  103) = (  -0.3333333   0.1666667  -0.5000000), wk =   0.0069444
        k(  104) = (  -0.3333333   0.1666667  -0.2500000), wk =   0.0069444
        k(  105) = (  -0.3333333   0.3333333   0.0000000), wk =   0.0069444
        k(  106) = (  -0.3333333   0.3333333   0.2500000), wk =   0.0069444
        k(  107) = (  -0.3333333   0.3333333  -0.5000000), wk =   0.0069444
        k(  108) = (  -0.3333333   0.3333333  -0.2500000), wk =   0.0069444
        k(  109) = (  -0.3333333  -0.5000000   0.0000000), wk =   0.0069444
        k(  110) = (  -0.3333333  -0.5000000   0.2500000), wk =   0.0069444
        k(  111) = (  -0.3333333  -0.5000000  -0.5000000), wk =   0.0069444
        k(  112) = (  -0.3333333  -0.5000000  -0.2500000), wk =   0.0069444
        k(  113) = (  -0.3333333  -0.3333333   0.0000000), wk =   0.0069444
        k(  114) = (  -0.3333333  -0.3333333   0.2500000), wk =   0.0069444
        k(  115) = (  -0.3333333  -0.3333333  -0.5000000), wk =   0.0069444
        k(  116) = (  -0.3333333  -0.3333333  -0.2500000), wk =   0.0069444
        k(  117) = (  -0.3333333  -0.1666667   0.0000000), wk =   0.0069444
        k(  118) = (  -0.3333333  -0.1666667   0.2500000), wk =   0.0069444
        k(  119) = (  -0.3333333  -0.1666667  -0.5000000), wk =   0.0069444
        k(  120) = (  -0.3333333  -0.1666667  -0.2500000), wk =   0.0069444
        k(  121) = (  -0.1666667   0.0000000   0.0000000), wk =   0.0069444
        k(  122) = (  -0.1666667   0.0000000   0.2500000), wk =   0.0069444
        k(  123) = (  -0.1666667   0.0000000  -0.5000000), wk =   0.0069444
        k(  124) = (  -0.1666667   0.0000000  -0.2500000), wk =   0.0069444
        k(  125) = (  -0.1666667   0.1666667   0.0000000), wk =   0.0069444
        k(  126) = (  -0.1666667   0.1666667   0.2500000), wk =   0.0069444
        k(  127) = (  -0.1666667   0.1666667  -0.5000000), wk =   0.0069444
        k(  128) = (  -0.1666667   0.1666667  -0.2500000), wk =   0.0069444
        k(  129) = (  -0.1666667   0.3333333   0.0000000), wk =   0.0069444
        k(  130) = (  -0.1666667   0.3333333   0.2500000), wk =   0.0069444
        k(  131) = (  -0.1666667   0.3333333  -0.5000000), wk =   0.0069444
        k(  132) = (  -0.1666667   0.3333333  -0.2500000), wk =   0.0069444
        k(  133) = (  -0.1666667  -0.5000000   0.0000000), wk =   0.0069444
        k(  134) = (  -0.1666667  -0.5000000   0.2500000), wk =   0.0069444
        k(  135) = (  -0.1666667  -0.5000000  -0.5000000), wk =   0.0069444
        k(  136) = (  -0.1666667  -0.5000000  -0.2500000), wk =   0.0069444
        k(  137) = (  -0.1666667  -0.3333333   0.0000000), wk =   0.0069444
        k(  138) = (  -0.1666667  -0.3333333   0.2500000), wk =   0.0069444
        k(  139) = (  -0.1666667  -0.3333333  -0.5000000), wk =   0.0069444
        k(  140) = (  -0.1666667  -0.3333333  -0.2500000), wk =   0.0069444
        k(  141) = (  -0.1666667  -0.1666667   0.0000000), wk =   0.0069444
        k(  142) = (  -0.1666667  -0.1666667   0.2500000), wk =   0.0069444
        k(  143) = (  -0.1666667  -0.1666667  -0.5000000), wk =   0.0069444
        k(  144) = (  -0.1666667  -0.1666667  -0.2500000), wk =   0.0069444

     Dense  grid:    92297 G-vectors     FFT dimensions: (  50,  50,  90)

     Dynamical RAM for                 wfc:      33.79 MB

     Dynamical RAM for     wfc (w. buffer):      33.79 MB

     Dynamical RAM for           str. fact:       4.23 MB

     Dynamical RAM for           local pot:       0.00 MB

     Dynamical RAM for          nlocal pot:      22.88 MB

     Dynamical RAM for                qrad:      10.56 MB

     Dynamical RAM for          rho,v,vnew:      37.50 MB

     Dynamical RAM for               rhoin:      12.50 MB

     Dynamical RAM for           G-vectors:       5.99 MB

     Dynamical RAM for          h,s,v(r/c):       1.69 MB

     Dynamical RAM for          <psi|beta>:       0.38 MB

     Dynamical RAM for                 psi:      67.59 MB

     Dynamical RAM for                hpsi:      67.59 MB

     Dynamical RAM for      wfcinit/wfcrot:      50.90 MB

     Estimated static dynamical RAM per process >     146.81 MB

     Estimated max dynamical RAM per process >     284.05 MB

     Estimated total dynamical RAM >       2.22 GB

     Initial potential from superposition of free atoms

     starting charge      59.9796, renormalised to      60.0000
     Starting wfcs are   66 randomized atomic wfcs +   30 random wfcs

     total cpu time spent up to now is       24.4 secs

     Self-consistent Calculation

     iteration #  1     ecut=    70.00 Ry     beta= 0.30
     Davidson diagonalization with overlap

---- Real-time Memory Report at c_bands before calling an iterative solver
             0 MiB given to the printing process from OS
             0 MiB allocation reported by mallinfo(arena+hblkhd)
             0 MiB available memory on the node where the printing process lives
------------------
     ethr =  1.00E-02,  avg # of iterations =  7.8

     Threshold (ethr) on eigenvalues was too large:
     Diagonalizing with lowered threshold

     Davidson diagonalization with overlap

---- Real-time Memory Report at c_bands before calling an iterative solver
             0 MiB given to the printing process from OS
             0 MiB allocation reported by mallinfo(arena+hblkhd)
             0 MiB available memory on the node where the printing process lives
------------------
     ethr =  2.89E-04,  avg # of iterations =  2.4

     total cpu time spent up to now is      206.9 secs

     total energy              =    -621.57801590 Ry
     estimated scf accuracy    <       0.17294021 Ry

     iteration #  2     ecut=    70.00 Ry     beta= 0.30
     Davidson diagonalization with overlap

---- Real-time Memory Report at c_bands before calling an iterative solver
             0 MiB given to the printing process from OS
             0 MiB allocation reported by mallinfo(arena+hblkhd)
             0 MiB available memory on the node where the printing process lives
------------------
     ethr =  2.88E-04,  avg # of iterations =  2.3

     total cpu time spent up to now is      271.1 secs

     total energy              =    -621.59199449 Ry
     estimated scf accuracy    <       0.04321051 Ry

     iteration #  3     ecut=    70.00 Ry     beta= 0.30
     Davidson diagonalization with overlap

---- Real-time Memory Report at c_bands before calling an iterative solver
             0 MiB given to the printing process from OS
             0 MiB allocation reported by mallinfo(arena+hblkhd)
             0 MiB available memory on the node where the printing process lives
------------------
     ethr =  7.20E-05,  avg # of iterations =  2.6

     total cpu time spent up to now is      335.5 secs

     total energy              =    -621.59315010 Ry
     estimated scf accuracy    <       0.01238514 Ry

     iteration #  4     ecut=    70.00 Ry     beta= 0.30
     Davidson diagonalization with overlap

---- Real-time Memory Report at c_bands before calling an iterative solver
             0 MiB given to the printing process from OS
             0 MiB allocation reported by mallinfo(arena+hblkhd)
             0 MiB available memory on the node where the printing process lives
------------------
     ethr =  2.06E-05,  avg # of iterations =  5.2

     total cpu time spent up to now is      404.6 secs

     total energy              =    -621.59443608 Ry
     estimated scf accuracy    <       0.00120646 Ry

     iteration #  5     ecut=    70.00 Ry     beta= 0.30
     Davidson diagonalization with overlap

---- Real-time Memory Report at c_bands before calling an iterative solver
             0 MiB given to the printing process from OS
             0 MiB allocation reported by mallinfo(arena+hblkhd)
             0 MiB available memory on the node where the printing process lives
------------------
     ethr =  2.01E-06,  avg # of iterations =  8.1

     total cpu time spent up to now is      479.3 secs

     total energy              =    -621.59454361 Ry
     estimated scf accuracy    <       0.00013489 Ry

     iteration #  6     ecut=    70.00 Ry     beta= 0.30
     Davidson diagonalization with overlap

---- Real-time Memory Report at c_bands before calling an iterative solver
             0 MiB given to the printing process from OS
             0 MiB allocation reported by mallinfo(arena+hblkhd)
             0 MiB available memory on the node where the printing process lives
------------------
     ethr =  2.25E-07,  avg # of iterations =  2.0

     total cpu time spent up to now is      543.4 secs

     total energy              =    -621.59455127 Ry
     estimated scf accuracy    <       0.00000536 Ry

     iteration #  7     ecut=    70.00 Ry     beta= 0.30
     Davidson diagonalization with overlap

---- Real-time Memory Report at c_bands before calling an iterative solver
             0 MiB given to the printing process from OS
             0 MiB allocation reported by mallinfo(arena+hblkhd)
             0 MiB available memory on the node where the printing process lives
------------------
     ethr =  8.94E-09,  avg # of iterations =  2.0

     total cpu time spent up to now is      611.1 secs

     total energy              =    -621.59455270 Ry
     estimated scf accuracy    <       0.00000066 Ry

     iteration #  8     ecut=    70.00 Ry     beta= 0.30
     Davidson diagonalization with overlap

---- Real-time Memory Report at c_bands before calling an iterative solver
             0 MiB given to the printing process from OS
             0 MiB allocation reported by mallinfo(arena+hblkhd)
             0 MiB available memory on the node where the printing process lives
------------------
     ethr =  1.09E-09,  avg # of iterations =  2.0

     total cpu time spent up to now is      676.9 secs

     total energy              =    -621.59455283 Ry
     estimated scf accuracy    <       0.00000012 Ry

     iteration #  9     ecut=    70.00 Ry     beta= 0.30
     Davidson diagonalization with overlap

---- Real-time Memory Report at c_bands before calling an iterative solver
             0 MiB given to the printing process from OS
             0 MiB allocation reported by mallinfo(arena+hblkhd)
             0 MiB available memory on the node where the printing process lives
------------------
     ethr =  1.93E-10,  avg # of iterations =  2.0

     total cpu time spent up to now is      745.8 secs

     End of self-consistent calculation

          k = 0.0000 0.0000 0.0000 ( 11573 PWs)   bands (ev):

   -69.0395 -69.0395 -69.0392 -69.0392 -35.9770 -35.9770 -35.9749 -35.9749
   -35.6889 -35.6889 -35.6882 -35.6882 -35.6867 -35.6867 -35.6861 -35.6861
   -20.8265 -20.8265 -16.0936 -16.0936 -16.0935 -16.0935 -16.0931 -16.0931
   -16.0919 -16.0919 -13.1233 -13.1233 -13.1231 -13.1231 -13.1094 -13.1094
   -13.1072 -13.1072 -13.1019 -13.1019 -13.1017 -13.1017  -7.4615  -7.4615
    -5.5523  -5.5523  -5.3706  -5.3706  -3.2160  -3.2160  -2.5010  -2.5010
     3.4653   3.4653   5.7046   5.7046   5.7837   5.7837   6.6431   6.6431
     7.7292   7.7292   7.7977   7.7977   7.8377   7.8377   8.1529   8.1529
     9.1570   9.1570   9.7150   9.7150   9.7164   9.7164  10.0970  10.0970
    10.1000  10.1000  11.0251  11.0251  11.0777  11.0777  12.3082  12.3082
    12.4932  12.4932  13.4926  13.4926  14.1429  14.1429  14.5658  14.5658
    14.6818  14.6818  15.3177  15.3177  15.3223  15.3224  15.4455  15.4456

     occupation numbers 
     1.0000   1.0000   1.0000   1.0000   1.0000   1.0000   1.0000   1.0000
     1.0000   1.0000   1.0000   1.0000   1.0000   1.0000   1.0000   1.0000
     1.0000   1.0000   1.0000   1.0000   1.0000   1.0000   1.0000   1.0000
     1.0000   1.0000   1.0000   1.0000   1.0000   1.0000   1.0000   1.0000
     1.0000   1.0000   1.0000   1.0000   1.0000   1.0000   1.0000   1.0000
     1.0000   1.0000   1.0000   1.0000   1.0000   1.0000   1.0000   1.0000
     1.0000   1.0000   1.0000   1.0000   1.0000   1.0000   1.0000   1.0000
     0.9838   0.9838   0.7218   0.7218   0.4826   0.4826  -0.0023  -0.0023
    -0.0000  -0.0000  -0.0000  -0.0000  -0.0000  -0.0000  -0.0000  -0.0000
    -0.0000  -0.0000  -0.0000  -0.0000  -0.0000  -0.0000  -0.0000  -0.0000
    -0.0000  -0.0000  -0.0000  -0.0000  -0.0000  -0.0000  -0.0000  -0.0000
    -0.0000  -0.0000  -0.0000  -0.0000  -0.0000  -0.0000  -0.0000  -0.0000

          k = 0.0000 0.0000 0.1479 ( 11574 PWs)   bands (ev):

   -69.0395 -69.0395 -69.0392 -69.0392 -35.9770 -35.9770 -35.9749 -35.9749
   -35.6890 -35.6890 -35.6882 -35.6882 -35.6867 -35.6867 -35.6860 -35.6860
   -20.8265 -20.8265 -16.0937 -16.0937 -16.0933 -16.0933 -16.0930 -16.0930
   -16.0919 -16.0919 -13.1243 -13.1243 -13.1221 -13.1221 -13.1094 -13.1094
   -13.1072 -13.1072 -13.1022 -13.1022 -13.1014 -13.1014  -7.4619  -7.4619
    -5.5569  -5.5569  -5.3706  -5.3706  -3.1185  -3.1185  -2.6150  -2.6150
     3.6990   3.6990   5.3954   5.3954   5.8541   5.8541   6.7540   6.7540
     6.7961   6.7961   7.5679   7.5679   8.1307   8.1307   8.7079   8.7079
     9.5510   9.5510   9.6156   9.6156   9.6680   9.6680  10.4451  10.4451
    10.5313  10.5313  11.3662  11.3662  11.3867  11.3867  11.7212  11.7212
    12.6421  12.6421  13.1576  13.1576  13.2195  13.2195  13.4676  13.4676
    14.2274  14.2274  14.4048  14.4048  14.5024  14.5024  16.1916  16.1916

     occupation numbers 
     1.0000   1.0000   1.0000   1.0000   1.0000   1.0000   1.0000   1.0000
     1.0000   1.0000   1.0000   1.0000   1.0000   1.0000   1.0000   1.0000
     1.0000   1.0000   1.0000   1.0000   1.0000   1.0000   1.0000   1.0000
     1.0000   1.0000   1.0000   1.0000   1.0000   1.0000   1.0000   1.0000
     1.0000   1.0000   1.0000   1.0000   1.0000   1.0000   1.0000   1.0000
     1.0000   1.0000   1.0000   1.0000   1.0000   1.0000   1.0000   1.0000
     1.0000   1.0000   1.0000   1.0000   1.0000   1.0000   1.0000   1.0000
     1.0000   1.0000   1.0090   1.0090  -0.0044  -0.0044  -0.0000  -0.0000
    -0.0000  -0.0000  -0.0000  -0.0000  -0.0000  -0.0000  -0.0000  -0.0000
    -0.0000  -0.0000  -0.0000  -0.0000  -0.0000  -0.0000  -0.0000  -0.0000
    -0.0000  -0.0000  -0.0000  -0.0000  -0.0000  -0.0000  -0.0000  -0.0000
    -0.0000  -0.0000  -0.0000  -0.0000  -0.0000  -0.0000  -0.0000  -0.0000

          k = 0.0000 0.0000-0.2958 ( 11550 PWs)   bands (ev):

   -69.0395 -69.0395 -69.0392 -69.0392 -35.9767 -35.9767 -35.9748 -35.9748
   -35.6887 -35.6887 -35.6879 -35.6879 -35.6867 -35.6867 -35.6859 -35.6859
   -20.8265 -20.8265 -16.0938 -16.0938 -16.0933 -16.0933 -16.0929 -16.0929
   -16.0921 -16.0921 -13.1247 -13.1247 -13.1216 -13.1216 -13.1095 -13.1095
   -13.1071 -13.1071 -13.1023 -13.1023 -13.1013 -13.1013  -7.4624  -7.4624
    -5.5615  -5.5615  -5.3706  -5.3706  -2.8865  -2.8865  -2.8631  -2.8631
     4.0799   4.0799   4.8969   4.8969   6.1225   6.1225   6.2654   6.2654
     6.9881   6.9881   7.2067   7.2067   8.1133   8.1133   8.9511   8.9511
     9.5249   9.5249   9.5421   9.5421  10.3689  10.3689  11.0882  11.0882
    11.2582  11.2582  11.2716  11.2716  11.6780  11.6780  11.8312  11.8312
    12.0813  12.0813  12.3160  12.3160  12.3361  12.3361  13.1722  13.1722
    13.6109  13.6109  13.6474  13.6474  14.9268  14.9268  16.0325  16.0326

     occupation numbers 
     1.0000   1.0000   1.0000   1.0000   1.0000   1.0000   1.0000   1.0000
     1.0000   1.0000   1.0000   1.0000   1.0000   1.0000   1.0000   1.0000
     1.0000   1.0000   1.0000   1.0000   1.0000   1.0000   1.0000   1.0000
     1.0000   1.0000   1.0000   1.0000   1.0000   1.0000   1.0000   1.0000
     1.0000   1.0000   1.0000   1.0000   1.0000   1.0000   1.0000   1.0000
     1.0000   1.0000   1.0000   1.0000   1.0000   1.0000   1.0000   1.0000
     1.0000   1.0000   1.0000   1.0000   1.0000   1.0000   1.0000   1.0000
     1.0000   1.0000   1.0000   1.0000  -0.0069  -0.0069  -0.0000  -0.0000
    -0.0000  -0.0000  -0.0000  -0.0000  -0.0000  -0.0000  -0.0000  -0.0000
    -0.0000  -0.0000  -0.0000  -0.0000  -0.0000  -0.0000  -0.0000  -0.0000
    -0.0000  -0.0000  -0.0000  -0.0000  -0.0000  -0.0000  -0.0000  -0.0000
    -0.0000  -0.0000  -0.0000  -0.0000  -0.0000  -0.0000  -0.0000  -0.0000

          k = 0.0000 0.0000-0.1479 ( 11574 PWs)   bands (ev):

   -69.0395 -69.0395 -69.0392 -69.0392 -35.9770 -35.9770 -35.9749 -35.9749
   -35.6890 -35.6890 -35.6882 -35.6882 -35.6867 -35.6867 -35.6860 -35.6860
   -20.8265 -20.8265 -16.0937 -16.0937 -16.0933 -16.0933 -16.0930 -16.0930
   -16.0919 -16.0919 -13.1243 -13.1243 -13.1221 -13.1221 -13.1094 -13.1094
   -13.1072 -13.1072 -13.1022 -13.1022 -13.1014 -13.1014  -7.4619  -7.4619
    -5.5569  -5.5569  -5.3706  -5.3706  -3.1185  -3.1185  -2.6150  -2.6150
     3.6990   3.6990   5.3954   5.3954   5.8541   5.8541   6.7540   6.7540
     6.7961   6.7961   7.5679   7.5679   8.1307   8.1307   8.7079   8.7079
     9.5510   9.5510   9.6156   9.6156   9.6680   9.6680  10.4451  10.4451
    10.5313  10.5313  11.3662  11.3662  11.3867  11.3867  11.7212  11.7212
    12.6421  12.6421  13.1576  13.1576  13.2195  13.2195  13.4676  13.4676
    14.2274  14.2274  14.4048  14.4048  14.5024  14.5024  16.1915  16.1916

     occupation numbers 
     1.0000   1.0000   1.0000   1.0000   1.0000   1.0000   1.0000   1.0000
     1.0000   1.0000   1.0000   1.0000   1.0000   1.0000   1.0000   1.0000
     1.0000   1.0000   1.0000   1.0000   1.0000   1.0000   1.0000   1.0000
     1.0000   1.0000   1.0000   1.0000   1.0000   1.0000   1.0000   1.0000
     1.0000   1.0000   1.0000   1.0000   1.0000   1.0000   1.0000   1.0000
     1.0000   1.0000   1.0000   1.0000   1.0000   1.0000   1.0000   1.0000
     1.0000   1.0000   1.0000   1.0000   1.0000   1.0000   1.0000   1.0000
     1.0000   1.0000   1.0090   1.0090  -0.0044  -0.0044  -0.0000  -0.0000
    -0.0000  -0.0000  -0.0000  -0.0000  -0.0000  -0.0000  -0.0000  -0.0000
    -0.0000  -0.0000  -0.0000  -0.0000  -0.0000  -0.0000  -0.0000  -0.0000
    -0.0000  -0.0000  -0.0000  -0.0000  -0.0000  -0.0000  -0.0000  -0.0000
    -0.0000  -0.0000  -0.0000  -0.0000  -0.0000  -0.0000  -0.0000  -0.0000

          k = 0.1667 0.0962 0.0000 ( 11541 PWs)   bands (ev):

   -69.0395 -69.0395 -69.0392 -69.0392 -35.9767 -35.9767 -35.9747 -35.9747
   -35.6886 -35.6886 -35.6882 -35.6882 -35.6864 -35.6864 -35.6858 -35.6858
   -20.8244 -20.8244 -16.0934 -16.0934 -16.0932 -16.0932 -16.0928 -16.0928
   -16.0916 -16.0916 -13.1230 -13.1230 -13.1222 -13.1222 -13.1096 -13.1096
   -13.1071 -13.1071 -13.1014 -13.1014 -13.1011 -13.1011  -7.4707  -7.4707
    -5.5470  -5.5470  -5.4164  -5.4164  -3.0768  -3.0768  -2.5138  -2.5138
     3.6389   3.6389   5.0971   5.0971   5.3704   5.3704   6.2519   6.2519
     6.5684   6.5684   7.3356   7.3356   8.6720   8.6720   8.7508   8.7508
     9.5976   9.5976   9.9161   9.9161  10.0261  10.0261  10.4372  10.4372
    10.6454  10.6454  11.2377  11.2377  11.8190  11.8190  12.2576  12.2576
    13.0730  13.0730  13.2475  13.2475  13.3406  13.3406  13.7379  13.7379
    14.6038  14.6038  14.9021  14.9021  15.4823  15.4823  15.9449  15.9449

     occupation numbers 
     1.0000   1.0000   1.0000   1.0000   1.0000   1.0000   1.0000   1.0000
     1.0000   1.0000   1.0000   1.0000   1.0000   1.0000   1.0000   1.0000
     1.0000   1.0000   1.0000   1.0000   1.0000   1.0000   1.0000   1.0000
     1.0000   1.0000   1.0000   1.0000   1.0000   1.0000   1.0000   1.0000
     1.0000   1.0000   1.0000   1.0000   1.0000   1.0000   1.0000   1.0000
     1.0000   1.0000   1.0000   1.0000   1.0000   1.0000   1.0000   1.0000
     1.0000   1.0000   1.0000   1.0000   1.0000   1.0000   1.0000   1.0000
     1.0000   1.0000   1.0000   1.0000  -0.0000  -0.0000  -0.0000  -0.0000
    -0.0000  -0.0000  -0.0000  -0.0000  -0.0000  -0.0000  -0.0000  -0.0000
    -0.0000  -0.0000  -0.0000  -0.0000  -0.0000  -0.0000  -0.0000  -0.0000
    -0.0000  -0.0000  -0.0000  -0.0000  -0.0000  -0.0000  -0.0000  -0.0000
    -0.0000  -0.0000  -0.0000  -0.0000  -0.0000  -0.0000  -0.0000  -0.0000

          k = 0.1667 0.0962 0.1479 ( 11537 PWs)   bands (ev):

   -69.0395 -69.0395 -69.0392 -69.0392 -35.9765 -35.9765 -35.9749 -35.9749
   -35.6885 -35.6885 -35.6879 -35.6879 -35.6866 -35.6866 -35.6859 -35.6859
   -20.8244 -20.8244 -16.0933 -16.0933 -16.0931 -16.0931 -16.0927 -16.0927
   -16.0918 -16.0918 -13.1233 -13.1233 -13.1218 -13.1218 -13.1093 -13.1093
   -13.1075 -13.1075 -13.1016 -13.1016 -13.1009 -13.1009  -7.4710  -7.4710
    -5.5501  -5.5501  -5.4161  -5.4161  -3.0111  -3.0111  -2.5859  -2.5859
     3.7350   3.7350   4.8984   4.8984   5.4807   5.4807   6.2760   6.2760
     6.4691   6.4691   7.3730   7.3730   8.7667   8.7667   9.1001   9.1001
     9.2261   9.2261   9.9441   9.9441  10.0745  10.0745  10.1739  10.1739
    10.8303  10.8303  11.0790  11.0790  11.6681  11.6681  12.3134  12.3134
    13.0845  13.0845  13.3507  13.3507  13.6228  13.6228  13.9618  13.9618
    14.4727  14.4727  14.7834  14.7834  15.3953  15.3954  15.5303  15.5303

     occupation numbers 
     1.0000   1.0000   1.0000   1.0000   1.0000   1.0000   1.0000   1.0000
     1.0000   1.0000   1.0000   1.0000   1.0000   1.0000   1.0000   1.0000
     1.0000   1.0000   1.0000   1.0000   1.0000   1.0000   1.0000   1.0000
     1.0000   1.0000   1.0000   1.0000   1.0000   1.0000   1.0000   1.0000
     1.0000   1.0000   1.0000   1.0000   1.0000   1.0000   1.0000   1.0000
     1.0000   1.0000   1.0000   1.0000   1.0000   1.0000   1.0000   1.0000
     1.0000   1.0000   1.0000   1.0000   1.0000   1.0000   1.0000   1.0000
     1.0000   1.0000   1.0000   1.0000  -0.0000  -0.0000  -0.0000  -0.0000
    -0.0000  -0.0000  -0.0000  -0.0000  -0.0000  -0.0000  -0.0000  -0.0000
    -0.0000  -0.0000  -0.0000  -0.0000  -0.0000  -0.0000  -0.0000  -0.0000
    -0.0000  -0.0000  -0.0000  -0.0000  -0.0000  -0.0000  -0.0000  -0.0000
    -0.0000  -0.0000  -0.0000  -0.0000  -0.0000  -0.0000  -0.0000  -0.0000

          k = 0.1667 0.0962-0.2958 ( 11564 PWs)   bands (ev):

   -69.0395 -69.0395 -69.0392 -69.0392 -35.9768 -35.9768 -35.9751 -35.9751
   -35.6887 -35.6887 -35.6882 -35.6882 -35.6866 -35.6866 -35.6864 -35.6864
   -20.8244 -20.8244 -16.0934 -16.0934 -16.0931 -16.0931 -16.0924 -16.0924
   -16.0921 -16.0921 -13.1237 -13.1237 -13.1215 -13.1215 -13.1091 -13.1091
   -13.1077 -13.1077 -13.1018 -13.1018 -13.1008 -13.1008  -7.4713  -7.4713
    -5.5534  -5.5534  -5.4158  -5.4158  -2.8615  -2.8615  -2.7458  -2.7458
     3.9272   3.9272   4.7109   4.7109   5.6412   5.6412   6.0677   6.0677
     6.5949   6.5949   6.9102   6.9102   8.7410   8.7410   9.3730   9.3730
     9.6978   9.6978   9.9962   9.9962  10.1686  10.1686  10.2568  10.2568
    10.7224  10.7224  11.2499  11.2499  11.7146  11.7146  12.0672  12.0672
    12.6312  12.6312  12.8896  12.8896  13.3228  13.3228  14.0622  14.0622
    14.2872  14.2872  14.5025  14.5025  15.8952  15.8953  16.4373  16.4375

     occupation numbers 
     1.0000   1.0000   1.0000   1.0000   1.0000   1.0000   1.0000   1.0000
     1.0000   1.0000   1.0000   1.0000   1.0000   1.0000   1.0000   1.0000
     1.0000   1.0000   1.0000   1.0000   1.0000   1.0000   1.0000   1.0000
     1.0000   1.0000   1.0000   1.0000   1.0000   1.0000   1.0000   1.0000
     1.0000   1.0000   1.0000   1.0000   1.0000   1.0000   1.0000   1.0000
     1.0000   1.0000   1.0000   1.0000   1.0000   1.0000   1.0000   1.0000
     1.0000   1.0000   1.0000   1.0000   1.0000   1.0000   1.0000   1.0000
     1.0000   1.0000   1.0000   1.0000  -0.0000  -0.0000  -0.0000  -0.0000
    -0.0000  -0.0000  -0.0000  -0.0000  -0.0000  -0.0000  -0.0000  -0.0000
    -0.0000  -0.0000  -0.0000  -0.0000  -0.0000  -0.0000  -0.0000  -0.0000
    -0.0000  -0.0000  -0.0000  -0.0000  -0.0000  -0.0000  -0.0000  -0.0000
    -0.0000  -0.0000  -0.0000  -0.0000  -0.0000  -0.0000  -0.0000  -0.0000

          k = 0.1667 0.0962-0.1479 ( 11537 PWs)   bands (ev):

   -69.0395 -69.0395 -69.0392 -69.0392 -35.9766 -35.9766 -35.9749 -35.9749
   -35.6886 -35.6886 -35.6880 -35.6880 -35.6865 -35.6865 -35.6859 -35.6859
   -20.8244 -20.8244 -16.0934 -16.0934 -16.0932 -16.0932 -16.0926 -16.0926
   -16.0918 -16.0918 -13.1235 -13.1235 -13.1217 -13.1217 -13.1095 -13.1095
   -13.1073 -13.1073 -13.1016 -13.1016 -13.1009 -13.1009  -7.4710  -7.4710
    -5.5504  -5.5504  -5.4160  -5.4160  -2.9930  -2.9930  -2.6081  -2.6081
     3.7887   3.7887   4.9786   4.9786   5.4053   5.4053   6.2524   6.2524
     6.5173   6.5173   6.9804   6.9804   8.6019   8.6019   9.0190   9.0190
     9.8337   9.8337  10.0055  10.0055  10.1626  10.1626  10.5402  10.5402
    10.9993  10.9993  11.5240  11.5240  11.8417  11.8417  11.9812  11.9812
    12.2819  12.2819  12.5116  12.5116  12.8464  12.8464  14.1040  14.1040
    14.7454  14.7454  15.2703  15.2703  15.4131  15.4131  16.1424  16.1425

     occupation numbers 
     1.0000   1.0000   1.0000   1.0000   1.0000   1.0000   1.0000   1.0000
     1.0000   1.0000   1.0000   1.0000   1.0000   1.0000   1.0000   1.0000
     1.0000   1.0000   1.0000   1.0000   1.0000   1.0000   1.0000   1.0000
     1.0000   1.0000   1.0000   1.0000   1.0000   1.0000   1.0000   1.0000
     1.0000   1.0000   1.0000   1.0000   1.0000   1.0000   1.0000   1.0000
     1.0000   1.0000   1.0000   1.0000   1.0000   1.0000   1.0000   1.0000
     1.0000   1.0000   1.0000   1.0000   1.0000   1.0000   1.0000   1.0000
     1.0000   1.0000   1.0000   1.0000  -0.0000  -0.0000  -0.0000  -0.0000
    -0.0000  -0.0000  -0.0000  -0.0000  -0.0000  -0.0000  -0.0000  -0.0000
    -0.0000  -0.0000  -0.0000  -0.0000  -0.0000  -0.0000  -0.0000  -0.0000
    -0.0000  -0.0000  -0.0000  -0.0000  -0.0000  -0.0000  -0.0000  -0.0000
    -0.0000  -0.0000  -0.0000  -0.0000  -0.0000  -0.0000  -0.0000  -0.0000

          k = 0.3333 0.1925 0.0000 ( 11530 PWs)   bands (ev):

   -69.0395 -69.0395 -69.0393 -69.0393 -35.9765 -35.9765 -35.9751 -35.9751
   -35.6885 -35.6885 -35.6882 -35.6882 -35.6864 -35.6864 -35.6860 -35.6860
   -20.8202 -20.8202 -16.0932 -16.0932 -16.0926 -16.0926 -16.0923 -16.0923
   -16.0911 -16.0911 -13.1224 -13.1224 -13.1205 -13.1205 -13.1102 -13.1102
   -13.1069 -13.1069 -13.1002 -13.1002 -13.1000 -13.1000  -7.4910  -7.4910
    -5.5754  -5.5754  -5.4519  -5.4519  -2.7890  -2.7890  -2.5398  -2.5398
     3.7484   3.7484   4.0885   4.0885   5.0588   5.0588   5.8062   5.8062
     6.0918   6.0918   6.6817   6.6817   8.2203   8.2203   9.3534   9.3534
    10.1838  10.1838  10.3560  10.3560  10.5451  10.5451  11.1578  11.1578
    11.4587  11.4587  11.8712  11.8712  12.2627  12.2627  12.5172  12.5172
    12.9750  12.9750  13.3708  13.3708  13.5922  13.5922  14.0061  14.0061
    14.7929  14.7929  15.1062  15.1062  15.9685  15.9686  16.5078  16.5078

     occupation numbers 
     1.0000   1.0000   1.0000   1.0000   1.0000   1.0000   1.0000   1.0000
     1.0000   1.0000   1.0000   1.0000   1.0000   1.0000   1.0000   1.0000
     1.0000   1.0000   1.0000   1.0000   1.0000   1.0000   1.0000   1.0000
     1.0000   1.0000   1.0000   1.0000   1.0000   1.0000   1.0000   1.0000
     1.0000   1.0000   1.0000   1.0000   1.0000   1.0000   1.0000   1.0000
     1.0000   1.0000   1.0000   1.0000   1.0000   1.0000   1.0000   1.0000
     1.0000   1.0000   1.0000   1.0000   1.0000   1.0000   1.0000   1.0000
     1.0000   1.0000   1.0000   1.0000  -0.0002  -0.0002  -0.0000  -0.0000
    -0.0000  -0.0000  -0.0000  -0.0000  -0.0000  -0.0000  -0.0000  -0.0000
    -0.0000  -0.0000  -0.0000  -0.0000  -0.0000  -0.0000  -0.0000  -0.0000
    -0.0000  -0.0000  -0.0000  -0.0000  -0.0000  -0.0000  -0.0000  -0.0000
    -0.0000  -0.0000  -0.0000  -0.0000  -0.0000  -0.0000  -0.0000  -0.0000

          k = 0.3333 0.1925 0.1479 ( 11525 PWs)   bands (ev):

   -69.0395 -69.0395 -69.0393 -69.0393 -35.9762 -35.9762 -35.9753 -35.9753
   -35.6883 -35.6883 -35.6881 -35.6881 -35.6864 -35.6864 -35.6862 -35.6862
   -20.8202 -20.8202 -16.0930 -16.0930 -16.0927 -16.0927 -16.0922 -16.0922
   -16.0913 -16.0913 -13.1218 -13.1218 -13.1210 -13.1210 -13.1096 -13.1096
   -13.1076 -13.1076 -13.1004 -13.1004 -13.0998 -13.0998  -7.4910  -7.4910
    -5.5748  -5.5748  -5.4526  -5.4526  -2.8347  -2.8347  -2.4843  -2.4843
     3.6294   3.6294   3.9299   3.9299   5.2646   5.2646   5.9316   5.9316
     6.1563   6.1563   7.1117   7.1117   8.3440   8.3440   9.1131   9.1131
     9.2739   9.2739   9.8035   9.8035  10.3725  10.3725  10.8618  10.8618
    11.0372  11.0372  12.3651  12.3651  13.0269  13.0269  13.2822  13.2822
    13.5571  13.5571  13.8847  13.8847  13.9674  13.9674  14.4364  14.4364
    14.5796  14.5796  14.9408  14.9409  15.6759  15.6760  15.9696  15.9696

     occupation numbers 
     1.0000   1.0000   1.0000   1.0000   1.0000   1.0000   1.0000   1.0000
     1.0000   1.0000   1.0000   1.0000   1.0000   1.0000   1.0000   1.0000
     1.0000   1.0000   1.0000   1.0000   1.0000   1.0000   1.0000   1.0000
     1.0000   1.0000   1.0000   1.0000   1.0000   1.0000   1.0000   1.0000
     1.0000   1.0000   1.0000   1.0000   1.0000   1.0000   1.0000   1.0000
     1.0000   1.0000   1.0000   1.0000   1.0000   1.0000   1.0000   1.0000
     1.0000   1.0000   1.0000   1.0000   1.0000   1.0000   1.0000   1.0000
     1.0000   1.0000   1.0000   1.0000  -0.0000  -0.0000  -0.0000  -0.0000
    -0.0000  -0.0000  -0.0000  -0.0000  -0.0000  -0.0000  -0.0000  -0.0000
    -0.0000  -0.0000  -0.0000  -0.0000  -0.0000  -0.0000  -0.0000  -0.0000
    -0.0000  -0.0000  -0.0000  -0.0000  -0.0000  -0.0000  -0.0000  -0.0000
    -0.0000  -0.0000  -0.0000  -0.0000  -0.0000  -0.0000  -0.0000  -0.0000

          k = 0.3333 0.1925-0.2958 ( 11510 PWs)   bands (ev):

   -69.0395 -69.0395 -69.0393 -69.0393 -35.9761 -35.9761 -35.9751 -35.9751
   -35.6883 -35.6883 -35.6879 -35.6879 -35.6864 -35.6864 -35.6859 -35.6859
   -20.8202 -20.8202 -16.0931 -16.0931 -16.0928 -16.0928 -16.0919 -16.0919
   -16.0913 -16.0913 -13.1222 -13.1222 -13.1209 -13.1209 -13.1089 -13.1089
   -13.1081 -13.1081 -13.1005 -13.1005 -13.0997 -13.0997  -7.4911  -7.4911
    -5.5751  -5.5751  -5.4529  -5.4529  -2.7974  -2.7974  -2.5263  -2.5263
     3.6403   3.6403   3.9651   3.9651   5.3175   5.3175   5.8624   5.8624
     6.1643   6.1643   6.9757   6.9757   8.4233   8.4233   9.1199   9.1199
     9.4109   9.4109   9.5449   9.5449  10.5029  10.5029  10.8797  10.8797
    11.1961  11.1961  12.2020  12.2020  12.7803  12.7803  13.0530  13.0530
    13.1997  13.1997  13.9662  13.9662  14.3444  14.3444  14.6101  14.6101
    15.0062  15.0062  15.1496  15.1496  15.6880  15.6880  16.2685  16.2685

     occupation numbers 
     1.0000   1.0000   1.0000   1.0000   1.0000   1.0000   1.0000   1.0000
     1.0000   1.0000   1.0000   1.0000   1.0000   1.0000   1.0000   1.0000
     1.0000   1.0000   1.0000   1.0000   1.0000   1.0000   1.0000   1.0000
     1.0000   1.0000   1.0000   1.0000   1.0000   1.0000   1.0000   1.0000
     1.0000   1.0000   1.0000   1.0000   1.0000   1.0000   1.0000   1.0000
     1.0000   1.0000   1.0000   1.0000   1.0000   1.0000   1.0000   1.0000
     1.0000   1.0000   1.0000   1.0000   1.0000   1.0000   1.0000   1.0000
     1.0000   1.0000   1.0000   1.0000  -0.0000  -0.0000  -0.0000  -0.0000
    -0.0000  -0.0000  -0.0000  -0.0000  -0.0000  -0.0000  -0.0000  -0.0000
    -0.0000  -0.0000  -0.0000  -0.0000  -0.0000  -0.0000  -0.0000  -0.0000
    -0.0000  -0.0000  -0.0000  -0.0000  -0.0000  -0.0000  -0.0000  -0.0000
    -0.0000  -0.0000  -0.0000  -0.0000  -0.0000  -0.0000  -0.0000  -0.0000

          k = 0.3333 0.1925-0.1479 ( 11525 PWs)   bands (ev):

   -69.0395 -69.0395 -69.0393 -69.0393 -35.9763 -35.9763 -35.9751 -35.9751
   -35.6885 -35.6885 -35.6880 -35.6880 -35.6866 -35.6866 -35.6859 -35.6859
   -20.8202 -20.8202 -16.0933 -16.0933 -16.0928 -16.0928 -16.0921 -16.0921
   -16.0911 -16.0911 -13.1226 -13.1226 -13.1204 -13.1204 -13.1098 -13.1098
   -13.1072 -13.1072 -13.1003 -13.1003 -13.0998 -13.0998  -7.4910  -7.4910
    -5.5757  -5.5757  -5.4523  -5.4523  -2.7240  -2.7240  -2.6094  -2.6094
     3.7538   3.7538   4.1447   4.1447   5.1134   5.1134   5.6286   5.6286
     6.2120   6.2120   6.5944   6.5944   8.2121   8.2121   9.2609   9.2609
    10.1407  10.1407  10.4938  10.4938  10.6798  10.6798  11.3096  11.3096
    11.5026  11.5026  11.7978  11.7978  12.0327  12.0327  12.5088  12.5088
    12.7435  12.7435  13.1586  13.1586  13.4960  13.4960  13.9399  13.9399
    15.4625  15.4625  15.6586  15.6586  16.5181  16.5181  16.6192  16.6193

     occupation numbers 
     1.0000   1.0000   1.0000   1.0000   1.0000   1.0000   1.0000   1.0000
     1.0000   1.0000   1.0000   1.0000   1.0000   1.0000   1.0000   1.0000
     1.0000   1.0000   1.0000   1.0000   1.0000   1.0000   1.0000   1.0000
     1.0000   1.0000   1.0000   1.0000   1.0000   1.0000   1.0000   1.0000
     1.0000   1.0000   1.0000   1.0000   1.0000   1.0000   1.0000   1.0000
     1.0000   1.0000   1.0000   1.0000   1.0000   1.0000   1.0000   1.0000
     1.0000   1.0000   1.0000   1.0000   1.0000   1.0000   1.0000   1.0000
     1.0000   1.0000   1.0000   1.0000  -0.0003  -0.0003  -0.0000  -0.0000
    -0.0000  -0.0000  -0.0000  -0.0000  -0.0000  -0.0000  -0.0000  -0.0000
    -0.0000  -0.0000  -0.0000  -0.0000  -0.0000  -0.0000  -0.0000  -0.0000
    -0.0000  -0.0000  -0.0000  -0.0000  -0.0000  -0.0000  -0.0000  -0.0000
    -0.0000  -0.0000  -0.0000  -0.0000  -0.0000  -0.0000  -0.0000  -0.0000

          k =-0.5000-0.2887 0.0000 ( 11530 PWs)   bands (ev):

   -69.0394 -69.0394 -69.0393 -69.0393 -35.9760 -35.9760 -35.9757 -35.9757
   -35.6884 -35.6884 -35.6881 -35.6881 -35.6866 -35.6866 -35.6862 -35.6862
   -20.8181 -20.8181 -16.0931 -16.0931 -16.0922 -16.0922 -16.0922 -16.0922
   -16.0908 -16.0908 -13.1221 -13.1221 -13.1196 -13.1196 -13.1105 -13.1105
   -13.1068 -13.1068 -13.0996 -13.0996 -13.0993 -13.0993  -7.5020  -7.5020
    -5.6082  -5.6082  -5.4438  -5.4438  -2.6400  -2.6400  -2.5490  -2.5490
     3.4171   3.4171   3.8969   3.8969   5.3402   5.3402   5.3976   5.3976
     6.1050   6.1050   6.3426   6.3426   7.9844   7.9844   9.6782   9.6782
     9.7895   9.7895  10.6378  10.6378  11.3774  11.3774  11.4196  11.4196
    11.5942  11.5942  11.8247  11.8247  11.9096  11.9096  12.5486  12.5486
    12.6805  12.6805  14.3118  14.3118  14.6022  14.6022  14.9833  14.9834
    15.4467  15.4467  15.5360  15.5361  15.5956  15.5956  16.6275  16.6276

     occupation numbers 
     1.0000   1.0000   1.0000   1.0000   1.0000   1.0000   1.0000   1.0000
     1.0000   1.0000   1.0000   1.0000   1.0000   1.0000   1.0000   1.0000
     1.0000   1.0000   1.0000   1.0000   1.0000   1.0000   1.0000   1.0000
     1.0000   1.0000   1.0000   1.0000   1.0000   1.0000   1.0000   1.0000
     1.0000   1.0000   1.0000   1.0000   1.0000   1.0000   1.0000   1.0000
     1.0000   1.0000   1.0000   1.0000   1.0000   1.0000   1.0000   1.0000
     1.0000   1.0000   1.0000   1.0000   1.0000   1.0000   1.0000   1.0000
     1.0000   1.0000   1.0000   1.0000  -0.0326  -0.0326  -0.0000  -0.0000
    -0.0000  -0.0000  -0.0000  -0.0000  -0.0000  -0.0000  -0.0000  -0.0000
    -0.0000  -0.0000  -0.0000  -0.0000  -0.0000  -0.0000  -0.0000  -0.0000
    -0.0000  -0.0000  -0.0000  -0.0000  -0.0000  -0.0000  -0.0000  -0.0000
    -0.0000  -0.0000  -0.0000  -0.0000  -0.0000  -0.0000  -0.0000  -0.0000

          k =-0.5000-0.2887 0.1479 ( 11496 PWs)   bands (ev):

   -69.0394 -69.0394 -69.0393 -69.0393 -35.9758 -35.9758 -35.9753 -35.9753
   -35.6883 -35.6883 -35.6878 -35.6878 -35.6864 -35.6864 -35.6858 -35.6858
   -20.8181 -20.8181 -16.0931 -16.0931 -16.0926 -16.0926 -16.0919 -16.0919
   -16.0907 -16.0907 -13.1221 -13.1221 -13.1199 -13.1199 -13.1100 -13.1100
   -13.1072 -13.1072 -13.0997 -13.0997 -13.0992 -13.0992  -7.5020  -7.5020
    -5.6073  -5.6073  -5.4440  -5.4440  -2.7183  -2.7183  -2.4665  -2.4665
     3.4373   3.4373   3.7675   3.7675   5.2113   5.2113   5.6918   5.6918
     5.9783   5.9783   6.7083   6.7083   8.0800   8.0800   9.2053   9.2053
     9.5885   9.5885  10.0727  10.0727  10.8079  10.8079  11.3792  11.3792
    11.6044  11.6044  12.2520  12.2520  12.6034  12.6034  12.7942  12.7942
    13.4510  13.4510  14.3799  14.3799  14.8222  14.8222  15.1152  15.1152
    15.2123  15.2123  15.4513  15.4513  15.8855  15.8855  16.2231  16.2231

     occupation numbers 
     1.0000   1.0000   1.0000   1.0000   1.0000   1.0000   1.0000   1.0000
     1.0000   1.0000   1.0000   1.0000   1.0000   1.0000   1.0000   1.0000
     1.0000   1.0000   1.0000   1.0000   1.0000   1.0000   1.0000   1.0000
     1.0000   1.0000   1.0000   1.0000   1.0000   1.0000   1.0000   1.0000
     1.0000   1.0000   1.0000   1.0000   1.0000   1.0000   1.0000   1.0000
     1.0000   1.0000   1.0000   1.0000   1.0000   1.0000   1.0000   1.0000
     1.0000   1.0000   1.0000   1.0000   1.0000   1.0000   1.0000   1.0000
     1.0000   1.0000   1.0000   1.0000  -0.0144  -0.0144  -0.0000  -0.0000
    -0.0000  -0.0000  -0.0000  -0.0000  -0.0000  -0.0000  -0.0000  -0.0000
    -0.0000  -0.0000  -0.0000  -0.0000  -0.0000  -0.0000  -0.0000  -0.0000
    -0.0000  -0.0000  -0.0000  -0.0000  -0.0000  -0.0000  -0.0000  -0.0000
    -0.0000  -0.0000  -0.0000  -0.0000  -0.0000  -0.0000  -0.0000  -0.0000

          k =-0.5000-0.2887-0.2958 ( 11528 PWs)   bands (ev):

   -69.0394 -69.0394 -69.0393 -69.0393 -35.9761 -35.9761 -35.9755 -35.9755
   -35.6886 -35.6886 -35.6881 -35.6881 -35.6866 -35.6866 -35.6859 -35.6859
   -20.8181 -20.8181 -16.0931 -16.0931 -16.0927 -16.0927 -16.0918 -16.0918
   -16.0907 -16.0907 -13.1221 -13.1221 -13.1201 -13.1201 -13.1092 -13.1092
   -13.1078 -13.1078 -13.0998 -13.0998 -13.0991 -13.0991  -7.5019  -7.5019
    -5.6065  -5.6065  -5.4442  -5.4442  -2.7626  -2.7626  -2.4179  -2.4179
     3.4300   3.4300   3.6997   3.6997   5.1159   5.1159   5.8722   5.8722
     5.9774   5.9774   7.1186   7.1186   8.2052   8.2052   8.7059   8.7059
     9.2016   9.2016   9.8539   9.8539  10.4281  10.4281  11.3837  11.3837
    11.6079  11.6079  12.4866  12.4866  13.0453  13.0453  13.5640  13.5640
    13.9702  13.9702  14.1821  14.1821  14.7845  14.7845  15.0127  15.0127
    15.3093  15.3093  15.6270  15.6270  15.9828  15.9831  16.3610  16.3612

     occupation numbers 
     1.0000   1.0000   1.0000   1.0000   1.0000   1.0000   1.0000   1.0000
     1.0000   1.0000   1.0000   1.0000   1.0000   1.0000   1.0000   1.0000
     1.0000   1.0000   1.0000   1.0000   1.0000   1.0000   1.0000   1.0000
     1.0000   1.0000   1.0000   1.0000   1.0000   1.0000   1.0000   1.0000
     1.0000   1.0000   1.0000   1.0000   1.0000   1.0000   1.0000   1.0000
     1.0000   1.0000   1.0000   1.0000   1.0000   1.0000   1.0000   1.0000
     1.0000   1.0000   1.0000   1.0000   1.0000   1.0000   1.0000   1.0000
     1.0000   1.0000   1.0000   1.0000  -0.0004  -0.0004  -0.0000  -0.0000
    -0.0000  -0.0000  -0.0000  -0.0000  -0.0000  -0.0000  -0.0000  -0.0000
    -0.0000  -0.0000  -0.0000  -0.0000  -0.0000  -0.0000  -0.0000  -0.0000
    -0.0000  -0.0000  -0.0000  -0.0000  -0.0000  -0.0000  -0.0000  -0.0000
    -0.0000  -0.0000  -0.0000  -0.0000  -0.0000  -0.0000  -0.0000  -0.0000

          k =-0.5000-0.2887-0.1479 ( 11496 PWs)   bands (ev):

   -69.0394 -69.0394 -69.0393 -69.0393 -35.9758 -35.9758 -35.9753 -35.9753
   -35.6883 -35.6883 -35.6878 -35.6878 -35.6864 -35.6864 -35.6858 -35.6858
   -20.8181 -20.8181 -16.0931 -16.0931 -16.0926 -16.0926 -16.0919 -16.0919
   -16.0907 -16.0907 -13.1221 -13.1221 -13.1199 -13.1199 -13.1100 -13.1100
   -13.1072 -13.1072 -13.0997 -13.0997 -13.0992 -13.0992  -7.5020  -7.5020
    -5.6073  -5.6073  -5.4440  -5.4440  -2.7183  -2.7183  -2.4665  -2.4665
     3.4373   3.4373   3.7675   3.7675   5.2113   5.2113   5.6918   5.6918
     5.9783   5.9783   6.7083   6.7083   8.0800   8.0800   9.2053   9.2053
     9.5885   9.5885  10.0727  10.0727  10.8079  10.8079  11.3792  11.3792
    11.6044  11.6044  12.2520  12.2520  12.6034  12.6034  12.7942  12.7942
    13.4510  13.4510  14.3799  14.3799  14.8222  14.8222  15.1152  15.1152
    15.2123  15.2123  15.4513  15.4513  15.8855  15.8855  16.2231  16.2231

     occupation numbers 
     1.0000   1.0000   1.0000   1.0000   1.0000   1.0000   1.0000   1.0000
     1.0000   1.0000   1.0000   1.0000   1.0000   1.0000   1.0000   1.0000
     1.0000   1.0000   1.0000   1.0000   1.0000   1.0000   1.0000   1.0000
     1.0000   1.0000   1.0000   1.0000   1.0000   1.0000   1.0000   1.0000
     1.0000   1.0000   1.0000   1.0000   1.0000   1.0000   1.0000   1.0000
     1.0000   1.0000   1.0000   1.0000   1.0000   1.0000   1.0000   1.0000
     1.0000   1.0000   1.0000   1.0000   1.0000   1.0000   1.0000   1.0000
     1.0000   1.0000   1.0000   1.0000  -0.0144  -0.0144  -0.0000  -0.0000
    -0.0000  -0.0000  -0.0000  -0.0000  -0.0000  -0.0000  -0.0000  -0.0000
    -0.0000  -0.0000  -0.0000  -0.0000  -0.0000  -0.0000  -0.0000  -0.0000
    -0.0000  -0.0000  -0.0000  -0.0000  -0.0000  -0.0000  -0.0000  -0.0000
    -0.0000  -0.0000  -0.0000  -0.0000  -0.0000  -0.0000  -0.0000  -0.0000

          k =-0.3333-0.1925 0.0000 ( 11530 PWs)   bands (ev):

   -69.0395 -69.0395 -69.0393 -69.0393 -35.9765 -35.9765 -35.9751 -35.9751
   -35.6885 -35.6885 -35.6882 -35.6882 -35.6864 -35.6864 -35.6860 -35.6860
   -20.8202 -20.8202 -16.0932 -16.0932 -16.0926 -16.0926 -16.0923 -16.0923
   -16.0911 -16.0911 -13.1224 -13.1224 -13.1205 -13.1205 -13.1102 -13.1102
   -13.1069 -13.1069 -13.1002 -13.1002 -13.1000 -13.1000  -7.4910  -7.4910
    -5.5754  -5.5754  -5.4519  -5.4519  -2.7890  -2.7890  -2.5398  -2.5398
     3.7484   3.7484   4.0885   4.0885   5.0588   5.0588   5.8062   5.8062
     6.0918   6.0918   6.6817   6.6817   8.2203   8.2203   9.3534   9.3534
    10.1838  10.1838  10.3560  10.3560  10.5451  10.5451  11.1578  11.1578
    11.4587  11.4587  11.8712  11.8712  12.2627  12.2627  12.5172  12.5172
    12.9750  12.9750  13.3708  13.3708  13.5922  13.5922  14.0061  14.0061
    14.7929  14.7929  15.1062  15.1062  15.9685  15.9686  16.5078  16.5078

     occupation numbers 
     1.0000   1.0000   1.0000   1.0000   1.0000   1.0000   1.0000   1.0000
     1.0000   1.0000   1.0000   1.0000   1.0000   1.0000   1.0000   1.0000
     1.0000   1.0000   1.0000   1.0000   1.0000   1.0000   1.0000   1.0000
     1.0000   1.0000   1.0000   1.0000   1.0000   1.0000   1.0000   1.0000
     1.0000   1.0000   1.0000   1.0000   1.0000   1.0000   1.0000   1.0000
     1.0000   1.0000   1.0000   1.0000   1.0000   1.0000   1.0000   1.0000
     1.0000   1.0000   1.0000   1.0000   1.0000   1.0000   1.0000   1.0000
     1.0000   1.0000   1.0000   1.0000  -0.0002  -0.0002  -0.0000  -0.0000
    -0.0000  -0.0000  -0.0000  -0.0000  -0.0000  -0.0000  -0.0000  -0.0000
    -0.0000  -0.0000  -0.0000  -0.0000  -0.0000  -0.0000  -0.0000  -0.0000
    -0.0000  -0.0000  -0.0000  -0.0000  -0.0000  -0.0000  -0.0000  -0.0000
    -0.0000  -0.0000  -0.0000  -0.0000  -0.0000  -0.0000  -0.0000  -0.0000

          k =-0.3333-0.1925 0.1479 ( 11525 PWs)   bands (ev):

   -69.0395 -69.0395 -69.0393 -69.0393 -35.9763 -35.9763 -35.9751 -35.9751
   -35.6885 -35.6885 -35.6880 -35.6880 -35.6866 -35.6866 -35.6859 -35.6859
   -20.8202 -20.8202 -16.0933 -16.0933 -16.0928 -16.0928 -16.0921 -16.0921
   -16.0911 -16.0911 -13.1226 -13.1226 -13.1204 -13.1204 -13.1098 -13.1098
   -13.1072 -13.1072 -13.1003 -13.1003 -13.0998 -13.0998  -7.4910  -7.4910
    -5.5757  -5.5757  -5.4523  -5.4523  -2.7240  -2.7240  -2.6094  -2.6094
     3.7538   3.7538   4.1447   4.1447   5.1134   5.1134   5.6286   5.6286
     6.2120   6.2120   6.5944   6.5944   8.2121   8.2121   9.2609   9.2609
    10.1407  10.1407  10.4938  10.4938  10.6798  10.6798  11.3096  11.3096
    11.5026  11.5026  11.7978  11.7978  12.0327  12.0327  12.5088  12.5088
    12.7435  12.7435  13.1586  13.1586  13.4960  13.4960  13.9399  13.9399
    15.4625  15.4625  15.6586  15.6586  16.5181  16.5182  16.6192  16.6192

     occupation numbers 
     1.0000   1.0000   1.0000   1.0000   1.0000   1.0000   1.0000   1.0000
     1.0000   1.0000   1.0000   1.0000   1.0000   1.0000   1.0000   1.0000
     1.0000   1.0000   1.0000   1.0000   1.0000   1.0000   1.0000   1.0000
     1.0000   1.0000   1.0000   1.0000   1.0000   1.0000   1.0000   1.0000
     1.0000   1.0000   1.0000   1.0000   1.0000   1.0000   1.0000   1.0000
     1.0000   1.0000   1.0000   1.0000   1.0000   1.0000   1.0000   1.0000
     1.0000   1.0000   1.0000   1.0000   1.0000   1.0000   1.0000   1.0000
     1.0000   1.0000   1.0000   1.0000  -0.0003  -0.0003  -0.0000  -0.0000
    -0.0000  -0.0000  -0.0000  -0.0000  -0.0000  -0.0000  -0.0000  -0.0000
    -0.0000  -0.0000  -0.0000  -0.0000  -0.0000  -0.0000  -0.0000  -0.0000
    -0.0000  -0.0000  -0.0000  -0.0000  -0.0000  -0.0000  -0.0000  -0.0000
    -0.0000  -0.0000  -0.0000  -0.0000  -0.0000  -0.0000  -0.0000  -0.0000

          k =-0.3333-0.1925-0.2958 ( 11510 PWs)   bands (ev):

   -69.0395 -69.0395 -69.0393 -69.0393 -35.9761 -35.9761 -35.9751 -35.9751
   -35.6883 -35.6883 -35.6879 -35.6879 -35.6864 -35.6864 -35.6859 -35.6859
   -20.8202 -20.8202 -16.0931 -16.0931 -16.0928 -16.0928 -16.0919 -16.0919
   -16.0913 -16.0913 -13.1222 -13.1222 -13.1209 -13.1209 -13.1089 -13.1089
   -13.1081 -13.1081 -13.1005 -13.1005 -13.0997 -13.0997  -7.4911  -7.4911
    -5.5751  -5.5751  -5.4529  -5.4529  -2.7974  -2.7974  -2.5263  -2.5263
     3.6403   3.6403   3.9651   3.9651   5.3175   5.3175   5.8624   5.8624
     6.1643   6.1643   6.9757   6.9757   8.4233   8.4233   9.1199   9.1199
     9.4109   9.4109   9.5449   9.5449  10.5029  10.5029  10.8797  10.8797
    11.1961  11.1961  12.2020  12.2020  12.7803  12.7803  13.0530  13.0530
    13.1997  13.1997  13.9662  13.9662  14.3444  14.3444  14.6101  14.6101
    15.0062  15.0062  15.1496  15.1496  15.6880  15.6881  16.2685  16.2688

     occupation numbers 
     1.0000   1.0000   1.0000   1.0000   1.0000   1.0000   1.0000   1.0000
     1.0000   1.0000   1.0000   1.0000   1.0000   1.0000   1.0000   1.0000
     1.0000   1.0000   1.0000   1.0000   1.0000   1.0000   1.0000   1.0000
     1.0000   1.0000   1.0000   1.0000   1.0000   1.0000   1.0000   1.0000
     1.0000   1.0000   1.0000   1.0000   1.0000   1.0000   1.0000   1.0000
     1.0000   1.0000   1.0000   1.0000   1.0000   1.0000   1.0000   1.0000
     1.0000   1.0000   1.0000   1.0000   1.0000   1.0000   1.0000   1.0000
     1.0000   1.0000   1.0000   1.0000  -0.0000  -0.0000  -0.0000  -0.0000
    -0.0000  -0.0000  -0.0000  -0.0000  -0.0000  -0.0000  -0.0000  -0.0000
    -0.0000  -0.0000  -0.0000  -0.0000  -0.0000  -0.0000  -0.0000  -0.0000
    -0.0000  -0.0000  -0.0000  -0.0000  -0.0000  -0.0000  -0.0000  -0.0000
    -0.0000  -0.0000  -0.0000  -0.0000  -0.0000  -0.0000  -0.0000  -0.0000

          k =-0.3333-0.1925-0.1479 ( 11525 PWs)   bands (ev):

   -69.0395 -69.0395 -69.0393 -69.0393 -35.9762 -35.9762 -35.9753 -35.9753
   -35.6883 -35.6883 -35.6881 -35.6881 -35.6864 -35.6864 -35.6862 -35.6862
   -20.8202 -20.8202 -16.0930 -16.0930 -16.0927 -16.0927 -16.0922 -16.0922
   -16.0913 -16.0913 -13.1218 -13.1218 -13.1210 -13.1210 -13.1096 -13.1096
   -13.1076 -13.1076 -13.1004 -13.1004 -13.0998 -13.0998  -7.4910  -7.4910
    -5.5748  -5.5748  -5.4526  -5.4526  -2.8347  -2.8347  -2.4843  -2.4843
     3.6294   3.6294   3.9299   3.9299   5.2646   5.2646   5.9316   5.9316
     6.1563   6.1563   7.1117   7.1117   8.3440   8.3440   9.1131   9.1131
     9.2739   9.2739   9.8035   9.8035  10.3725  10.3725  10.8618  10.8618
    11.0372  11.0372  12.3651  12.3651  13.0269  13.0269  13.2822  13.2822
    13.5571  13.5571  13.8847  13.8847  13.9674  13.9674  14.4364  14.4364
    14.5796  14.5796  14.9408  14.9409  15.6759  15.6760  15.9696  15.9696

     occupation numbers 
     1.0000   1.0000   1.0000   1.0000   1.0000   1.0000   1.0000   1.0000
     1.0000   1.0000   1.0000   1.0000   1.0000   1.0000   1.0000   1.0000
     1.0000   1.0000   1.0000   1.0000   1.0000   1.0000   1.0000   1.0000
     1.0000   1.0000   1.0000   1.0000   1.0000   1.0000   1.0000   1.0000
     1.0000   1.0000   1.0000   1.0000   1.0000   1.0000   1.0000   1.0000
     1.0000   1.0000   1.0000   1.0000   1.0000   1.0000   1.0000   1.0000
     1.0000   1.0000   1.0000   1.0000   1.0000   1.0000   1.0000   1.0000
     1.0000   1.0000   1.0000   1.0000  -0.0000  -0.0000  -0.0000  -0.0000
    -0.0000  -0.0000  -0.0000  -0.0000  -0.0000  -0.0000  -0.0000  -0.0000
    -0.0000  -0.0000  -0.0000  -0.0000  -0.0000  -0.0000  -0.0000  -0.0000
    -0.0000  -0.0000  -0.0000  -0.0000  -0.0000  -0.0000  -0.0000  -0.0000
    -0.0000  -0.0000  -0.0000  -0.0000  -0.0000  -0.0000  -0.0000  -0.0000

          k =-0.1667-0.0962 0.0000 ( 11541 PWs)   bands (ev):

   -69.0395 -69.0395 -69.0392 -69.0392 -35.9767 -35.9767 -35.9747 -35.9747
   -35.6886 -35.6886 -35.6882 -35.6882 -35.6864 -35.6864 -35.6858 -35.6858
   -20.8244 -20.8244 -16.0934 -16.0934 -16.0932 -16.0932 -16.0928 -16.0928
   -16.0916 -16.0916 -13.1230 -13.1230 -13.1222 -13.1222 -13.1096 -13.1096
   -13.1071 -13.1071 -13.1014 -13.1014 -13.1011 -13.1011  -7.4707  -7.4707
    -5.5470  -5.5470  -5.4164  -5.4164  -3.0768  -3.0768  -2.5138  -2.5138
     3.6389   3.6389   5.0971   5.0971   5.3704   5.3704   6.2519   6.2519
     6.5684   6.5684   7.3356   7.3356   8.6720   8.6720   8.7508   8.7508
     9.5976   9.5976   9.9161   9.9161  10.0261  10.0261  10.4372  10.4372
    10.6454  10.6454  11.2377  11.2377  11.8190  11.8190  12.2576  12.2576
    13.0730  13.0730  13.2475  13.2475  13.3406  13.3406  13.7379  13.7379
    14.6038  14.6038  14.9021  14.9021  15.4823  15.4823  15.9449  15.9449

     occupation numbers 
     1.0000   1.0000   1.0000   1.0000   1.0000   1.0000   1.0000   1.0000
     1.0000   1.0000   1.0000   1.0000   1.0000   1.0000   1.0000   1.0000
     1.0000   1.0000   1.0000   1.0000   1.0000   1.0000   1.0000   1.0000
     1.0000   1.0000   1.0000   1.0000   1.0000   1.0000   1.0000   1.0000
     1.0000   1.0000   1.0000   1.0000   1.0000   1.0000   1.0000   1.0000
     1.0000   1.0000   1.0000   1.0000   1.0000   1.0000   1.0000   1.0000
     1.0000   1.0000   1.0000   1.0000   1.0000   1.0000   1.0000   1.0000
     1.0000   1.0000   1.0000   1.0000  -0.0000  -0.0000  -0.0000  -0.0000
    -0.0000  -0.0000  -0.0000  -0.0000  -0.0000  -0.0000  -0.0000  -0.0000
    -0.0000  -0.0000  -0.0000  -0.0000  -0.0000  -0.0000  -0.0000  -0.0000
    -0.0000  -0.0000  -0.0000  -0.0000  -0.0000  -0.0000  -0.0000  -0.0000
    -0.0000  -0.0000  -0.0000  -0.0000  -0.0000  -0.0000  -0.0000  -0.0000

          k =-0.1667-0.0962 0.1479 ( 11537 PWs)   bands (ev):

   -69.0395 -69.0395 -69.0392 -69.0392 -35.9766 -35.9766 -35.9749 -35.9749
   -35.6886 -35.6886 -35.6880 -35.6880 -35.6865 -35.6865 -35.6859 -35.6859
   -20.8244 -20.8244 -16.0934 -16.0934 -16.0932 -16.0932 -16.0926 -16.0926
   -16.0918 -16.0918 -13.1235 -13.1235 -13.1217 -13.1217 -13.1095 -13.1095
   -13.1073 -13.1073 -13.1016 -13.1016 -13.1009 -13.1009  -7.4710  -7.4710
    -5.5504  -5.5504  -5.4160  -5.4160  -2.9930  -2.9930  -2.6081  -2.6081
     3.7887   3.7887   4.9786   4.9786   5.4053   5.4053   6.2524   6.2524
     6.5173   6.5173   6.9804   6.9804   8.6019   8.6019   9.0190   9.0190
     9.8337   9.8337  10.0055  10.0055  10.1626  10.1626  10.5402  10.5402
    10.9993  10.9993  11.5240  11.5240  11.8417  11.8417  11.9812  11.9812
    12.2819  12.2819  12.5116  12.5116  12.8464  12.8464  14.1040  14.1040
    14.7454  14.7454  15.2703  15.2703  15.4131  15.4131  16.1424  16.1424

     occupation numbers 
     1.0000   1.0000   1.0000   1.0000   1.0000   1.0000   1.0000   1.0000
     1.0000   1.0000   1.0000   1.0000   1.0000   1.0000   1.0000   1.0000
     1.0000   1.0000   1.0000   1.0000   1.0000   1.0000   1.0000   1.0000
     1.0000   1.0000   1.0000   1.0000   1.0000   1.0000   1.0000   1.0000
     1.0000   1.0000   1.0000   1.0000   1.0000   1.0000   1.0000   1.0000
     1.0000   1.0000   1.0000   1.0000   1.0000   1.0000   1.0000   1.0000
     1.0000   1.0000   1.0000   1.0000   1.0000   1.0000   1.0000   1.0000
     1.0000   1.0000   1.0000   1.0000  -0.0000  -0.0000  -0.0000  -0.0000
    -0.0000  -0.0000  -0.0000  -0.0000  -0.0000  -0.0000  -0.0000  -0.0000
    -0.0000  -0.0000  -0.0000  -0.0000  -0.0000  -0.0000  -0.0000  -0.0000
    -0.0000  -0.0000  -0.0000  -0.0000  -0.0000  -0.0000  -0.0000  -0.0000
    -0.0000  -0.0000  -0.0000  -0.0000  -0.0000  -0.0000  -0.0000  -0.0000

          k =-0.1667-0.0962-0.2958 ( 11564 PWs)   bands (ev):

   -69.0395 -69.0395 -69.0392 -69.0392 -35.9768 -35.9768 -35.9751 -35.9751
   -35.6887 -35.6887 -35.6882 -35.6882 -35.6866 -35.6866 -35.6864 -35.6864
   -20.8244 -20.8244 -16.0934 -16.0934 -16.0931 -16.0931 -16.0924 -16.0924
   -16.0921 -16.0921 -13.1237 -13.1237 -13.1215 -13.1215 -13.1091 -13.1091
   -13.1077 -13.1077 -13.1018 -13.1018 -13.1008 -13.1008  -7.4713  -7.4713
    -5.5534  -5.5534  -5.4158  -5.4158  -2.8615  -2.8615  -2.7458  -2.7458
     3.9272   3.9272   4.7109   4.7109   5.6412   5.6412   6.0677   6.0677
     6.5949   6.5949   6.9102   6.9102   8.7410   8.7410   9.3730   9.3730
     9.6978   9.6978   9.9962   9.9962  10.1686  10.1686  10.2568  10.2568
    10.7224  10.7224  11.2499  11.2499  11.7146  11.7146  12.0672  12.0672
    12.6312  12.6312  12.8896  12.8896  13.3228  13.3228  14.0622  14.0622
    14.2872  14.2872  14.5025  14.5025  15.8952  15.8953  16.4373  16.4373

     occupation numbers 
     1.0000   1.0000   1.0000   1.0000   1.0000   1.0000   1.0000   1.0000
     1.0000   1.0000   1.0000   1.0000   1.0000   1.0000   1.0000   1.0000
     1.0000   1.0000   1.0000   1.0000   1.0000   1.0000   1.0000   1.0000
     1.0000   1.0000   1.0000   1.0000   1.0000   1.0000   1.0000   1.0000
     1.0000   1.0000   1.0000   1.0000   1.0000   1.0000   1.0000   1.0000
     1.0000   1.0000   1.0000   1.0000   1.0000   1.0000   1.0000   1.0000
     1.0000   1.0000   1.0000   1.0000   1.0000   1.0000   1.0000   1.0000
     1.0000   1.0000   1.0000   1.0000  -0.0000  -0.0000  -0.0000  -0.0000
    -0.0000  -0.0000  -0.0000  -0.0000  -0.0000  -0.0000  -0.0000  -0.0000
    -0.0000  -0.0000  -0.0000  -0.0000  -0.0000  -0.0000  -0.0000  -0.0000
    -0.0000  -0.0000  -0.0000  -0.0000  -0.0000  -0.0000  -0.0000  -0.0000
    -0.0000  -0.0000  -0.0000  -0.0000  -0.0000  -0.0000  -0.0000  -0.0000

          k =-0.1667-0.0962-0.1479 ( 11537 PWs)   bands (ev):

   -69.0395 -69.0395 -69.0392 -69.0392 -35.9765 -35.9765 -35.9749 -35.9749
   -35.6885 -35.6885 -35.6879 -35.6879 -35.6866 -35.6866 -35.6859 -35.6859
   -20.8244 -20.8244 -16.0933 -16.0933 -16.0931 -16.0931 -16.0927 -16.0927
   -16.0918 -16.0918 -13.1233 -13.1233 -13.1218 -13.1218 -13.1093 -13.1093
   -13.1075 -13.1075 -13.1016 -13.1016 -13.1009 -13.1009  -7.4710  -7.4710
    -5.5501  -5.5501  -5.4161  -5.4161  -3.0111  -3.0111  -2.5859  -2.5859
     3.7350   3.7350   4.8984   4.8984   5.4807   5.4807   6.2760   6.2760
     6.4691   6.4691   7.3730   7.3730   8.7667   8.7667   9.1001   9.1001
     9.2261   9.2261   9.9441   9.9441  10.0745  10.0745  10.1739  10.1739
    10.8303  10.8303  11.0790  11.0790  11.6681  11.6681  12.3134  12.3134
    13.0845  13.0845  13.3507  13.3507  13.6228  13.6228  13.9618  13.9618
    14.4727  14.4727  14.7834  14.7834  15.3953  15.3954  15.5303  15.5303

     occupation numbers 
     1.0000   1.0000   1.0000   1.0000   1.0000   1.0000   1.0000   1.0000
     1.0000   1.0000   1.0000   1.0000   1.0000   1.0000   1.0000   1.0000
     1.0000   1.0000   1.0000   1.0000   1.0000   1.0000   1.0000   1.0000
     1.0000   1.0000   1.0000   1.0000   1.0000   1.0000   1.0000   1.0000
     1.0000   1.0000   1.0000   1.0000   1.0000   1.0000   1.0000   1.0000
     1.0000   1.0000   1.0000   1.0000   1.0000   1.0000   1.0000   1.0000
     1.0000   1.0000   1.0000   1.0000   1.0000   1.0000   1.0000   1.0000
     1.0000   1.0000   1.0000   1.0000  -0.0000  -0.0000  -0.0000  -0.0000
    -0.0000  -0.0000  -0.0000  -0.0000  -0.0000  -0.0000  -0.0000  -0.0000
    -0.0000  -0.0000  -0.0000  -0.0000  -0.0000  -0.0000  -0.0000  -0.0000
    -0.0000  -0.0000  -0.0000  -0.0000  -0.0000  -0.0000  -0.0000  -0.0000
    -0.0000  -0.0000  -0.0000  -0.0000  -0.0000  -0.0000  -0.0000  -0.0000

          k = 0.1667-0.0962 0.0000 ( 11541 PWs)   bands (ev):

   -69.0395 -69.0395 -69.0392 -69.0392 -35.9767 -35.9767 -35.9747 -35.9747
   -35.6886 -35.6886 -35.6882 -35.6882 -35.6864 -35.6864 -35.6858 -35.6858
   -20.8244 -20.8244 -16.0934 -16.0934 -16.0932 -16.0932 -16.0928 -16.0928
   -16.0916 -16.0916 -13.1230 -13.1230 -13.1222 -13.1222 -13.1096 -13.1096
   -13.1071 -13.1071 -13.1014 -13.1014 -13.1011 -13.1011  -7.4707  -7.4707
    -5.5470  -5.5470  -5.4164  -5.4164  -3.0768  -3.0768  -2.5138  -2.5138
     3.6389   3.6389   5.0971   5.0971   5.3704   5.3704   6.2519   6.2519
     6.5684   6.5684   7.3356   7.3356   8.6720   8.6720   8.7508   8.7508
     9.5976   9.5976   9.9161   9.9161  10.0261  10.0261  10.4372  10.4372
    10.6454  10.6454  11.2377  11.2377  11.8190  11.8190  12.2576  12.2576
    13.0730  13.0730  13.2475  13.2475  13.3406  13.3406  13.7379  13.7379
    14.6038  14.6038  14.9021  14.9021  15.4823  15.4823  15.9449  15.9449

     occupation numbers 
     1.0000   1.0000   1.0000   1.0000   1.0000   1.0000   1.0000   1.0000
     1.0000   1.0000   1.0000   1.0000   1.0000   1.0000   1.0000   1.0000
     1.0000   1.0000   1.0000   1.0000   1.0000   1.0000   1.0000   1.0000
     1.0000   1.0000   1.0000   1.0000   1.0000   1.0000   1.0000   1.0000
     1.0000   1.0000   1.0000   1.0000   1.0000   1.0000   1.0000   1.0000
     1.0000   1.0000   1.0000   1.0000   1.0000   1.0000   1.0000   1.0000
     1.0000   1.0000   1.0000   1.0000   1.0000   1.0000   1.0000   1.0000
     1.0000   1.0000   1.0000   1.0000  -0.0000  -0.0000  -0.0000  -0.0000
    -0.0000  -0.0000  -0.0000  -0.0000  -0.0000  -0.0000  -0.0000  -0.0000
    -0.0000  -0.0000  -0.0000  -0.0000  -0.0000  -0.0000  -0.0000  -0.0000
    -0.0000  -0.0000  -0.0000  -0.0000  -0.0000  -0.0000  -0.0000  -0.0000
    -0.0000  -0.0000  -0.0000  -0.0000  -0.0000  -0.0000  -0.0000  -0.0000

          k = 0.1667-0.0962 0.1479 ( 11537 PWs)   bands (ev):

   -69.0395 -69.0395 -69.0392 -69.0392 -35.9766 -35.9766 -35.9749 -35.9749
   -35.6886 -35.6886 -35.6880 -35.6880 -35.6865 -35.6865 -35.6859 -35.6859
   -20.8244 -20.8244 -16.0934 -16.0934 -16.0932 -16.0932 -16.0926 -16.0926
   -16.0918 -16.0918 -13.1235 -13.1235 -13.1217 -13.1217 -13.1095 -13.1095
   -13.1073 -13.1073 -13.1016 -13.1016 -13.1009 -13.1009  -7.4710  -7.4710
    -5.5504  -5.5504  -5.4160  -5.4160  -2.9930  -2.9930  -2.6081  -2.6081
     3.7887   3.7887   4.9786   4.9786   5.4053   5.4053   6.2524   6.2524
     6.5173   6.5173   6.9804   6.9804   8.6019   8.6019   9.0190   9.0190
     9.8337   9.8337  10.0055  10.0055  10.1626  10.1626  10.5402  10.5402
    10.9993  10.9993  11.5240  11.5240  11.8417  11.8417  11.9812  11.9812
    12.2819  12.2819  12.5116  12.5116  12.8464  12.8464  14.1040  14.1040
    14.7454  14.7454  15.2703  15.2703  15.4131  15.4132  16.1424  16.1425

     occupation numbers 
     1.0000   1.0000   1.0000   1.0000   1.0000   1.0000   1.0000   1.0000
     1.0000   1.0000   1.0000   1.0000   1.0000   1.0000   1.0000   1.0000
     1.0000   1.0000   1.0000   1.0000   1.0000   1.0000   1.0000   1.0000
     1.0000   1.0000   1.0000   1.0000   1.0000   1.0000   1.0000   1.0000
     1.0000   1.0000   1.0000   1.0000   1.0000   1.0000   1.0000   1.0000
     1.0000   1.0000   1.0000   1.0000   1.0000   1.0000   1.0000   1.0000
     1.0000   1.0000   1.0000   1.0000   1.0000   1.0000   1.0000   1.0000
     1.0000   1.0000   1.0000   1.0000  -0.0000  -0.0000  -0.0000  -0.0000
    -0.0000  -0.0000  -0.0000  -0.0000  -0.0000  -0.0000  -0.0000  -0.0000
    -0.0000  -0.0000  -0.0000  -0.0000  -0.0000  -0.0000  -0.0000  -0.0000
    -0.0000  -0.0000  -0.0000  -0.0000  -0.0000  -0.0000  -0.0000  -0.0000
    -0.0000  -0.0000  -0.0000  -0.0000  -0.0000  -0.0000  -0.0000  -0.0000

          k = 0.1667-0.0962-0.2958 ( 11564 PWs)   bands (ev):

   -69.0395 -69.0395 -69.0392 -69.0392 -35.9768 -35.9768 -35.9751 -35.9751
   -35.6887 -35.6887 -35.6882 -35.6882 -35.6866 -35.6866 -35.6864 -35.6864
   -20.8244 -20.8244 -16.0934 -16.0934 -16.0931 -16.0931 -16.0924 -16.0924
   -16.0921 -16.0921 -13.1237 -13.1237 -13.1215 -13.1215 -13.1091 -13.1091
   -13.1077 -13.1077 -13.1018 -13.1018 -13.1008 -13.1008  -7.4713  -7.4713
    -5.5534  -5.5534  -5.4158  -5.4158  -2.8615  -2.8615  -2.7458  -2.7458
     3.9272   3.9272   4.7109   4.7109   5.6412   5.6412   6.0677   6.0677
     6.5949   6.5949   6.9102   6.9102   8.7410   8.7410   9.3730   9.3730
     9.6978   9.6978   9.9962   9.9962  10.1686  10.1686  10.2568  10.2568
    10.7224  10.7224  11.2499  11.2499  11.7146  11.7146  12.0672  12.0672
    12.6312  12.6312  12.8896  12.8896  13.3228  13.3228  14.0622  14.0622
    14.2872  14.2872  14.5025  14.5025  15.8952  15.8952  16.4373  16.4374

     occupation numbers 
     1.0000   1.0000   1.0000   1.0000   1.0000   1.0000   1.0000   1.0000
     1.0000   1.0000   1.0000   1.0000   1.0000   1.0000   1.0000   1.0000
     1.0000   1.0000   1.0000   1.0000   1.0000   1.0000   1.0000   1.0000
     1.0000   1.0000   1.0000   1.0000   1.0000   1.0000   1.0000   1.0000
     1.0000   1.0000   1.0000   1.0000   1.0000   1.0000   1.0000   1.0000
     1.0000   1.0000   1.0000   1.0000   1.0000   1.0000   1.0000   1.0000
     1.0000   1.0000   1.0000   1.0000   1.0000   1.0000   1.0000   1.0000
     1.0000   1.0000   1.0000   1.0000  -0.0000  -0.0000  -0.0000  -0.0000
    -0.0000  -0.0000  -0.0000  -0.0000  -0.0000  -0.0000  -0.0000  -0.0000
    -0.0000  -0.0000  -0.0000  -0.0000  -0.0000  -0.0000  -0.0000  -0.0000
    -0.0000  -0.0000  -0.0000  -0.0000  -0.0000  -0.0000  -0.0000  -0.0000
    -0.0000  -0.0000  -0.0000  -0.0000  -0.0000  -0.0000  -0.0000  -0.0000

          k = 0.1667-0.0962-0.1479 ( 11537 PWs)   bands (ev):

   -69.0395 -69.0395 -69.0392 -69.0392 -35.9765 -35.9765 -35.9749 -35.9749
   -35.6885 -35.6885 -35.6879 -35.6879 -35.6866 -35.6866 -35.6859 -35.6859
   -20.8244 -20.8244 -16.0933 -16.0933 -16.0931 -16.0931 -16.0927 -16.0927
   -16.0918 -16.0918 -13.1233 -13.1233 -13.1218 -13.1218 -13.1093 -13.1093
   -13.1075 -13.1075 -13.1016 -13.1016 -13.1009 -13.1009  -7.4710  -7.4710
    -5.5501  -5.5501  -5.4161  -5.4161  -3.0111  -3.0111  -2.5859  -2.5859
     3.7350   3.7350   4.8984   4.8984   5.4807   5.4807   6.2760   6.2760
     6.4691   6.4691   7.3730   7.3730   8.7667   8.7667   9.1001   9.1001
     9.2261   9.2261   9.9441   9.9441  10.0745  10.0745  10.1739  10.1739
    10.8303  10.8303  11.0790  11.0790  11.6681  11.6681  12.3134  12.3134
    13.0845  13.0845  13.3507  13.3507  13.6228  13.6228  13.9618  13.9618
    14.4727  14.4727  14.7834  14.7834  15.3953  15.3953  15.5303  15.5303

     occupation numbers 
     1.0000   1.0000   1.0000   1.0000   1.0000   1.0000   1.0000   1.0000
     1.0000   1.0000   1.0000   1.0000   1.0000   1.0000   1.0000   1.0000
     1.0000   1.0000   1.0000   1.0000   1.0000   1.0000   1.0000   1.0000
     1.0000   1.0000   1.0000   1.0000   1.0000   1.0000   1.0000   1.0000
     1.0000   1.0000   1.0000   1.0000   1.0000   1.0000   1.0000   1.0000
     1.0000   1.0000   1.0000   1.0000   1.0000   1.0000   1.0000   1.0000
     1.0000   1.0000   1.0000   1.0000   1.0000   1.0000   1.0000   1.0000
     1.0000   1.0000   1.0000   1.0000  -0.0000  -0.0000  -0.0000  -0.0000
    -0.0000  -0.0000  -0.0000  -0.0000  -0.0000  -0.0000  -0.0000  -0.0000
    -0.0000  -0.0000  -0.0000  -0.0000  -0.0000  -0.0000  -0.0000  -0.0000
    -0.0000  -0.0000  -0.0000  -0.0000  -0.0000  -0.0000  -0.0000  -0.0000
    -0.0000  -0.0000  -0.0000  -0.0000  -0.0000  -0.0000  -0.0000  -0.0000

          k = 0.3333 0.0000 0.0000 ( 11513 PWs)   bands (ev):

   -69.0395 -69.0395 -69.0393 -69.0393 -35.9764 -35.9764 -35.9748 -35.9748
   -35.6886 -35.6886 -35.6879 -35.6879 -35.6863 -35.6863 -35.6857 -35.6857
   -20.8212 -20.8212 -16.0931 -16.0931 -16.0928 -16.0928 -16.0924 -16.0924
   -16.0913 -16.0913 -13.1225 -13.1225 -13.1210 -13.1210 -13.1099 -13.1099
   -13.1071 -13.1071 -13.1005 -13.1005 -13.1003 -13.1003  -7.4854  -7.4854
    -5.5537  -5.5537  -5.4609  -5.4609  -2.8620  -2.8620  -2.5324  -2.5324
     3.7915   3.7915   4.4185   4.4185   4.9612   4.9612   5.7621   5.7621
     6.0518   6.0518   6.9113   6.9113   8.8655   8.8655   9.2719   9.2719
     9.7064   9.7064  10.3035  10.3035  10.4394  10.4394  11.1672  11.1672
    11.3136  11.3136  11.7271  11.7271  11.8902  11.8902  12.2022  12.2022
    13.0012  13.0012  13.1581  13.1581  13.3475  13.3475  14.3772  14.3772
    14.8938  14.8938  15.0775  15.0775  16.0304  16.0304  16.2647  16.2647

     occupation numbers 
     1.0000   1.0000   1.0000   1.0000   1.0000   1.0000   1.0000   1.0000
     1.0000   1.0000   1.0000   1.0000   1.0000   1.0000   1.0000   1.0000
     1.0000   1.0000   1.0000   1.0000   1.0000   1.0000   1.0000   1.0000
     1.0000   1.0000   1.0000   1.0000   1.0000   1.0000   1.0000   1.0000
     1.0000   1.0000   1.0000   1.0000   1.0000   1.0000   1.0000   1.0000
     1.0000   1.0000   1.0000   1.0000   1.0000   1.0000   1.0000   1.0000
     1.0000   1.0000   1.0000   1.0000   1.0000   1.0000   1.0000   1.0000
     1.0000   1.0000   1.0000   1.0000  -0.0000  -0.0000  -0.0000  -0.0000
    -0.0000  -0.0000  -0.0000  -0.0000  -0.0000  -0.0000  -0.0000  -0.0000
    -0.0000  -0.0000  -0.0000  -0.0000  -0.0000  -0.0000  -0.0000  -0.0000
    -0.0000  -0.0000  -0.0000  -0.0000  -0.0000  -0.0000  -0.0000  -0.0000
    -0.0000  -0.0000  -0.0000  -0.0000  -0.0000  -0.0000  -0.0000  -0.0000

          k = 0.3333 0.0000 0.1479 ( 11553 PWs)   bands (ev):

   -69.0395 -69.0395 -69.0393 -69.0393 -35.9767 -35.9767 -35.9751 -35.9751
   -35.6889 -35.6889 -35.6882 -35.6882 -35.6866 -35.6866 -35.6861 -35.6861
   -20.8212 -20.8212 -16.0931 -16.0931 -16.0929 -16.0929 -16.0923 -16.0923
   -16.0914 -16.0914 -13.1224 -13.1224 -13.1211 -13.1211 -13.1095 -13.1095
   -13.1075 -13.1075 -13.1007 -13.1007 -13.1001 -13.1001  -7.4855  -7.4855
    -5.5544  -5.5544  -5.4612  -5.4612  -2.8340  -2.8340  -2.5607  -2.5607
     3.7646   3.7646   4.2958   4.2958   5.1797   5.1797   5.7699   5.7699
     6.1508   6.1508   6.8070   6.8070   8.8373   8.8373   9.3351   9.3351
     9.7823   9.7823   9.9807   9.9807  10.3775  10.3775  10.7878  10.7878
    11.2728  11.2728  11.4899  11.4899  12.0998  12.0998  12.6863  12.6863
    12.8796  12.8796  13.5618  13.5618  13.8083  13.8083  14.0499  14.0499
    15.0354  15.0354  15.3923  15.3923  15.6409  15.6409  16.4904  16.4904

     occupation numbers 
     1.0000   1.0000   1.0000   1.0000   1.0000   1.0000   1.0000   1.0000
     1.0000   1.0000   1.0000   1.0000   1.0000   1.0000   1.0000   1.0000
     1.0000   1.0000   1.0000   1.0000   1.0000   1.0000   1.0000   1.0000
     1.0000   1.0000   1.0000   1.0000   1.0000   1.0000   1.0000   1.0000
     1.0000   1.0000   1.0000   1.0000   1.0000   1.0000   1.0000   1.0000
     1.0000   1.0000   1.0000   1.0000   1.0000   1.0000   1.0000   1.0000
     1.0000   1.0000   1.0000   1.0000   1.0000   1.0000   1.0000   1.0000
     1.0000   1.0000   1.0000   1.0000  -0.0000  -0.0000  -0.0000  -0.0000
    -0.0000  -0.0000  -0.0000  -0.0000  -0.0000  -0.0000  -0.0000  -0.0000
    -0.0000  -0.0000  -0.0000  -0.0000  -0.0000  -0.0000  -0.0000  -0.0000
    -0.0000  -0.0000  -0.0000  -0.0000  -0.0000  -0.0000  -0.0000  -0.0000
    -0.0000  -0.0000  -0.0000  -0.0000  -0.0000  -0.0000  -0.0000  -0.0000

          k = 0.3333 0.0000-0.2958 ( 11552 PWs)   bands (ev):

   -69.0395 -69.0395 -69.0393 -69.0393 -35.9766 -35.9766 -35.9752 -35.9752
   -35.6888 -35.6888 -35.6881 -35.6881 -35.6866 -35.6866 -35.6862 -35.6862
   -20.8212 -20.8212 -16.0931 -16.0931 -16.0929 -16.0929 -16.0922 -16.0921
   -16.0915 -16.0915 -13.1222 -13.1222 -13.1213 -13.1213 -13.1088 -13.1088
   -13.1081 -13.1081 -13.1008 -13.1008 -13.1000 -13.1000  -7.4856  -7.4856
    -5.5550  -5.5550  -5.4615  -5.4615  -2.7986  -2.7986  -2.5964  -2.5964
     3.7432   3.7432   4.2016   4.2016   5.4169   5.4169   5.7321   5.7321
     6.3159   6.3159   6.6195   6.6195   8.9514   8.9514   9.1852   9.1852
     9.8715   9.8715   9.9038   9.9038  10.1014  10.1014  10.7278  10.7278
    11.2004  11.2004  11.3065  11.3065  12.0366  12.0366  12.8390  12.8390
    13.2725  13.2725  13.5516  13.5516  14.0851  14.0851  14.7955  14.7955
    14.8924  14.8924  15.3554  15.3554  15.5715  15.5716  16.0897  16.0897

     occupation numbers 
     1.0000   1.0000   1.0000   1.0000   1.0000   1.0000   1.0000   1.0000
     1.0000   1.0000   1.0000   1.0000   1.0000   1.0000   1.0000   1.0000
     1.0000   1.0000   1.0000   1.0000   1.0000   1.0000   1.0000   1.0000
     1.0000   1.0000   1.0000   1.0000   1.0000   1.0000   1.0000   1.0000
     1.0000   1.0000   1.0000   1.0000   1.0000   1.0000   1.0000   1.0000
     1.0000   1.0000   1.0000   1.0000   1.0000   1.0000   1.0000   1.0000
     1.0000   1.0000   1.0000   1.0000   1.0000   1.0000   1.0000   1.0000
     1.0000   1.0000   1.0000   1.0000  -0.0000  -0.0000  -0.0000  -0.0000
    -0.0000  -0.0000  -0.0000  -0.0000  -0.0000  -0.0000  -0.0000  -0.0000
    -0.0000  -0.0000  -0.0000  -0.0000  -0.0000  -0.0000  -0.0000  -0.0000
    -0.0000  -0.0000  -0.0000  -0.0000  -0.0000  -0.0000  -0.0000  -0.0000
    -0.0000  -0.0000  -0.0000  -0.0000  -0.0000  -0.0000  -0.0000  -0.0000

          k = 0.3333 0.0000-0.1479 ( 11553 PWs)   bands (ev):

   -69.0395 -69.0395 -69.0393 -69.0393 -35.9767 -35.9767 -35.9751 -35.9751
   -35.6889 -35.6889 -35.6882 -35.6882 -35.6866 -35.6866 -35.6861 -35.6861
   -20.8212 -20.8212 -16.0931 -16.0931 -16.0929 -16.0929 -16.0923 -16.0923
   -16.0914 -16.0914 -13.1224 -13.1224 -13.1211 -13.1211 -13.1095 -13.1095
   -13.1075 -13.1075 -13.1007 -13.1007 -13.1001 -13.1001  -7.4855  -7.4855
    -5.5544  -5.5544  -5.4612  -5.4612  -2.8340  -2.8340  -2.5607  -2.5607
     3.7646   3.7646   4.2958   4.2958   5.1797   5.1797   5.7699   5.7699
     6.1508   6.1508   6.8070   6.8070   8.8373   8.8373   9.3351   9.3351
     9.7823   9.7823   9.9807   9.9807  10.3775  10.3775  10.7878  10.7878
    11.2728  11.2728  11.4899  11.4899  12.0998  12.0998  12.6863  12.6863
    12.8796  12.8796  13.5618  13.5618  13.8083  13.8083  14.0499  14.0499
    15.0354  15.0354  15.3923  15.3923  15.6409  15.6409  16.4903  16.4904

     occupation numbers 
     1.0000   1.0000   1.0000   1.0000   1.0000   1.0000   1.0000   1.0000
     1.0000   1.0000   1.0000   1.0000   1.0000   1.0000   1.0000   1.0000
     1.0000   1.0000   1.0000   1.0000   1.0000   1.0000   1.0000   1.0000
     1.0000   1.0000   1.0000   1.0000   1.0000   1.0000   1.0000   1.0000
     1.0000   1.0000   1.0000   1.0000   1.0000   1.0000   1.0000   1.0000
     1.0000   1.0000   1.0000   1.0000   1.0000   1.0000   1.0000   1.0000
     1.0000   1.0000   1.0000   1.0000   1.0000   1.0000   1.0000   1.0000
     1.0000   1.0000   1.0000   1.0000  -0.0000  -0.0000  -0.0000  -0.0000
    -0.0000  -0.0000  -0.0000  -0.0000  -0.0000  -0.0000  -0.0000  -0.0000
    -0.0000  -0.0000  -0.0000  -0.0000  -0.0000  -0.0000  -0.0000  -0.0000
    -0.0000  -0.0000  -0.0000  -0.0000  -0.0000  -0.0000  -0.0000  -0.0000
    -0.0000  -0.0000  -0.0000  -0.0000  -0.0000  -0.0000  -0.0000  -0.0000

          k = 0.5000 0.0962 0.0000 ( 11514 PWs)   bands (ev):

   -69.0394 -69.0394 -69.0393 -69.0393 -35.9761 -35.9761 -35.9753 -35.9753
   -35.6886 -35.6886 -35.6878 -35.6878 -35.6866 -35.6866 -35.6858 -35.6858
   -20.8181 -20.8181 -16.0928 -16.0928 -16.0923 -16.0923 -16.0922 -16.0922
   -16.0909 -16.0909 -13.1217 -13.1217 -13.1198 -13.1198 -13.1101 -13.1101
   -13.1072 -13.1072 -13.0997 -13.0997 -13.0994 -13.0994  -7.5010  -7.5010
    -5.5869  -5.5869  -5.4707  -5.4707  -2.6366  -2.6366  -2.5467  -2.5467
     3.5773   3.5773   3.9212   3.9212   4.8874   4.8874   5.5762   5.5762
     5.7785   5.7785   6.3884   6.3884   8.9133   8.9133   9.6301   9.6301
    10.0290  10.0290  10.3549  10.3549  10.8278  10.8278  11.0835  11.0835
    11.5081  11.5081  11.7573  11.7573  12.3956  12.3956  12.8295  12.8295
    13.3217  13.3217  13.5479  13.5479  14.1331  14.1331  14.7282  14.7282
    15.0256  15.0256  15.3207  15.3207  15.9386  15.9386  16.6203  16.6204

     occupation numbers 
     1.0000   1.0000   1.0000   1.0000   1.0000   1.0000   1.0000   1.0000
     1.0000   1.0000   1.0000   1.0000   1.0000   1.0000   1.0000   1.0000
     1.0000   1.0000   1.0000   1.0000   1.0000   1.0000   1.0000   1.0000
     1.0000   1.0000   1.0000   1.0000   1.0000   1.0000   1.0000   1.0000
     1.0000   1.0000   1.0000   1.0000   1.0000   1.0000   1.0000   1.0000
     1.0000   1.0000   1.0000   1.0000   1.0000   1.0000   1.0000   1.0000
     1.0000   1.0000   1.0000   1.0000   1.0000   1.0000   1.0000   1.0000
     1.0000   1.0000   1.0000   1.0000  -0.0000  -0.0000  -0.0000  -0.0000
    -0.0000  -0.0000  -0.0000  -0.0000  -0.0000  -0.0000  -0.0000  -0.0000
    -0.0000  -0.0000  -0.0000  -0.0000  -0.0000  -0.0000  -0.0000  -0.0000
    -0.0000  -0.0000  -0.0000  -0.0000  -0.0000  -0.0000  -0.0000  -0.0000
    -0.0000  -0.0000  -0.0000  -0.0000  -0.0000  -0.0000  -0.0000  -0.0000

          k = 0.5000 0.0962 0.1479 ( 11540 PWs)   bands (ev):

   -69.0394 -69.0394 -69.0393 -69.0393 -35.9762 -35.9762 -35.9756 -35.9756
   -35.6888 -35.6888 -35.6879 -35.6879 -35.6868 -35.6868 -35.6860 -35.6860
   -20.8181 -20.8181 -16.0928 -16.0928 -16.0926 -16.0926 -16.0920 -16.0920
   -16.0908 -16.0908 -13.1215 -13.1215 -13.1203 -13.1203 -13.1097 -13.1097
   -13.1075 -13.1075 -13.0998 -13.0998 -13.0993 -13.0993  -7.5009  -7.5009
    -5.5860  -5.5860  -5.4710  -5.4710  -2.7045  -2.7045  -2.4759  -2.4759
     3.5540   3.5540   3.8283   3.8283   4.9780   4.9780   5.6153   5.6153
     5.8497   5.8497   6.5403   6.5403   8.6572   8.6572   9.5148   9.5148
     9.8925   9.8925  10.0516  10.0516  10.6762  10.6762  10.9533  10.9533
    11.5182  11.5182  12.2023  12.2023  12.5916  12.5916  13.1925  13.1925
    13.4114  13.4114  13.8411  13.8411  14.3009  14.3009  14.6886  14.6886
    15.1002  15.1002  15.4200  15.4200  15.7321  15.7321  16.3893  16.3894

     occupation numbers 
     1.0000   1.0000   1.0000   1.0000   1.0000   1.0000   1.0000   1.0000
     1.0000   1.0000   1.0000   1.0000   1.0000   1.0000   1.0000   1.0000
     1.0000   1.0000   1.0000   1.0000   1.0000   1.0000   1.0000   1.0000
     1.0000   1.0000   1.0000   1.0000   1.0000   1.0000   1.0000   1.0000
     1.0000   1.0000   1.0000   1.0000   1.0000   1.0000   1.0000   1.0000
     1.0000   1.0000   1.0000   1.0000   1.0000   1.0000   1.0000   1.0000
     1.0000   1.0000   1.0000   1.0000   1.0000   1.0000   1.0000   1.0000
     1.0000   1.0000   1.0000   1.0000  -0.0000  -0.0000  -0.0000  -0.0000
    -0.0000  -0.0000  -0.0000  -0.0000  -0.0000  -0.0000  -0.0000  -0.0000
    -0.0000  -0.0000  -0.0000  -0.0000  -0.0000  -0.0000  -0.0000  -0.0000
    -0.0000  -0.0000  -0.0000  -0.0000  -0.0000  -0.0000  -0.0000  -0.0000
    -0.0000  -0.0000  -0.0000  -0.0000  -0.0000  -0.0000  -0.0000  -0.0000

          k = 0.5000 0.0962-0.2958 ( 11530 PWs)   bands (ev):

   -69.0394 -69.0394 -69.0393 -69.0393 -35.9761 -35.9761 -35.9755 -35.9755
   -35.6887 -35.6887 -35.6880 -35.6880 -35.6866 -35.6866 -35.6859 -35.6859
   -20.8181 -20.8181 -16.0930 -16.0930 -16.0927 -16.0927 -16.0920 -16.0920
   -16.0907 -16.0907 -13.1216 -13.1216 -13.1205 -13.1205 -13.1093 -13.1093
   -13.1076 -13.1076 -13.0999 -13.0999 -13.0992 -13.0992  -7.5009  -7.5009
    -5.5854  -5.5854  -5.4712  -5.4712  -2.7111  -2.7111  -2.4717  -2.4717
     3.5608   3.5608   3.8276   3.8276   4.9989   4.9989   5.6118   5.6118
     5.8922   5.8922   6.5527   6.5527   8.5995   8.5995   9.1882   9.1882
     9.7403   9.7403  10.1116  10.1116  10.9600  10.9600  11.2066  11.2066
    11.5031  11.5031  11.8096  11.8096  12.7589  12.7589  13.1548  13.1548
    13.4575  13.4575  13.8060  13.8060  14.4511  14.4511  14.8253  14.8253
    15.0837  15.0837  15.6942  15.6942  15.9984  15.9984  16.7246  16.7247

     occupation numbers 
     1.0000   1.0000   1.0000   1.0000   1.0000   1.0000   1.0000   1.0000
     1.0000   1.0000   1.0000   1.0000   1.0000   1.0000   1.0000   1.0000
     1.0000   1.0000   1.0000   1.0000   1.0000   1.0000   1.0000   1.0000
     1.0000   1.0000   1.0000   1.0000   1.0000   1.0000   1.0000   1.0000
     1.0000   1.0000   1.0000   1.0000   1.0000   1.0000   1.0000   1.0000
     1.0000   1.0000   1.0000   1.0000   1.0000   1.0000   1.0000   1.0000
     1.0000   1.0000   1.0000   1.0000   1.0000   1.0000   1.0000   1.0000
     1.0000   1.0000   1.0000   1.0000  -0.0000  -0.0000  -0.0000  -0.0000
    -0.0000  -0.0000  -0.0000  -0.0000  -0.0000  -0.0000  -0.0000  -0.0000
    -0.0000  -0.0000  -0.0000  -0.0000  -0.0000  -0.0000  -0.0000  -0.0000
    -0.0000  -0.0000  -0.0000  -0.0000  -0.0000  -0.0000  -0.0000  -0.0000
    -0.0000  -0.0000  -0.0000  -0.0000  -0.0000  -0.0000  -0.0000  -0.0000

          k = 0.5000 0.0962-0.1479 ( 11540 PWs)   bands (ev):

   -69.0394 -69.0394 -69.0393 -69.0393 -35.9763 -35.9763 -35.9755 -35.9755
   -35.6889 -35.6889 -35.6880 -35.6880 -35.6868 -35.6868 -35.6859 -35.6859
   -20.8181 -20.8181 -16.0929 -16.0929 -16.0926 -16.0926 -16.0920 -16.0920
   -16.0908 -16.0908 -13.1218 -13.1218 -13.1201 -13.1201 -13.1097 -13.1097
   -13.1074 -13.1074 -13.0998 -13.0998 -13.0993 -13.0993  -7.5009  -7.5009
    -5.5863  -5.5863  -5.4709  -5.4709  -2.6503  -2.6503  -2.5354  -2.5354
     3.5907   3.5907   3.9064   3.9064   4.9302   4.9302   5.5370   5.5370
     5.8491   5.8491   6.3819   6.3819   8.8071   8.8071   9.4417   9.4417
     9.9005   9.9005  10.3492  10.3492  10.8058  10.8058  11.3171  11.3171
    11.5415  11.5415  11.9544  11.9544  12.4051  12.4051  12.6959  12.6959
    13.0682  13.0682  13.8274  13.8274  14.2183  14.2183  14.7715  14.7715
    15.1343  15.1343  15.6424  15.6424  15.8651  15.8652  16.9025  16.9029

     occupation numbers 
     1.0000   1.0000   1.0000   1.0000   1.0000   1.0000   1.0000   1.0000
     1.0000   1.0000   1.0000   1.0000   1.0000   1.0000   1.0000   1.0000
     1.0000   1.0000   1.0000   1.0000   1.0000   1.0000   1.0000   1.0000
     1.0000   1.0000   1.0000   1.0000   1.0000   1.0000   1.0000   1.0000
     1.0000   1.0000   1.0000   1.0000   1.0000   1.0000   1.0000   1.0000
     1.0000   1.0000   1.0000   1.0000   1.0000   1.0000   1.0000   1.0000
     1.0000   1.0000   1.0000   1.0000   1.0000   1.0000   1.0000   1.0000
     1.0000   1.0000   1.0000   1.0000  -0.0000  -0.0000  -0.0000  -0.0000
    -0.0000  -0.0000  -0.0000  -0.0000  -0.0000  -0.0000  -0.0000  -0.0000
    -0.0000  -0.0000  -0.0000  -0.0000  -0.0000  -0.0000  -0.0000  -0.0000
    -0.0000  -0.0000  -0.0000  -0.0000  -0.0000  -0.0000  -0.0000  -0.0000
    -0.0000  -0.0000  -0.0000  -0.0000  -0.0000  -0.0000  -0.0000  -0.0000

          k =-0.3333-0.3849 0.0000 ( 11514 PWs)   bands (ev):

   -69.0394 -69.0394 -69.0393 -69.0393 -35.9761 -35.9761 -35.9753 -35.9753
   -35.6886 -35.6886 -35.6878 -35.6878 -35.6866 -35.6866 -35.6858 -35.6858
   -20.8181 -20.8181 -16.0928 -16.0928 -16.0923 -16.0923 -16.0922 -16.0922
   -16.0909 -16.0909 -13.1217 -13.1217 -13.1198 -13.1198 -13.1101 -13.1101
   -13.1072 -13.1072 -13.0997 -13.0997 -13.0994 -13.0994  -7.5010  -7.5010
    -5.5869  -5.5869  -5.4707  -5.4707  -2.6366  -2.6366  -2.5467  -2.5467
     3.5773   3.5773   3.9212   3.9212   4.8874   4.8874   5.5762   5.5762
     5.7785   5.7785   6.3884   6.3884   8.9133   8.9133   9.6301   9.6301
    10.0290  10.0290  10.3549  10.3549  10.8278  10.8278  11.0835  11.0835
    11.5081  11.5081  11.7573  11.7573  12.3956  12.3956  12.8294  12.8294
    13.3217  13.3217  13.5479  13.5479  14.1331  14.1331  14.7282  14.7282
    15.0256  15.0256  15.3207  15.3208  15.9386  15.9386  16.6204  16.6205

     occupation numbers 
     1.0000   1.0000   1.0000   1.0000   1.0000   1.0000   1.0000   1.0000
     1.0000   1.0000   1.0000   1.0000   1.0000   1.0000   1.0000   1.0000
     1.0000   1.0000   1.0000   1.0000   1.0000   1.0000   1.0000   1.0000
     1.0000   1.0000   1.0000   1.0000   1.0000   1.0000   1.0000   1.0000
     1.0000   1.0000   1.0000   1.0000   1.0000   1.0000   1.0000   1.0000
     1.0000   1.0000   1.0000   1.0000   1.0000   1.0000   1.0000   1.0000
     1.0000   1.0000   1.0000   1.0000   1.0000   1.0000   1.0000   1.0000
     1.0000   1.0000   1.0000   1.0000  -0.0000  -0.0000  -0.0000  -0.0000
    -0.0000  -0.0000  -0.0000  -0.0000  -0.0000  -0.0000  -0.0000  -0.0000
    -0.0000  -0.0000  -0.0000  -0.0000  -0.0000  -0.0000  -0.0000  -0.0000
    -0.0000  -0.0000  -0.0000  -0.0000  -0.0000  -0.0000  -0.0000  -0.0000
    -0.0000  -0.0000  -0.0000  -0.0000  -0.0000  -0.0000  -0.0000  -0.0000

          k =-0.3333-0.3849 0.1479 ( 11540 PWs)   bands (ev):

   -69.0394 -69.0394 -69.0393 -69.0393 -35.9763 -35.9763 -35.9755 -35.9755
   -35.6889 -35.6889 -35.6880 -35.6880 -35.6868 -35.6868 -35.6859 -35.6859
   -20.8181 -20.8181 -16.0929 -16.0929 -16.0926 -16.0926 -16.0920 -16.0920
   -16.0908 -16.0908 -13.1218 -13.1218 -13.1201 -13.1201 -13.1097 -13.1097
   -13.1074 -13.1074 -13.0998 -13.0998 -13.0993 -13.0993  -7.5009  -7.5009
    -5.5863  -5.5863  -5.4709  -5.4709  -2.6503  -2.6503  -2.5354  -2.5354
     3.5907   3.5907   3.9064   3.9064   4.9302   4.9302   5.5370   5.5370
     5.8491   5.8491   6.3819   6.3819   8.8071   8.8071   9.4417   9.4417
     9.9005   9.9005  10.3492  10.3492  10.8058  10.8058  11.3171  11.3171
    11.5415  11.5415  11.9544  11.9544  12.4051  12.4051  12.6959  12.6959
    13.0682  13.0682  13.8274  13.8274  14.2183  14.2183  14.7715  14.7715
    15.1343  15.1343  15.6425  15.6425  15.8651  15.8651  16.9025  16.9027

     occupation numbers 
     1.0000   1.0000   1.0000   1.0000   1.0000   1.0000   1.0000   1.0000
     1.0000   1.0000   1.0000   1.0000   1.0000   1.0000   1.0000   1.0000
     1.0000   1.0000   1.0000   1.0000   1.0000   1.0000   1.0000   1.0000
     1.0000   1.0000   1.0000   1.0000   1.0000   1.0000   1.0000   1.0000
     1.0000   1.0000   1.0000   1.0000   1.0000   1.0000   1.0000   1.0000
     1.0000   1.0000   1.0000   1.0000   1.0000   1.0000   1.0000   1.0000
     1.0000   1.0000   1.0000   1.0000   1.0000   1.0000   1.0000   1.0000
     1.0000   1.0000   1.0000   1.0000  -0.0000  -0.0000  -0.0000  -0.0000
    -0.0000  -0.0000  -0.0000  -0.0000  -0.0000  -0.0000  -0.0000  -0.0000
    -0.0000  -0.0000  -0.0000  -0.0000  -0.0000  -0.0000  -0.0000  -0.0000
    -0.0000  -0.0000  -0.0000  -0.0000  -0.0000  -0.0000  -0.0000  -0.0000
    -0.0000  -0.0000  -0.0000  -0.0000  -0.0000  -0.0000  -0.0000  -0.0000

          k =-0.3333-0.3849-0.2958 ( 11530 PWs)   bands (ev):

   -69.0394 -69.0394 -69.0393 -69.0393 -35.9761 -35.9761 -35.9755 -35.9755
   -35.6887 -35.6887 -35.6880 -35.6880 -35.6866 -35.6866 -35.6859 -35.6859
   -20.8181 -20.8181 -16.0930 -16.0930 -16.0927 -16.0927 -16.0920 -16.0920
   -16.0907 -16.0907 -13.1216 -13.1216 -13.1205 -13.1205 -13.1093 -13.1093
   -13.1076 -13.1076 -13.0999 -13.0999 -13.0992 -13.0992  -7.5009  -7.5009
    -5.5854  -5.5854  -5.4712  -5.4712  -2.7111  -2.7111  -2.4717  -2.4717
     3.5608   3.5608   3.8276   3.8276   4.9989   4.9989   5.6118   5.6118
     5.8922   5.8922   6.5527   6.5527   8.5995   8.5995   9.1882   9.1882
     9.7403   9.7403  10.1116  10.1116  10.9600  10.9600  11.2067  11.2067
    11.5031  11.5031  11.8096  11.8096  12.7589  12.7589  13.1548  13.1548
    13.4575  13.4575  13.8060  13.8060  14.4511  14.4511  14.8253  14.8253
    15.0837  15.0837  15.6942  15.6942  15.9984  15.9984  16.7248  16.7248

     occupation numbers 
     1.0000   1.0000   1.0000   1.0000   1.0000   1.0000   1.0000   1.0000
     1.0000   1.0000   1.0000   1.0000   1.0000   1.0000   1.0000   1.0000
     1.0000   1.0000   1.0000   1.0000   1.0000   1.0000   1.0000   1.0000
     1.0000   1.0000   1.0000   1.0000   1.0000   1.0000   1.0000   1.0000
     1.0000   1.0000   1.0000   1.0000   1.0000   1.0000   1.0000   1.0000
     1.0000   1.0000   1.0000   1.0000   1.0000   1.0000   1.0000   1.0000
     1.0000   1.0000   1.0000   1.0000   1.0000   1.0000   1.0000   1.0000
     1.0000   1.0000   1.0000   1.0000  -0.0000  -0.0000  -0.0000  -0.0000
    -0.0000  -0.0000  -0.0000  -0.0000  -0.0000  -0.0000  -0.0000  -0.0000
    -0.0000  -0.0000  -0.0000  -0.0000  -0.0000  -0.0000  -0.0000  -0.0000
    -0.0000  -0.0000  -0.0000  -0.0000  -0.0000  -0.0000  -0.0000  -0.0000
    -0.0000  -0.0000  -0.0000  -0.0000  -0.0000  -0.0000  -0.0000  -0.0000

          k =-0.3333-0.3849-0.1479 ( 11540 PWs)   bands (ev):

   -69.0394 -69.0394 -69.0393 -69.0393 -35.9762 -35.9762 -35.9756 -35.9756
   -35.6888 -35.6888 -35.6879 -35.6879 -35.6868 -35.6868 -35.6860 -35.6860
   -20.8181 -20.8181 -16.0928 -16.0928 -16.0926 -16.0926 -16.0920 -16.0920
   -16.0908 -16.0908 -13.1215 -13.1215 -13.1203 -13.1203 -13.1097 -13.1097
   -13.1075 -13.1075 -13.0998 -13.0998 -13.0993 -13.0993  -7.5009  -7.5009
    -5.5860  -5.5860  -5.4710  -5.4710  -2.7045  -2.7045  -2.4759  -2.4759
     3.5540   3.5540   3.8283   3.8283   4.9780   4.9780   5.6153   5.6153
     5.8497   5.8497   6.5403   6.5403   8.6572   8.6572   9.5148   9.5148
     9.8925   9.8925  10.0516  10.0516  10.6762  10.6762  10.9533  10.9533
    11.5182  11.5182  12.2023  12.2023  12.5916  12.5916  13.1925  13.1925
    13.4114  13.4114  13.8411  13.8411  14.3009  14.3009  14.6886  14.6886
    15.1002  15.1002  15.4200  15.4200  15.7321  15.7321  16.3893  16.3894

     occupation numbers 
     1.0000   1.0000   1.0000   1.0000   1.0000   1.0000   1.0000   1.0000
     1.0000   1.0000   1.0000   1.0000   1.0000   1.0000   1.0000   1.0000
     1.0000   1.0000   1.0000   1.0000   1.0000   1.0000   1.0000   1.0000
     1.0000   1.0000   1.0000   1.0000   1.0000   1.0000   1.0000   1.0000
     1.0000   1.0000   1.0000   1.0000   1.0000   1.0000   1.0000   1.0000
     1.0000   1.0000   1.0000   1.0000   1.0000   1.0000   1.0000   1.0000
     1.0000   1.0000   1.0000   1.0000   1.0000   1.0000   1.0000   1.0000
     1.0000   1.0000   1.0000   1.0000  -0.0000  -0.0000  -0.0000  -0.0000
    -0.0000  -0.0000  -0.0000  -0.0000  -0.0000  -0.0000  -0.0000  -0.0000
    -0.0000  -0.0000  -0.0000  -0.0000  -0.0000  -0.0000  -0.0000  -0.0000
    -0.0000  -0.0000  -0.0000  -0.0000  -0.0000  -0.0000  -0.0000  -0.0000
    -0.0000  -0.0000  -0.0000  -0.0000  -0.0000  -0.0000  -0.0000  -0.0000

          k =-0.1667-0.2887 0.0000 ( 11513 PWs)   bands (ev):

   -69.0395 -69.0395 -69.0393 -69.0393 -35.9764 -35.9764 -35.9748 -35.9748
   -35.6886 -35.6886 -35.6879 -35.6879 -35.6863 -35.6863 -35.6857 -35.6857
   -20.8212 -20.8212 -16.0931 -16.0931 -16.0928 -16.0928 -16.0924 -16.0924
   -16.0913 -16.0913 -13.1225 -13.1225 -13.1210 -13.1210 -13.1099 -13.1099
   -13.1071 -13.1071 -13.1005 -13.1005 -13.1003 -13.1003  -7.4854  -7.4854
    -5.5537  -5.5537  -5.4609  -5.4609  -2.8620  -2.8620  -2.5324  -2.5324
     3.7915   3.7915   4.4185   4.4185   4.9612   4.9612   5.7621   5.7621
     6.0518   6.0518   6.9113   6.9113   8.8654   8.8654   9.2719   9.2719
     9.7064   9.7064  10.3035  10.3035  10.4394  10.4394  11.1672  11.1672
    11.3136  11.3136  11.7271  11.7271  11.8902  11.8902  12.2022  12.2022
    13.0012  13.0012  13.1581  13.1581  13.3475  13.3475  14.3772  14.3772
    14.8938  14.8938  15.0775  15.0775  16.0304  16.0304  16.2647  16.2647

     occupation numbers 
     1.0000   1.0000   1.0000   1.0000   1.0000   1.0000   1.0000   1.0000
     1.0000   1.0000   1.0000   1.0000   1.0000   1.0000   1.0000   1.0000
     1.0000   1.0000   1.0000   1.0000   1.0000   1.0000   1.0000   1.0000
     1.0000   1.0000   1.0000   1.0000   1.0000   1.0000   1.0000   1.0000
     1.0000   1.0000   1.0000   1.0000   1.0000   1.0000   1.0000   1.0000
     1.0000   1.0000   1.0000   1.0000   1.0000   1.0000   1.0000   1.0000
     1.0000   1.0000   1.0000   1.0000   1.0000   1.0000   1.0000   1.0000
     1.0000   1.0000   1.0000   1.0000  -0.0000  -0.0000  -0.0000  -0.0000
    -0.0000  -0.0000  -0.0000  -0.0000  -0.0000  -0.0000  -0.0000  -0.0000
    -0.0000  -0.0000  -0.0000  -0.0000  -0.0000  -0.0000  -0.0000  -0.0000
    -0.0000  -0.0000  -0.0000  -0.0000  -0.0000  -0.0000  -0.0000  -0.0000
    -0.0000  -0.0000  -0.0000  -0.0000  -0.0000  -0.0000  -0.0000  -0.0000

          k =-0.1667-0.2887 0.1479 ( 11553 PWs)   bands (ev):

   -69.0395 -69.0395 -69.0393 -69.0393 -35.9767 -35.9767 -35.9751 -35.9751
   -35.6889 -35.6889 -35.6882 -35.6882 -35.6866 -35.6866 -35.6861 -35.6861
   -20.8212 -20.8212 -16.0931 -16.0931 -16.0929 -16.0929 -16.0923 -16.0923
   -16.0914 -16.0914 -13.1224 -13.1224 -13.1211 -13.1211 -13.1095 -13.1095
   -13.1075 -13.1075 -13.1007 -13.1007 -13.1001 -13.1001  -7.4855  -7.4855
    -5.5544  -5.5544  -5.4612  -5.4612  -2.8340  -2.8340  -2.5607  -2.5607
     3.7646   3.7646   4.2958   4.2958   5.1797   5.1797   5.7699   5.7699
     6.1508   6.1508   6.8070   6.8070   8.8373   8.8373   9.3351   9.3351
     9.7823   9.7823   9.9807   9.9807  10.3775  10.3775  10.7878  10.7878
    11.2728  11.2728  11.4899  11.4899  12.0998  12.0998  12.6863  12.6863
    12.8796  12.8796  13.5618  13.5618  13.8084  13.8084  14.0499  14.0499
    15.0354  15.0354  15.3923  15.3923  15.6409  15.6409  16.4904  16.4904

     occupation numbers 
     1.0000   1.0000   1.0000   1.0000   1.0000   1.0000   1.0000   1.0000
     1.0000   1.0000   1.0000   1.0000   1.0000   1.0000   1.0000   1.0000
     1.0000   1.0000   1.0000   1.0000   1.0000   1.0000   1.0000   1.0000
     1.0000   1.0000   1.0000   1.0000   1.0000   1.0000   1.0000   1.0000
     1.0000   1.0000   1.0000   1.0000   1.0000   1.0000   1.0000   1.0000
     1.0000   1.0000   1.0000   1.0000   1.0000   1.0000   1.0000   1.0000
     1.0000   1.0000   1.0000   1.0000   1.0000   1.0000   1.0000   1.0000
     1.0000   1.0000   1.0000   1.0000  -0.0000  -0.0000  -0.0000  -0.0000
    -0.0000  -0.0000  -0.0000  -0.0000  -0.0000  -0.0000  -0.0000  -0.0000
    -0.0000  -0.0000  -0.0000  -0.0000  -0.0000  -0.0000  -0.0000  -0.0000
    -0.0000  -0.0000  -0.0000  -0.0000  -0.0000  -0.0000  -0.0000  -0.0000
    -0.0000  -0.0000  -0.0000  -0.0000  -0.0000  -0.0000  -0.0000  -0.0000

          k =-0.1667-0.2887-0.2958 ( 11552 PWs)   bands (ev):

   -69.0395 -69.0395 -69.0393 -69.0393 -35.9766 -35.9766 -35.9752 -35.9752
   -35.6888 -35.6888 -35.6881 -35.6881 -35.6866 -35.6866 -35.6862 -35.6862
   -20.8212 -20.8212 -16.0931 -16.0931 -16.0929 -16.0929 -16.0922 -16.0921
   -16.0915 -16.0915 -13.1222 -13.1222 -13.1213 -13.1213 -13.1088 -13.1088
   -13.1081 -13.1081 -13.1008 -13.1008 -13.1000 -13.1000  -7.4856  -7.4856
    -5.5550  -5.5550  -5.4615  -5.4615  -2.7986  -2.7986  -2.5964  -2.5964
     3.7432   3.7432   4.2016   4.2016   5.4169   5.4169   5.7321   5.7321
     6.3159   6.3159   6.6195   6.6195   8.9514   8.9514   9.1852   9.1852
     9.8715   9.8715   9.9038   9.9038  10.1014  10.1014  10.7278  10.7278
    11.2004  11.2004  11.3065  11.3065  12.0366  12.0366  12.8390  12.8390
    13.2725  13.2725  13.5516  13.5516  14.0850  14.0850  14.7955  14.7955
    14.8924  14.8924  15.3554  15.3554  15.5715  15.5715  16.0897  16.0897

     occupation numbers 
     1.0000   1.0000   1.0000   1.0000   1.0000   1.0000   1.0000   1.0000
     1.0000   1.0000   1.0000   1.0000   1.0000   1.0000   1.0000   1.0000
     1.0000   1.0000   1.0000   1.0000   1.0000   1.0000   1.0000   1.0000
     1.0000   1.0000   1.0000   1.0000   1.0000   1.0000   1.0000   1.0000
     1.0000   1.0000   1.0000   1.0000   1.0000   1.0000   1.0000   1.0000
     1.0000   1.0000   1.0000   1.0000   1.0000   1.0000   1.0000   1.0000
     1.0000   1.0000   1.0000   1.0000   1.0000   1.0000   1.0000   1.0000
     1.0000   1.0000   1.0000   1.0000  -0.0000  -0.0000  -0.0000  -0.0000
    -0.0000  -0.0000  -0.0000  -0.0000  -0.0000  -0.0000  -0.0000  -0.0000
    -0.0000  -0.0000  -0.0000  -0.0000  -0.0000  -0.0000  -0.0000  -0.0000
    -0.0000  -0.0000  -0.0000  -0.0000  -0.0000  -0.0000  -0.0000  -0.0000
    -0.0000  -0.0000  -0.0000  -0.0000  -0.0000  -0.0000  -0.0000  -0.0000

          k =-0.1667-0.2887-0.1479 ( 11553 PWs)   bands (ev):

   -69.0395 -69.0395 -69.0393 -69.0393 -35.9767 -35.9767 -35.9751 -35.9751
   -35.6889 -35.6889 -35.6882 -35.6882 -35.6866 -35.6866 -35.6861 -35.6861
   -20.8212 -20.8212 -16.0931 -16.0931 -16.0929 -16.0929 -16.0923 -16.0923
   -16.0914 -16.0914 -13.1224 -13.1224 -13.1211 -13.1211 -13.1095 -13.1095
   -13.1075 -13.1075 -13.1007 -13.1007 -13.1001 -13.1001  -7.4855  -7.4855
    -5.5544  -5.5544  -5.4612  -5.4612  -2.8340  -2.8340  -2.5607  -2.5607
     3.7646   3.7646   4.2958   4.2958   5.1797   5.1797   5.7699   5.7699
     6.1508   6.1508   6.8070   6.8070   8.8373   8.8373   9.3351   9.3351
     9.7823   9.7823   9.9807   9.9807  10.3775  10.3775  10.7878  10.7878
    11.2728  11.2728  11.4899  11.4899  12.0998  12.0998  12.6863  12.6863
    12.8796  12.8796  13.5618  13.5618  13.8084  13.8084  14.0499  14.0499
    15.0354  15.0354  15.3923  15.3923  15.6409  15.6409  16.4903  16.4903

     occupation numbers 
     1.0000   1.0000   1.0000   1.0000   1.0000   1.0000   1.0000   1.0000
     1.0000   1.0000   1.0000   1.0000   1.0000   1.0000   1.0000   1.0000
     1.0000   1.0000   1.0000   1.0000   1.0000   1.0000   1.0000   1.0000
     1.0000   1.0000   1.0000   1.0000   1.0000   1.0000   1.0000   1.0000
     1.0000   1.0000   1.0000   1.0000   1.0000   1.0000   1.0000   1.0000
     1.0000   1.0000   1.0000   1.0000   1.0000   1.0000   1.0000   1.0000
     1.0000   1.0000   1.0000   1.0000   1.0000   1.0000   1.0000   1.0000
     1.0000   1.0000   1.0000   1.0000  -0.0000  -0.0000  -0.0000  -0.0000
    -0.0000  -0.0000  -0.0000  -0.0000  -0.0000  -0.0000  -0.0000  -0.0000
    -0.0000  -0.0000  -0.0000  -0.0000  -0.0000  -0.0000  -0.0000  -0.0000
    -0.0000  -0.0000  -0.0000  -0.0000  -0.0000  -0.0000  -0.0000  -0.0000
    -0.0000  -0.0000  -0.0000  -0.0000  -0.0000  -0.0000  -0.0000  -0.0000

          k = 0.0000-0.1925 0.0000 ( 11541 PWs)   bands (ev):

   -69.0395 -69.0395 -69.0392 -69.0392 -35.9767 -35.9767 -35.9747 -35.9747
   -35.6886 -35.6886 -35.6882 -35.6882 -35.6864 -35.6864 -35.6858 -35.6858
   -20.8244 -20.8244 -16.0934 -16.0934 -16.0932 -16.0932 -16.0928 -16.0928
   -16.0916 -16.0916 -13.1230 -13.1230 -13.1222 -13.1222 -13.1096 -13.1096
   -13.1071 -13.1071 -13.1014 -13.1014 -13.1011 -13.1011  -7.4707  -7.4707
    -5.5470  -5.5470  -5.4164  -5.4164  -3.0768  -3.0768  -2.5138  -2.5138
     3.6389   3.6389   5.0971   5.0971   5.3704   5.3704   6.2519   6.2519
     6.5684   6.5684   7.3356   7.3356   8.6720   8.6720   8.7508   8.7508
     9.5976   9.5976   9.9161   9.9161  10.0261  10.0261  10.4372  10.4372
    10.6454  10.6454  11.2377  11.2377  11.8190  11.8190  12.2576  12.2576
    13.0730  13.0730  13.2475  13.2475  13.3406  13.3406  13.7379  13.7379
    14.6039  14.6039  14.9021  14.9021  15.4823  15.4823  15.9449  15.9449

     occupation numbers 
     1.0000   1.0000   1.0000   1.0000   1.0000   1.0000   1.0000   1.0000
     1.0000   1.0000   1.0000   1.0000   1.0000   1.0000   1.0000   1.0000
     1.0000   1.0000   1.0000   1.0000   1.0000   1.0000   1.0000   1.0000
     1.0000   1.0000   1.0000   1.0000   1.0000   1.0000   1.0000   1.0000
     1.0000   1.0000   1.0000   1.0000   1.0000   1.0000   1.0000   1.0000
     1.0000   1.0000   1.0000   1.0000   1.0000   1.0000   1.0000   1.0000
     1.0000   1.0000   1.0000   1.0000   1.0000   1.0000   1.0000   1.0000
     1.0000   1.0000   1.0000   1.0000  -0.0000  -0.0000  -0.0000  -0.0000
    -0.0000  -0.0000  -0.0000  -0.0000  -0.0000  -0.0000  -0.0000  -0.0000
    -0.0000  -0.0000  -0.0000  -0.0000  -0.0000  -0.0000  -0.0000  -0.0000
    -0.0000  -0.0000  -0.0000  -0.0000  -0.0000  -0.0000  -0.0000  -0.0000
    -0.0000  -0.0000  -0.0000  -0.0000  -0.0000  -0.0000  -0.0000  -0.0000

          k = 0.0000-0.1925 0.1479 ( 11537 PWs)   bands (ev):

   -69.0395 -69.0395 -69.0392 -69.0392 -35.9765 -35.9765 -35.9749 -35.9749
   -35.6885 -35.6885 -35.6879 -35.6879 -35.6866 -35.6866 -35.6859 -35.6859
   -20.8244 -20.8244 -16.0933 -16.0933 -16.0931 -16.0931 -16.0927 -16.0927
   -16.0918 -16.0918 -13.1233 -13.1233 -13.1218 -13.1218 -13.1093 -13.1093
   -13.1075 -13.1075 -13.1016 -13.1016 -13.1009 -13.1009  -7.4710  -7.4710
    -5.5501  -5.5501  -5.4161  -5.4161  -3.0111  -3.0111  -2.5859  -2.5859
     3.7350   3.7350   4.8984   4.8984   5.4807   5.4807   6.2760   6.2760
     6.4691   6.4691   7.3730   7.3730   8.7667   8.7667   9.1001   9.1001
     9.2261   9.2261   9.9441   9.9441  10.0745  10.0745  10.1739  10.1739
    10.8303  10.8303  11.0790  11.0790  11.6681  11.6681  12.3134  12.3134
    13.0845  13.0845  13.3507  13.3507  13.6228  13.6228  13.9618  13.9618
    14.4727  14.4727  14.7834  14.7834  15.3953  15.3953  15.5303  15.5303

     occupation numbers 
     1.0000   1.0000   1.0000   1.0000   1.0000   1.0000   1.0000   1.0000
     1.0000   1.0000   1.0000   1.0000   1.0000   1.0000   1.0000   1.0000
     1.0000   1.0000   1.0000   1.0000   1.0000   1.0000   1.0000   1.0000
     1.0000   1.0000   1.0000   1.0000   1.0000   1.0000   1.0000   1.0000
     1.0000   1.0000   1.0000   1.0000   1.0000   1.0000   1.0000   1.0000
     1.0000   1.0000   1.0000   1.0000   1.0000   1.0000   1.0000   1.0000
     1.0000   1.0000   1.0000   1.0000   1.0000   1.0000   1.0000   1.0000
     1.0000   1.0000   1.0000   1.0000  -0.0000  -0.0000  -0.0000  -0.0000
    -0.0000  -0.0000  -0.0000  -0.0000  -0.0000  -0.0000  -0.0000  -0.0000
    -0.0000  -0.0000  -0.0000  -0.0000  -0.0000  -0.0000  -0.0000  -0.0000
    -0.0000  -0.0000  -0.0000  -0.0000  -0.0000  -0.0000  -0.0000  -0.0000
    -0.0000  -0.0000  -0.0000  -0.0000  -0.0000  -0.0000  -0.0000  -0.0000

          k = 0.0000-0.1925-0.2958 ( 11564 PWs)   bands (ev):

   -69.0395 -69.0395 -69.0392 -69.0392 -35.9768 -35.9768 -35.9751 -35.9751
   -35.6887 -35.6887 -35.6882 -35.6882 -35.6866 -35.6866 -35.6864 -35.6864
   -20.8244 -20.8244 -16.0934 -16.0934 -16.0931 -16.0931 -16.0924 -16.0924
   -16.0921 -16.0921 -13.1237 -13.1237 -13.1215 -13.1215 -13.1091 -13.1091
   -13.1077 -13.1077 -13.1018 -13.1018 -13.1008 -13.1008  -7.4713  -7.4713
    -5.5534  -5.5534  -5.4158  -5.4158  -2.8615  -2.8615  -2.7458  -2.7458
     3.9272   3.9272   4.7109   4.7109   5.6412   5.6412   6.0677   6.0677
     6.5949   6.5949   6.9102   6.9102   8.7410   8.7410   9.3730   9.3730
     9.6978   9.6978   9.9962   9.9962  10.1686  10.1686  10.2568  10.2568
    10.7224  10.7224  11.2499  11.2499  11.7146  11.7146  12.0672  12.0672
    12.6312  12.6312  12.8896  12.8896  13.3228  13.3228  14.0622  14.0622
    14.2872  14.2872  14.5025  14.5025  15.8953  15.8953  16.4373  16.4374

     occupation numbers 
     1.0000   1.0000   1.0000   1.0000   1.0000   1.0000   1.0000   1.0000
     1.0000   1.0000   1.0000   1.0000   1.0000   1.0000   1.0000   1.0000
     1.0000   1.0000   1.0000   1.0000   1.0000   1.0000   1.0000   1.0000
     1.0000   1.0000   1.0000   1.0000   1.0000   1.0000   1.0000   1.0000
     1.0000   1.0000   1.0000   1.0000   1.0000   1.0000   1.0000   1.0000
     1.0000   1.0000   1.0000   1.0000   1.0000   1.0000   1.0000   1.0000
     1.0000   1.0000   1.0000   1.0000   1.0000   1.0000   1.0000   1.0000
     1.0000   1.0000   1.0000   1.0000  -0.0000  -0.0000  -0.0000  -0.0000
    -0.0000  -0.0000  -0.0000  -0.0000  -0.0000  -0.0000  -0.0000  -0.0000
    -0.0000  -0.0000  -0.0000  -0.0000  -0.0000  -0.0000  -0.0000  -0.0000
    -0.0000  -0.0000  -0.0000  -0.0000  -0.0000  -0.0000  -0.0000  -0.0000
    -0.0000  -0.0000  -0.0000  -0.0000  -0.0000  -0.0000  -0.0000  -0.0000

          k = 0.0000-0.1925-0.1479 ( 11537 PWs)   bands (ev):

   -69.0395 -69.0395 -69.0392 -69.0392 -35.9766 -35.9766 -35.9749 -35.9749
   -35.6886 -35.6886 -35.6880 -35.6880 -35.6865 -35.6865 -35.6859 -35.6859
   -20.8244 -20.8244 -16.0934 -16.0934 -16.0932 -16.0932 -16.0926 -16.0926
   -16.0918 -16.0918 -13.1235 -13.1235 -13.1217 -13.1217 -13.1095 -13.1095
   -13.1073 -13.1073 -13.1016 -13.1016 -13.1009 -13.1009  -7.4710  -7.4710
    -5.5504  -5.5504  -5.4160  -5.4160  -2.9930  -2.9930  -2.6081  -2.6081
     3.7887   3.7887   4.9786   4.9786   5.4053   5.4053   6.2524   6.2524
     6.5172   6.5172   6.9804   6.9804   8.6019   8.6019   9.0190   9.0190
     9.8337   9.8337  10.0055  10.0055  10.1626  10.1626  10.5402  10.5402
    10.9993  10.9993  11.5240  11.5240  11.8417  11.8417  11.9812  11.9812
    12.2819  12.2819  12.5116  12.5116  12.8464  12.8464  14.1040  14.1040
    14.7454  14.7454  15.2703  15.2703  15.4131  15.4131  16.1424  16.1425

     occupation numbers 
     1.0000   1.0000   1.0000   1.0000   1.0000   1.0000   1.0000   1.0000
     1.0000   1.0000   1.0000   1.0000   1.0000   1.0000   1.0000   1.0000
     1.0000   1.0000   1.0000   1.0000   1.0000   1.0000   1.0000   1.0000
     1.0000   1.0000   1.0000   1.0000   1.0000   1.0000   1.0000   1.0000
     1.0000   1.0000   1.0000   1.0000   1.0000   1.0000   1.0000   1.0000
     1.0000   1.0000   1.0000   1.0000   1.0000   1.0000   1.0000   1.0000
     1.0000   1.0000   1.0000   1.0000   1.0000   1.0000   1.0000   1.0000
     1.0000   1.0000   1.0000   1.0000  -0.0000  -0.0000  -0.0000  -0.0000
    -0.0000  -0.0000  -0.0000  -0.0000  -0.0000  -0.0000  -0.0000  -0.0000
    -0.0000  -0.0000  -0.0000  -0.0000  -0.0000  -0.0000  -0.0000  -0.0000
    -0.0000  -0.0000  -0.0000  -0.0000  -0.0000  -0.0000  -0.0000  -0.0000
    -0.0000  -0.0000  -0.0000  -0.0000  -0.0000  -0.0000  -0.0000  -0.0000

          k = 0.3333-0.1925 0.0000 ( 11530 PWs)   bands (ev):

   -69.0395 -69.0395 -69.0393 -69.0393 -35.9765 -35.9765 -35.9751 -35.9751
   -35.6885 -35.6885 -35.6882 -35.6882 -35.6864 -35.6864 -35.6860 -35.6860
   -20.8202 -20.8202 -16.0932 -16.0932 -16.0926 -16.0926 -16.0923 -16.0923
   -16.0911 -16.0911 -13.1224 -13.1224 -13.1205 -13.1205 -13.1102 -13.1102
   -13.1069 -13.1069 -13.1002 -13.1002 -13.1000 -13.1000  -7.4910  -7.4910
    -5.5754  -5.5754  -5.4519  -5.4519  -2.7890  -2.7890  -2.5398  -2.5398
     3.7484   3.7484   4.0885   4.0885   5.0588   5.0588   5.8062   5.8062
     6.0918   6.0918   6.6817   6.6817   8.2203   8.2203   9.3534   9.3534
    10.1838  10.1838  10.3560  10.3560  10.5451  10.5451  11.1578  11.1578
    11.4587  11.4587  11.8712  11.8712  12.2627  12.2627  12.5172  12.5172
    12.9750  12.9750  13.3708  13.3708  13.5922  13.5922  14.0061  14.0061
    14.7929  14.7929  15.1062  15.1062  15.9685  15.9685  16.5078  16.5078

     occupation numbers 
     1.0000   1.0000   1.0000   1.0000   1.0000   1.0000   1.0000   1.0000
     1.0000   1.0000   1.0000   1.0000   1.0000   1.0000   1.0000   1.0000
     1.0000   1.0000   1.0000   1.0000   1.0000   1.0000   1.0000   1.0000
     1.0000   1.0000   1.0000   1.0000   1.0000   1.0000   1.0000   1.0000
     1.0000   1.0000   1.0000   1.0000   1.0000   1.0000   1.0000   1.0000
     1.0000   1.0000   1.0000   1.0000   1.0000   1.0000   1.0000   1.0000
     1.0000   1.0000   1.0000   1.0000   1.0000   1.0000   1.0000   1.0000
     1.0000   1.0000   1.0000   1.0000  -0.0002  -0.0002  -0.0000  -0.0000
    -0.0000  -0.0000  -0.0000  -0.0000  -0.0000  -0.0000  -0.0000  -0.0000
    -0.0000  -0.0000  -0.0000  -0.0000  -0.0000  -0.0000  -0.0000  -0.0000
    -0.0000  -0.0000  -0.0000  -0.0000  -0.0000  -0.0000  -0.0000  -0.0000
    -0.0000  -0.0000  -0.0000  -0.0000  -0.0000  -0.0000  -0.0000  -0.0000

          k = 0.3333-0.1925 0.1479 ( 11525 PWs)   bands (ev):

   -69.0395 -69.0395 -69.0393 -69.0393 -35.9763 -35.9763 -35.9751 -35.9751
   -35.6885 -35.6885 -35.6880 -35.6880 -35.6866 -35.6866 -35.6859 -35.6859
   -20.8202 -20.8202 -16.0933 -16.0933 -16.0928 -16.0928 -16.0921 -16.0921
   -16.0911 -16.0911 -13.1226 -13.1226 -13.1204 -13.1204 -13.1098 -13.1098
   -13.1072 -13.1072 -13.1003 -13.1003 -13.0998 -13.0998  -7.4910  -7.4910
    -5.5757  -5.5757  -5.4523  -5.4523  -2.7240  -2.7240  -2.6094  -2.6094
     3.7538   3.7538   4.1447   4.1447   5.1134   5.1134   5.6286   5.6286
     6.2120   6.2120   6.5944   6.5944   8.2121   8.2121   9.2609   9.2609
    10.1407  10.1407  10.4938  10.4938  10.6798  10.6798  11.3096  11.3096
    11.5026  11.5026  11.7978  11.7978  12.0327  12.0327  12.5088  12.5088
    12.7435  12.7435  13.1586  13.1586  13.4960  13.4960  13.9399  13.9399
    15.4625  15.4625  15.6586  15.6586  16.5181  16.5181  16.6191  16.6192

     occupation numbers 
     1.0000   1.0000   1.0000   1.0000   1.0000   1.0000   1.0000   1.0000
     1.0000   1.0000   1.0000   1.0000   1.0000   1.0000   1.0000   1.0000
     1.0000   1.0000   1.0000   1.0000   1.0000   1.0000   1.0000   1.0000
     1.0000   1.0000   1.0000   1.0000   1.0000   1.0000   1.0000   1.0000
     1.0000   1.0000   1.0000   1.0000   1.0000   1.0000   1.0000   1.0000
     1.0000   1.0000   1.0000   1.0000   1.0000   1.0000   1.0000   1.0000
     1.0000   1.0000   1.0000   1.0000   1.0000   1.0000   1.0000   1.0000
     1.0000   1.0000   1.0000   1.0000  -0.0003  -0.0003  -0.0000  -0.0000
    -0.0000  -0.0000  -0.0000  -0.0000  -0.0000  -0.0000  -0.0000  -0.0000
    -0.0000  -0.0000  -0.0000  -0.0000  -0.0000  -0.0000  -0.0000  -0.0000
    -0.0000  -0.0000  -0.0000  -0.0000  -0.0000  -0.0000  -0.0000  -0.0000
    -0.0000  -0.0000  -0.0000  -0.0000  -0.0000  -0.0000  -0.0000  -0.0000

          k = 0.3333-0.1925-0.2958 ( 11510 PWs)   bands (ev):

   -69.0395 -69.0395 -69.0393 -69.0393 -35.9761 -35.9761 -35.9751 -35.9751
   -35.6883 -35.6883 -35.6879 -35.6879 -35.6864 -35.6864 -35.6859 -35.6859
   -20.8202 -20.8202 -16.0931 -16.0931 -16.0928 -16.0928 -16.0919 -16.0919
   -16.0913 -16.0913 -13.1222 -13.1222 -13.1209 -13.1209 -13.1089 -13.1089
   -13.1081 -13.1081 -13.1005 -13.1005 -13.0997 -13.0997  -7.4911  -7.4911
    -5.5751  -5.5751  -5.4529  -5.4529  -2.7974  -2.7974  -2.5263  -2.5263
     3.6403   3.6403   3.9651   3.9651   5.3175   5.3175   5.8624   5.8624
     6.1643   6.1643   6.9757   6.9757   8.4233   8.4233   9.1199   9.1199
     9.4109   9.4109   9.5449   9.5449  10.5029  10.5029  10.8797  10.8797
    11.1961  11.1961  12.2020  12.2020  12.7803  12.7803  13.0530  13.0530
    13.1997  13.1997  13.9662  13.9662  14.3444  14.3444  14.6101  14.6101
    15.0062  15.0062  15.1496  15.1496  15.6880  15.6881  16.2685  16.2686

     occupation numbers 
     1.0000   1.0000   1.0000   1.0000   1.0000   1.0000   1.0000   1.0000
     1.0000   1.0000   1.0000   1.0000   1.0000   1.0000   1.0000   1.0000
     1.0000   1.0000   1.0000   1.0000   1.0000   1.0000   1.0000   1.0000
     1.0000   1.0000   1.0000   1.0000   1.0000   1.0000   1.0000   1.0000
     1.0000   1.0000   1.0000   1.0000   1.0000   1.0000   1.0000   1.0000
     1.0000   1.0000   1.0000   1.0000   1.0000   1.0000   1.0000   1.0000
     1.0000   1.0000   1.0000   1.0000   1.0000   1.0000   1.0000   1.0000
     1.0000   1.0000   1.0000   1.0000  -0.0000  -0.0000  -0.0000  -0.0000
    -0.0000  -0.0000  -0.0000  -0.0000  -0.0000  -0.0000  -0.0000  -0.0000
    -0.0000  -0.0000  -0.0000  -0.0000  -0.0000  -0.0000  -0.0000  -0.0000
    -0.0000  -0.0000  -0.0000  -0.0000  -0.0000  -0.0000  -0.0000  -0.0000
    -0.0000  -0.0000  -0.0000  -0.0000  -0.0000  -0.0000  -0.0000  -0.0000

          k = 0.3333-0.1925-0.1479 ( 11525 PWs)   bands (ev):

   -69.0395 -69.0395 -69.0393 -69.0393 -35.9762 -35.9762 -35.9753 -35.9753
   -35.6883 -35.6883 -35.6881 -35.6881 -35.6864 -35.6864 -35.6862 -35.6862
   -20.8202 -20.8202 -16.0930 -16.0930 -16.0927 -16.0927 -16.0922 -16.0922
   -16.0913 -16.0913 -13.1218 -13.1218 -13.1210 -13.1210 -13.1096 -13.1096
   -13.1076 -13.1076 -13.1004 -13.1004 -13.0998 -13.0998  -7.4910  -7.4910
    -5.5748  -5.5748  -5.4526  -5.4526  -2.8347  -2.8347  -2.4843  -2.4843
     3.6294   3.6294   3.9299   3.9299   5.2646   5.2646   5.9316   5.9316
     6.1563   6.1563   7.1117   7.1117   8.3440   8.3440   9.1131   9.1131
     9.2739   9.2739   9.8035   9.8035  10.3725  10.3725  10.8618  10.8618
    11.0372  11.0372  12.3651  12.3651  13.0269  13.0269  13.2822  13.2822
    13.5571  13.5571  13.8847  13.8847  13.9674  13.9674  14.4364  14.4364
    14.5796  14.5796  14.9408  14.9409  15.6759  15.6760  15.9696  15.9696

     occupation numbers 
     1.0000   1.0000   1.0000   1.0000   1.0000   1.0000   1.0000   1.0000
     1.0000   1.0000   1.0000   1.0000   1.0000   1.0000   1.0000   1.0000
     1.0000   1.0000   1.0000   1.0000   1.0000   1.0000   1.0000   1.0000
     1.0000   1.0000   1.0000   1.0000   1.0000   1.0000   1.0000   1.0000
     1.0000   1.0000   1.0000   1.0000   1.0000   1.0000   1.0000   1.0000
     1.0000   1.0000   1.0000   1.0000   1.0000   1.0000   1.0000   1.0000
     1.0000   1.0000   1.0000   1.0000   1.0000   1.0000   1.0000   1.0000
     1.0000   1.0000   1.0000   1.0000  -0.0000  -0.0000  -0.0000  -0.0000
    -0.0000  -0.0000  -0.0000  -0.0000  -0.0000  -0.0000  -0.0000  -0.0000
    -0.0000  -0.0000  -0.0000  -0.0000  -0.0000  -0.0000  -0.0000  -0.0000
    -0.0000  -0.0000  -0.0000  -0.0000  -0.0000  -0.0000  -0.0000  -0.0000
    -0.0000  -0.0000  -0.0000  -0.0000  -0.0000  -0.0000  -0.0000  -0.0000

          k = 0.5000-0.0962 0.0000 ( 11514 PWs)   bands (ev):

   -69.0394 -69.0394 -69.0393 -69.0393 -35.9761 -35.9761 -35.9753 -35.9753
   -35.6886 -35.6886 -35.6878 -35.6878 -35.6866 -35.6866 -35.6858 -35.6858
   -20.8181 -20.8181 -16.0928 -16.0928 -16.0923 -16.0923 -16.0922 -16.0922
   -16.0909 -16.0909 -13.1217 -13.1217 -13.1198 -13.1198 -13.1101 -13.1101
   -13.1072 -13.1072 -13.0997 -13.0997 -13.0994 -13.0994  -7.5010  -7.5010
    -5.5869  -5.5869  -5.4707  -5.4707  -2.6366  -2.6366  -2.5467  -2.5467
     3.5773   3.5773   3.9212   3.9212   4.8874   4.8874   5.5762   5.5762
     5.7785   5.7785   6.3884   6.3884   8.9133   8.9133   9.6301   9.6301
    10.0290  10.0290  10.3549  10.3549  10.8278  10.8278  11.0835  11.0835
    11.5081  11.5081  11.7573  11.7573  12.3956  12.3956  12.8295  12.8295
    13.3217  13.3217  13.5479  13.5479  14.1331  14.1331  14.7282  14.7282
    15.0256  15.0256  15.3207  15.3207  15.9386  15.9386  16.6203  16.6204

     occupation numbers 
     1.0000   1.0000   1.0000   1.0000   1.0000   1.0000   1.0000   1.0000
     1.0000   1.0000   1.0000   1.0000   1.0000   1.0000   1.0000   1.0000
     1.0000   1.0000   1.0000   1.0000   1.0000   1.0000   1.0000   1.0000
     1.0000   1.0000   1.0000   1.0000   1.0000   1.0000   1.0000   1.0000
     1.0000   1.0000   1.0000   1.0000   1.0000   1.0000   1.0000   1.0000
     1.0000   1.0000   1.0000   1.0000   1.0000   1.0000   1.0000   1.0000
     1.0000   1.0000   1.0000   1.0000   1.0000   1.0000   1.0000   1.0000
     1.0000   1.0000   1.0000   1.0000  -0.0000  -0.0000  -0.0000  -0.0000
    -0.0000  -0.0000  -0.0000  -0.0000  -0.0000  -0.0000  -0.0000  -0.0000
    -0.0000  -0.0000  -0.0000  -0.0000  -0.0000  -0.0000  -0.0000  -0.0000
    -0.0000  -0.0000  -0.0000  -0.0000  -0.0000  -0.0000  -0.0000  -0.0000
    -0.0000  -0.0000  -0.0000  -0.0000  -0.0000  -0.0000  -0.0000  -0.0000

          k = 0.5000-0.0962 0.1479 ( 11540 PWs)   bands (ev):

   -69.0394 -69.0394 -69.0393 -69.0393 -35.9763 -35.9763 -35.9755 -35.9755
   -35.6889 -35.6889 -35.6880 -35.6880 -35.6868 -35.6868 -35.6859 -35.6859
   -20.8181 -20.8181 -16.0929 -16.0929 -16.0926 -16.0926 -16.0920 -16.0920
   -16.0908 -16.0908 -13.1218 -13.1218 -13.1201 -13.1201 -13.1097 -13.1097
   -13.1074 -13.1074 -13.0998 -13.0998 -13.0993 -13.0993  -7.5009  -7.5009
    -5.5863  -5.5863  -5.4709  -5.4709  -2.6503  -2.6503  -2.5354  -2.5354
     3.5907   3.5907   3.9064   3.9064   4.9302   4.9302   5.5370   5.5370
     5.8491   5.8491   6.3819   6.3819   8.8071   8.8071   9.4417   9.4417
     9.9005   9.9005  10.3492  10.3492  10.8058  10.8058  11.3171  11.3171
    11.5415  11.5415  11.9544  11.9544  12.4051  12.4051  12.6959  12.6959
    13.0682  13.0682  13.8274  13.8274  14.2183  14.2183  14.7715  14.7715
    15.1343  15.1343  15.6424  15.6425  15.8651  15.8651  16.9025  16.9025

     occupation numbers 
     1.0000   1.0000   1.0000   1.0000   1.0000   1.0000   1.0000   1.0000
     1.0000   1.0000   1.0000   1.0000   1.0000   1.0000   1.0000   1.0000
     1.0000   1.0000   1.0000   1.0000   1.0000   1.0000   1.0000   1.0000
     1.0000   1.0000   1.0000   1.0000   1.0000   1.0000   1.0000   1.0000
     1.0000   1.0000   1.0000   1.0000   1.0000   1.0000   1.0000   1.0000
     1.0000   1.0000   1.0000   1.0000   1.0000   1.0000   1.0000   1.0000
     1.0000   1.0000   1.0000   1.0000   1.0000   1.0000   1.0000   1.0000
     1.0000   1.0000   1.0000   1.0000  -0.0000  -0.0000  -0.0000  -0.0000
    -0.0000  -0.0000  -0.0000  -0.0000  -0.0000  -0.0000  -0.0000  -0.0000
    -0.0000  -0.0000  -0.0000  -0.0000  -0.0000  -0.0000  -0.0000  -0.0000
    -0.0000  -0.0000  -0.0000  -0.0000  -0.0000  -0.0000  -0.0000  -0.0000
    -0.0000  -0.0000  -0.0000  -0.0000  -0.0000  -0.0000  -0.0000  -0.0000

          k = 0.5000-0.0962-0.2958 ( 11530 PWs)   bands (ev):

   -69.0394 -69.0394 -69.0393 -69.0393 -35.9761 -35.9761 -35.9755 -35.9755
   -35.6887 -35.6887 -35.6880 -35.6880 -35.6866 -35.6866 -35.6859 -35.6859
   -20.8181 -20.8181 -16.0930 -16.0930 -16.0927 -16.0927 -16.0920 -16.0920
   -16.0907 -16.0907 -13.1216 -13.1216 -13.1205 -13.1205 -13.1093 -13.1093
   -13.1076 -13.1076 -13.0999 -13.0999 -13.0992 -13.0992  -7.5009  -7.5009
    -5.5854  -5.5854  -5.4712  -5.4712  -2.7111  -2.7111  -2.4717  -2.4717
     3.5608   3.5608   3.8276   3.8276   4.9989   4.9989   5.6118   5.6118
     5.8922   5.8922   6.5527   6.5527   8.5995   8.5995   9.1882   9.1882
     9.7403   9.7403  10.1116  10.1116  10.9600  10.9600  11.2066  11.2066
    11.5031  11.5031  11.8096  11.8096  12.7589  12.7589  13.1548  13.1548
    13.4575  13.4575  13.8060  13.8060  14.4511  14.4511  14.8253  14.8253
    15.0837  15.0837  15.6942  15.6942  15.9984  15.9984  16.7246  16.7246

     occupation numbers 
     1.0000   1.0000   1.0000   1.0000   1.0000   1.0000   1.0000   1.0000
     1.0000   1.0000   1.0000   1.0000   1.0000   1.0000   1.0000   1.0000
     1.0000   1.0000   1.0000   1.0000   1.0000   1.0000   1.0000   1.0000
     1.0000   1.0000   1.0000   1.0000   1.0000   1.0000   1.0000   1.0000
     1.0000   1.0000   1.0000   1.0000   1.0000   1.0000   1.0000   1.0000
     1.0000   1.0000   1.0000   1.0000   1.0000   1.0000   1.0000   1.0000
     1.0000   1.0000   1.0000   1.0000   1.0000   1.0000   1.0000   1.0000
     1.0000   1.0000   1.0000   1.0000  -0.0000  -0.0000  -0.0000  -0.0000
    -0.0000  -0.0000  -0.0000  -0.0000  -0.0000  -0.0000  -0.0000  -0.0000
    -0.0000  -0.0000  -0.0000  -0.0000  -0.0000  -0.0000  -0.0000  -0.0000
    -0.0000  -0.0000  -0.0000  -0.0000  -0.0000  -0.0000  -0.0000  -0.0000
    -0.0000  -0.0000  -0.0000  -0.0000  -0.0000  -0.0000  -0.0000  -0.0000

          k = 0.5000-0.0962-0.1479 ( 11540 PWs)   bands (ev):

   -69.0394 -69.0394 -69.0393 -69.0393 -35.9762 -35.9762 -35.9756 -35.9756
   -35.6888 -35.6888 -35.6879 -35.6879 -35.6868 -35.6868 -35.6860 -35.6860
   -20.8181 -20.8181 -16.0928 -16.0928 -16.0926 -16.0926 -16.0920 -16.0920
   -16.0908 -16.0908 -13.1215 -13.1215 -13.1203 -13.1203 -13.1097 -13.1097
   -13.1075 -13.1075 -13.0998 -13.0998 -13.0993 -13.0993  -7.5009  -7.5009
    -5.5860  -5.5860  -5.4710  -5.4710  -2.7045  -2.7045  -2.4759  -2.4759
     3.5540   3.5540   3.8283   3.8283   4.9780   4.9780   5.6153   5.6153
     5.8497   5.8497   6.5403   6.5403   8.6572   8.6572   9.5148   9.5148
     9.8925   9.8925  10.0516  10.0516  10.6762  10.6762  10.9533  10.9533
    11.5182  11.5182  12.2023  12.2023  12.5916  12.5916  13.1925  13.1925
    13.4114  13.4114  13.8411  13.8411  14.3009  14.3009  14.6886  14.6886
    15.1002  15.1002  15.4200  15.4200  15.7321  15.7321  16.3893  16.3894

     occupation numbers 
     1.0000   1.0000   1.0000   1.0000   1.0000   1.0000   1.0000   1.0000
     1.0000   1.0000   1.0000   1.0000   1.0000   1.0000   1.0000   1.0000
     1.0000   1.0000   1.0000   1.0000   1.0000   1.0000   1.0000   1.0000
     1.0000   1.0000   1.0000   1.0000   1.0000   1.0000   1.0000   1.0000
     1.0000   1.0000   1.0000   1.0000   1.0000   1.0000   1.0000   1.0000
     1.0000   1.0000   1.0000   1.0000   1.0000   1.0000   1.0000   1.0000
     1.0000   1.0000   1.0000   1.0000   1.0000   1.0000   1.0000   1.0000
     1.0000   1.0000   1.0000   1.0000  -0.0000  -0.0000  -0.0000  -0.0000
    -0.0000  -0.0000  -0.0000  -0.0000  -0.0000  -0.0000  -0.0000  -0.0000
    -0.0000  -0.0000  -0.0000  -0.0000  -0.0000  -0.0000  -0.0000  -0.0000
    -0.0000  -0.0000  -0.0000  -0.0000  -0.0000  -0.0000  -0.0000  -0.0000
    -0.0000  -0.0000  -0.0000  -0.0000  -0.0000  -0.0000  -0.0000  -0.0000

          k = 0.6667 0.0000 0.0000 ( 11514 PWs)   bands (ev):

   -69.0394 -69.0394 -69.0394 -69.0394 -35.9757 -35.9757 -35.9757 -35.9757
   -35.6889 -35.6889 -35.6875 -35.6875 -35.6869 -35.6869 -35.6856 -35.6856
   -20.8170 -20.8170 -16.0924 -16.0924 -16.0923 -16.0923 -16.0921 -16.0921
   -16.0911 -16.0911 -13.1210 -13.1210 -13.1198 -13.1198 -13.1096 -13.1096
   -13.1079 -13.1079 -13.0995 -13.0995 -13.0992 -13.0992  -7.5053  -7.5053
    -5.5775  -5.5775  -5.4975  -5.4975  -2.5708  -2.5708  -2.5325  -2.5325
     3.5493   3.5493   3.9546   3.9546   4.3670   4.3670   5.6569   5.6569
     5.7951   5.7951   6.1760   6.1760   9.6795   9.6795   9.7526   9.7526
     9.9412   9.9412  10.2109  10.2109  10.4621  10.4621  10.6451  10.6451
    12.5236  12.5236  12.5865  12.5865  12.7053  12.7053  12.7429  12.7429
    12.9395  12.9395  13.7305  13.7305  13.8936  13.8936  14.0083  14.0083
    14.8405  14.8405  15.1625  15.1625  15.9979  15.9980  16.3977  16.3977

     occupation numbers 
     1.0000   1.0000   1.0000   1.0000   1.0000   1.0000   1.0000   1.0000
     1.0000   1.0000   1.0000   1.0000   1.0000   1.0000   1.0000   1.0000
     1.0000   1.0000   1.0000   1.0000   1.0000   1.0000   1.0000   1.0000
     1.0000   1.0000   1.0000   1.0000   1.0000   1.0000   1.0000   1.0000
     1.0000   1.0000   1.0000   1.0000   1.0000   1.0000   1.0000   1.0000
     1.0000   1.0000   1.0000   1.0000   1.0000   1.0000   1.0000   1.0000
     1.0000   1.0000   1.0000   1.0000   1.0000   1.0000   1.0000   1.0000
     1.0000   1.0000   1.0000   1.0000  -0.0000  -0.0000  -0.0000  -0.0000
    -0.0000  -0.0000  -0.0000  -0.0000  -0.0000  -0.0000  -0.0000  -0.0000
    -0.0000  -0.0000  -0.0000  -0.0000  -0.0000  -0.0000  -0.0000  -0.0000
    -0.0000  -0.0000  -0.0000  -0.0000  -0.0000  -0.0000  -0.0000  -0.0000
    -0.0000  -0.0000  -0.0000  -0.0000  -0.0000  -0.0000  -0.0000  -0.0000

          k = 0.6667 0.0000 0.1479 ( 11511 PWs)   bands (ev):

   -69.0394 -69.0394 -69.0394 -69.0394 -35.9756 -35.9756 -35.9756 -35.9756
   -35.6886 -35.6886 -35.6873 -35.6873 -35.6869 -35.6869 -35.6857 -35.6857
   -20.8170 -20.8170 -16.0926 -16.0926 -16.0923 -16.0923 -16.0923 -16.0923
   -16.0906 -16.0906 -13.1209 -13.1209 -13.1202 -13.1202 -13.1095 -13.1095
   -13.1076 -13.1076 -13.0996 -13.0996 -13.0991 -13.0991  -7.5053  -7.5053
    -5.5768  -5.5768  -5.4975  -5.4975  -2.5729  -2.5729  -2.5360  -2.5360
     3.5686   3.5686   3.9808   3.9808   4.4311   4.4311   5.5791   5.5791
     5.8154   5.8154   6.1126   6.1126   9.2836   9.2836   9.3552   9.3552
    10.0595  10.0595  10.7152  10.7152  10.8255  10.8255  11.0894  11.0894
    11.8354  11.8354  11.9051  11.9051  12.5010  12.5010  13.2437  13.2437
    13.5921  13.5921  13.8397  13.8397  13.9055  13.9055  14.0096  14.0096
    14.8256  14.8256  15.1503  15.1503  15.2821  15.2821  17.3135  17.3136

     occupation numbers 
     1.0000   1.0000   1.0000   1.0000   1.0000   1.0000   1.0000   1.0000
     1.0000   1.0000   1.0000   1.0000   1.0000   1.0000   1.0000   1.0000
     1.0000   1.0000   1.0000   1.0000   1.0000   1.0000   1.0000   1.0000
     1.0000   1.0000   1.0000   1.0000   1.0000   1.0000   1.0000   1.0000
     1.0000   1.0000   1.0000   1.0000   1.0000   1.0000   1.0000   1.0000
     1.0000   1.0000   1.0000   1.0000   1.0000   1.0000   1.0000   1.0000
     1.0000   1.0000   1.0000   1.0000   1.0000   1.0000   1.0000   1.0000
     1.0000   1.0000   1.0000   1.0000  -0.0000  -0.0000  -0.0000  -0.0000
    -0.0000  -0.0000  -0.0000  -0.0000  -0.0000  -0.0000  -0.0000  -0.0000
    -0.0000  -0.0000  -0.0000  -0.0000  -0.0000  -0.0000  -0.0000  -0.0000
    -0.0000  -0.0000  -0.0000  -0.0000  -0.0000  -0.0000  -0.0000  -0.0000
    -0.0000  -0.0000  -0.0000  -0.0000  -0.0000  -0.0000  -0.0000  -0.0000

          k = 0.6667 0.0000-0.2958 ( 11538 PWs)   bands (ev):

   -69.0394 -69.0394 -69.0394 -69.0394 -35.9759 -35.9759 -35.9758 -35.9758
   -35.6890 -35.6890 -35.6875 -35.6875 -35.6872 -35.6872 -35.6857 -35.6857
   -20.8170 -20.8170 -16.0929 -16.0929 -16.0923 -16.0923 -16.0923 -16.0923
   -16.0903 -16.0903 -13.1209 -13.1209 -13.1207 -13.1207 -13.1094 -13.1094
   -13.1073 -13.1073 -13.0996 -13.0996 -13.0991 -13.0991  -7.5052  -7.5052
    -5.5761  -5.5761  -5.4974  -5.4974  -2.5749  -2.5749  -2.5395  -2.5395
     3.5881   3.5881   4.0009   4.0009   4.5333   4.5333   5.4078   5.4078
     5.8372   5.8372   6.1335   6.1335   9.0250   9.0250   9.0280   9.0280
    10.4856  10.4856  10.7195  10.7195  11.2838  11.2838  11.4103  11.4103
    11.6012  11.6012  11.8309  11.8309  12.7562  12.7562  12.8480  12.8480
    12.8658  12.8658  13.1975  13.1975  14.2780  14.2780  14.4457  14.4457
    15.0937  15.0937  15.7426  15.7426  15.8042  15.8042  17.4636  17.4725

     occupation numbers 
     1.0000   1.0000   1.0000   1.0000   1.0000   1.0000   1.0000   1.0000
     1.0000   1.0000   1.0000   1.0000   1.0000   1.0000   1.0000   1.0000
     1.0000   1.0000   1.0000   1.0000   1.0000   1.0000   1.0000   1.0000
     1.0000   1.0000   1.0000   1.0000   1.0000   1.0000   1.0000   1.0000
     1.0000   1.0000   1.0000   1.0000   1.0000   1.0000   1.0000   1.0000
     1.0000   1.0000   1.0000   1.0000   1.0000   1.0000   1.0000   1.0000
     1.0000   1.0000   1.0000   1.0000   1.0000   1.0000   1.0000   1.0000
     1.0000   1.0000   1.0000   1.0000  -0.0000  -0.0000  -0.0000  -0.0000
    -0.0000  -0.0000  -0.0000  -0.0000  -0.0000  -0.0000  -0.0000  -0.0000
    -0.0000  -0.0000  -0.0000  -0.0000  -0.0000  -0.0000  -0.0000  -0.0000
    -0.0000  -0.0000  -0.0000  -0.0000  -0.0000  -0.0000  -0.0000  -0.0000
    -0.0000  -0.0000  -0.0000  -0.0000  -0.0000  -0.0000  -0.0000  -0.0000

          k = 0.6667 0.0000-0.1479 ( 11511 PWs)   bands (ev):

   -69.0394 -69.0394 -69.0394 -69.0394 -35.9756 -35.9756 -35.9756 -35.9756
   -35.6886 -35.6886 -35.6873 -35.6873 -35.6869 -35.6869 -35.6857 -35.6857
   -20.8170 -20.8170 -16.0926 -16.0926 -16.0923 -16.0923 -16.0923 -16.0923
   -16.0906 -16.0906 -13.1209 -13.1209 -13.1202 -13.1202 -13.1095 -13.1095
   -13.1076 -13.1076 -13.0996 -13.0996 -13.0991 -13.0991  -7.5053  -7.5053
    -5.5768  -5.5768  -5.4975  -5.4975  -2.5729  -2.5729  -2.5360  -2.5360
     3.5686   3.5686   3.9808   3.9808   4.4311   4.4311   5.5791   5.5791
     5.8154   5.8154   6.1126   6.1126   9.2836   9.2836   9.3552   9.3552
    10.0595  10.0595  10.7152  10.7152  10.8255  10.8255  11.0894  11.0894
    11.8354  11.8354  11.9051  11.9051  12.5010  12.5010  13.2437  13.2437
    13.5921  13.5921  13.8397  13.8397  13.9055  13.9055  14.0096  14.0096
    14.8256  14.8256  15.1503  15.1503  15.2821  15.2821  17.3136  17.3136

     occupation numbers 
     1.0000   1.0000   1.0000   1.0000   1.0000   1.0000   1.0000   1.0000
     1.0000   1.0000   1.0000   1.0000   1.0000   1.0000   1.0000   1.0000
     1.0000   1.0000   1.0000   1.0000   1.0000   1.0000   1.0000   1.0000
     1.0000   1.0000   1.0000   1.0000   1.0000   1.0000   1.0000   1.0000
     1.0000   1.0000   1.0000   1.0000   1.0000   1.0000   1.0000   1.0000
     1.0000   1.0000   1.0000   1.0000   1.0000   1.0000   1.0000   1.0000
     1.0000   1.0000   1.0000   1.0000   1.0000   1.0000   1.0000   1.0000
     1.0000   1.0000   1.0000   1.0000  -0.0000  -0.0000  -0.0000  -0.0000
    -0.0000  -0.0000  -0.0000  -0.0000  -0.0000  -0.0000  -0.0000  -0.0000
    -0.0000  -0.0000  -0.0000  -0.0000  -0.0000  -0.0000  -0.0000  -0.0000
    -0.0000  -0.0000  -0.0000  -0.0000  -0.0000  -0.0000  -0.0000  -0.0000
    -0.0000  -0.0000  -0.0000  -0.0000  -0.0000  -0.0000  -0.0000  -0.0000

          k =-0.1667-0.4811 0.0000 ( 11514 PWs)   bands (ev):

   -69.0394 -69.0394 -69.0393 -69.0393 -35.9761 -35.9761 -35.9753 -35.9753
   -35.6886 -35.6886 -35.6878 -35.6878 -35.6866 -35.6866 -35.6858 -35.6858
   -20.8181 -20.8181 -16.0928 -16.0928 -16.0923 -16.0923 -16.0922 -16.0922
   -16.0909 -16.0909 -13.1217 -13.1217 -13.1198 -13.1198 -13.1101 -13.1101
   -13.1072 -13.1072 -13.0997 -13.0997 -13.0994 -13.0994  -7.5010  -7.5010
    -5.5869  -5.5869  -5.4707  -5.4707  -2.6366  -2.6366  -2.5467  -2.5467
     3.5773   3.5773   3.9212   3.9212   4.8874   4.8874   5.5762   5.5762
     5.7785   5.7785   6.3884   6.3884   8.9133   8.9133   9.6301   9.6301
    10.0290  10.0290  10.3549  10.3549  10.8278  10.8278  11.0835  11.0835
    11.5081  11.5081  11.7573  11.7573  12.3956  12.3956  12.8294  12.8294
    13.3217  13.3217  13.5479  13.5479  14.1331  14.1331  14.7282  14.7282
    15.0256  15.0256  15.3207  15.3208  15.9386  15.9386  16.6203  16.6203

     occupation numbers 
     1.0000   1.0000   1.0000   1.0000   1.0000   1.0000   1.0000   1.0000
     1.0000   1.0000   1.0000   1.0000   1.0000   1.0000   1.0000   1.0000
     1.0000   1.0000   1.0000   1.0000   1.0000   1.0000   1.0000   1.0000
     1.0000   1.0000   1.0000   1.0000   1.0000   1.0000   1.0000   1.0000
     1.0000   1.0000   1.0000   1.0000   1.0000   1.0000   1.0000   1.0000
     1.0000   1.0000   1.0000   1.0000   1.0000   1.0000   1.0000   1.0000
     1.0000   1.0000   1.0000   1.0000   1.0000   1.0000   1.0000   1.0000
     1.0000   1.0000   1.0000   1.0000  -0.0000  -0.0000  -0.0000  -0.0000
    -0.0000  -0.0000  -0.0000  -0.0000  -0.0000  -0.0000  -0.0000  -0.0000
    -0.0000  -0.0000  -0.0000  -0.0000  -0.0000  -0.0000  -0.0000  -0.0000
    -0.0000  -0.0000  -0.0000  -0.0000  -0.0000  -0.0000  -0.0000  -0.0000
    -0.0000  -0.0000  -0.0000  -0.0000  -0.0000  -0.0000  -0.0000  -0.0000

          k =-0.1667-0.4811 0.1479 ( 11540 PWs)   bands (ev):

   -69.0394 -69.0394 -69.0393 -69.0393 -35.9762 -35.9762 -35.9756 -35.9756
   -35.6888 -35.6888 -35.6879 -35.6879 -35.6868 -35.6868 -35.6860 -35.6860
   -20.8181 -20.8181 -16.0928 -16.0928 -16.0926 -16.0926 -16.0920 -16.0920
   -16.0908 -16.0908 -13.1215 -13.1215 -13.1203 -13.1203 -13.1097 -13.1097
   -13.1075 -13.1075 -13.0998 -13.0998 -13.0993 -13.0993  -7.5009  -7.5009
    -5.5860  -5.5860  -5.4710  -5.4710  -2.7045  -2.7045  -2.4759  -2.4759
     3.5540   3.5540   3.8283   3.8283   4.9780   4.9780   5.6153   5.6153
     5.8497   5.8497   6.5403   6.5403   8.6572   8.6572   9.5148   9.5148
     9.8925   9.8925  10.0516  10.0516  10.6762  10.6762  10.9533  10.9533
    11.5182  11.5182  12.2023  12.2023  12.5916  12.5916  13.1925  13.1925
    13.4114  13.4114  13.8411  13.8411  14.3009  14.3009  14.6886  14.6886
    15.1002  15.1002  15.4200  15.4200  15.7321  15.7321  16.3893  16.3894

     occupation numbers 
     1.0000   1.0000   1.0000   1.0000   1.0000   1.0000   1.0000   1.0000
     1.0000   1.0000   1.0000   1.0000   1.0000   1.0000   1.0000   1.0000
     1.0000   1.0000   1.0000   1.0000   1.0000   1.0000   1.0000   1.0000
     1.0000   1.0000   1.0000   1.0000   1.0000   1.0000   1.0000   1.0000
     1.0000   1.0000   1.0000   1.0000   1.0000   1.0000   1.0000   1.0000
     1.0000   1.0000   1.0000   1.0000   1.0000   1.0000   1.0000   1.0000
     1.0000   1.0000   1.0000   1.0000   1.0000   1.0000   1.0000   1.0000
     1.0000   1.0000   1.0000   1.0000  -0.0000  -0.0000  -0.0000  -0.0000
    -0.0000  -0.0000  -0.0000  -0.0000  -0.0000  -0.0000  -0.0000  -0.0000
    -0.0000  -0.0000  -0.0000  -0.0000  -0.0000  -0.0000  -0.0000  -0.0000
    -0.0000  -0.0000  -0.0000  -0.0000  -0.0000  -0.0000  -0.0000  -0.0000
    -0.0000  -0.0000  -0.0000  -0.0000  -0.0000  -0.0000  -0.0000  -0.0000

          k =-0.1667-0.4811-0.2958 ( 11530 PWs)   bands (ev):

   -69.0394 -69.0394 -69.0393 -69.0393 -35.9761 -35.9761 -35.9755 -35.9755
   -35.6887 -35.6887 -35.6880 -35.6880 -35.6866 -35.6866 -35.6859 -35.6859
   -20.8181 -20.8181 -16.0930 -16.0930 -16.0927 -16.0927 -16.0920 -16.0920
   -16.0907 -16.0907 -13.1216 -13.1216 -13.1205 -13.1205 -13.1093 -13.1093
   -13.1076 -13.1076 -13.0999 -13.0999 -13.0992 -13.0992  -7.5009  -7.5009
    -5.5854  -5.5854  -5.4712  -5.4712  -2.7111  -2.7111  -2.4717  -2.4717
     3.5608   3.5608   3.8276   3.8276   4.9989   4.9989   5.6118   5.6118
     5.8922   5.8922   6.5527   6.5527   8.5995   8.5995   9.1882   9.1882
     9.7403   9.7403  10.1116  10.1116  10.9600  10.9600  11.2067  11.2067
    11.5031  11.5031  11.8096  11.8096  12.7589  12.7589  13.1548  13.1548
    13.4575  13.4575  13.8060  13.8060  14.4511  14.4511  14.8253  14.8253
    15.0837  15.0837  15.6942  15.6942  15.9984  15.9984  16.7246  16.7246

     occupation numbers 
     1.0000   1.0000   1.0000   1.0000   1.0000   1.0000   1.0000   1.0000
     1.0000   1.0000   1.0000   1.0000   1.0000   1.0000   1.0000   1.0000
     1.0000   1.0000   1.0000   1.0000   1.0000   1.0000   1.0000   1.0000
     1.0000   1.0000   1.0000   1.0000   1.0000   1.0000   1.0000   1.0000
     1.0000   1.0000   1.0000   1.0000   1.0000   1.0000   1.0000   1.0000
     1.0000   1.0000   1.0000   1.0000   1.0000   1.0000   1.0000   1.0000
     1.0000   1.0000   1.0000   1.0000   1.0000   1.0000   1.0000   1.0000
     1.0000   1.0000   1.0000   1.0000  -0.0000  -0.0000  -0.0000  -0.0000
    -0.0000  -0.0000  -0.0000  -0.0000  -0.0000  -0.0000  -0.0000  -0.0000
    -0.0000  -0.0000  -0.0000  -0.0000  -0.0000  -0.0000  -0.0000  -0.0000
    -0.0000  -0.0000  -0.0000  -0.0000  -0.0000  -0.0000  -0.0000  -0.0000
    -0.0000  -0.0000  -0.0000  -0.0000  -0.0000  -0.0000  -0.0000  -0.0000

          k =-0.1667-0.4811-0.1479 ( 11540 PWs)   bands (ev):

   -69.0394 -69.0394 -69.0393 -69.0393 -35.9763 -35.9763 -35.9755 -35.9755
   -35.6889 -35.6889 -35.6880 -35.6880 -35.6868 -35.6868 -35.6859 -35.6859
   -20.8181 -20.8181 -16.0929 -16.0929 -16.0926 -16.0926 -16.0920 -16.0920
   -16.0908 -16.0908 -13.1218 -13.1218 -13.1201 -13.1201 -13.1097 -13.1097
   -13.1074 -13.1074 -13.0998 -13.0998 -13.0993 -13.0993  -7.5009  -7.5009
    -5.5863  -5.5863  -5.4709  -5.4709  -2.6503  -2.6503  -2.5354  -2.5354
     3.5907   3.5907   3.9064   3.9064   4.9302   4.9302   5.5370   5.5370
     5.8491   5.8491   6.3819   6.3819   8.8071   8.8071   9.4417   9.4417
     9.9005   9.9005  10.3492  10.3492  10.8058  10.8058  11.3171  11.3171
    11.5415  11.5415  11.9544  11.9544  12.4051  12.4051  12.6959  12.6959
    13.0682  13.0682  13.8274  13.8274  14.2183  14.2183  14.7715  14.7715
    15.1343  15.1343  15.6425  15.6425  15.8651  15.8652  16.9027  16.9027

     occupation numbers 
     1.0000   1.0000   1.0000   1.0000   1.0000   1.0000   1.0000   1.0000
     1.0000   1.0000   1.0000   1.0000   1.0000   1.0000   1.0000   1.0000
     1.0000   1.0000   1.0000   1.0000   1.0000   1.0000   1.0000   1.0000
     1.0000   1.0000   1.0000   1.0000   1.0000   1.0000   1.0000   1.0000
     1.0000   1.0000   1.0000   1.0000   1.0000   1.0000   1.0000   1.0000
     1.0000   1.0000   1.0000   1.0000   1.0000   1.0000   1.0000   1.0000
     1.0000   1.0000   1.0000   1.0000   1.0000   1.0000   1.0000   1.0000
     1.0000   1.0000   1.0000   1.0000  -0.0000  -0.0000  -0.0000  -0.0000
    -0.0000  -0.0000  -0.0000  -0.0000  -0.0000  -0.0000  -0.0000  -0.0000
    -0.0000  -0.0000  -0.0000  -0.0000  -0.0000  -0.0000  -0.0000  -0.0000
    -0.0000  -0.0000  -0.0000  -0.0000  -0.0000  -0.0000  -0.0000  -0.0000
    -0.0000  -0.0000  -0.0000  -0.0000  -0.0000  -0.0000  -0.0000  -0.0000

          k =-0.0000-0.3849 0.0000 ( 11530 PWs)   bands (ev):

   -69.0395 -69.0395 -69.0393 -69.0393 -35.9765 -35.9765 -35.9751 -35.9751
   -35.6885 -35.6885 -35.6882 -35.6882 -35.6864 -35.6864 -35.6860 -35.6860
   -20.8202 -20.8202 -16.0932 -16.0932 -16.0926 -16.0926 -16.0923 -16.0923
   -16.0911 -16.0911 -13.1224 -13.1224 -13.1205 -13.1205 -13.1102 -13.1102
   -13.1069 -13.1069 -13.1002 -13.1002 -13.1000 -13.1000  -7.4910  -7.4910
    -5.5754  -5.5754  -5.4519  -5.4519  -2.7890  -2.7890  -2.5398  -2.5398
     3.7484   3.7484   4.0885   4.0885   5.0588   5.0588   5.8062   5.8062
     6.0918   6.0918   6.6817   6.6817   8.2202   8.2202   9.3534   9.3534
    10.1838  10.1838  10.3560  10.3560  10.5451  10.5451  11.1578  11.1578
    11.4587  11.4587  11.8712  11.8712  12.2627  12.2627  12.5172  12.5172
    12.9750  12.9750  13.3708  13.3708  13.5922  13.5922  14.0061  14.0061
    14.7929  14.7929  15.1062  15.1062  15.9685  15.9686  16.5078  16.5078

     occupation numbers 
     1.0000   1.0000   1.0000   1.0000   1.0000   1.0000   1.0000   1.0000
     1.0000   1.0000   1.0000   1.0000   1.0000   1.0000   1.0000   1.0000
     1.0000   1.0000   1.0000   1.0000   1.0000   1.0000   1.0000   1.0000
     1.0000   1.0000   1.0000   1.0000   1.0000   1.0000   1.0000   1.0000
     1.0000   1.0000   1.0000   1.0000   1.0000   1.0000   1.0000   1.0000
     1.0000   1.0000   1.0000   1.0000   1.0000   1.0000   1.0000   1.0000
     1.0000   1.0000   1.0000   1.0000   1.0000   1.0000   1.0000   1.0000
     1.0000   1.0000   1.0000   1.0000  -0.0002  -0.0002  -0.0000  -0.0000
    -0.0000  -0.0000  -0.0000  -0.0000  -0.0000  -0.0000  -0.0000  -0.0000
    -0.0000  -0.0000  -0.0000  -0.0000  -0.0000  -0.0000  -0.0000  -0.0000
    -0.0000  -0.0000  -0.0000  -0.0000  -0.0000  -0.0000  -0.0000  -0.0000
    -0.0000  -0.0000  -0.0000  -0.0000  -0.0000  -0.0000  -0.0000  -0.0000

          k =-0.0000-0.3849 0.1479 ( 11525 PWs)   bands (ev):

   -69.0395 -69.0395 -69.0393 -69.0393 -35.9762 -35.9762 -35.9753 -35.9753
   -35.6883 -35.6883 -35.6881 -35.6881 -35.6864 -35.6864 -35.6862 -35.6862
   -20.8202 -20.8202 -16.0930 -16.0930 -16.0927 -16.0927 -16.0922 -16.0922
   -16.0913 -16.0913 -13.1218 -13.1218 -13.1210 -13.1210 -13.1096 -13.1096
   -13.1076 -13.1076 -13.1004 -13.1004 -13.0998 -13.0998  -7.4910  -7.4910
    -5.5748  -5.5748  -5.4526  -5.4526  -2.8347  -2.8347  -2.4843  -2.4843
     3.6294   3.6294   3.9299   3.9299   5.2646   5.2646   5.9316   5.9316
     6.1563   6.1563   7.1117   7.1117   8.3440   8.3440   9.1131   9.1131
     9.2739   9.2739   9.8035   9.8035  10.3725  10.3725  10.8618  10.8618
    11.0372  11.0372  12.3651  12.3651  13.0269  13.0269  13.2822  13.2822
    13.5571  13.5571  13.8847  13.8847  13.9674  13.9674  14.4364  14.4364
    14.5796  14.5796  14.9409  14.9409  15.6760  15.6760  15.9696  15.9696

     occupation numbers 
     1.0000   1.0000   1.0000   1.0000   1.0000   1.0000   1.0000   1.0000
     1.0000   1.0000   1.0000   1.0000   1.0000   1.0000   1.0000   1.0000
     1.0000   1.0000   1.0000   1.0000   1.0000   1.0000   1.0000   1.0000
     1.0000   1.0000   1.0000   1.0000   1.0000   1.0000   1.0000   1.0000
     1.0000   1.0000   1.0000   1.0000   1.0000   1.0000   1.0000   1.0000
     1.0000   1.0000   1.0000   1.0000   1.0000   1.0000   1.0000   1.0000
     1.0000   1.0000   1.0000   1.0000   1.0000   1.0000   1.0000   1.0000
     1.0000   1.0000   1.0000   1.0000  -0.0000  -0.0000  -0.0000  -0.0000
    -0.0000  -0.0000  -0.0000  -0.0000  -0.0000  -0.0000  -0.0000  -0.0000
    -0.0000  -0.0000  -0.0000  -0.0000  -0.0000  -0.0000  -0.0000  -0.0000
    -0.0000  -0.0000  -0.0000  -0.0000  -0.0000  -0.0000  -0.0000  -0.0000
    -0.0000  -0.0000  -0.0000  -0.0000  -0.0000  -0.0000  -0.0000  -0.0000

          k =-0.0000-0.3849-0.2958 ( 11510 PWs)   bands (ev):

   -69.0395 -69.0395 -69.0393 -69.0393 -35.9761 -35.9761 -35.9751 -35.9751
   -35.6883 -35.6883 -35.6879 -35.6879 -35.6864 -35.6864 -35.6859 -35.6859
   -20.8202 -20.8202 -16.0931 -16.0931 -16.0928 -16.0928 -16.0919 -16.0919
   -16.0913 -16.0913 -13.1222 -13.1222 -13.1209 -13.1209 -13.1089 -13.1089
   -13.1081 -13.1081 -13.1005 -13.1005 -13.0997 -13.0997  -7.4911  -7.4911
    -5.5751  -5.5751  -5.4529  -5.4529  -2.7974  -2.7974  -2.5263  -2.5263
     3.6403   3.6403   3.9651   3.9651   5.3175   5.3175   5.8624   5.8624
     6.1643   6.1643   6.9757   6.9757   8.4233   8.4233   9.1199   9.1199
     9.4109   9.4109   9.5449   9.5449  10.5029  10.5029  10.8797  10.8797
    11.1961  11.1961  12.2020  12.2020  12.7803  12.7803  13.0530  13.0530
    13.1997  13.1997  13.9662  13.9662  14.3444  14.3444  14.6101  14.6101
    15.0062  15.0062  15.1496  15.1496  15.6880  15.6881  16.2685  16.2686

     occupation numbers 
     1.0000   1.0000   1.0000   1.0000   1.0000   1.0000   1.0000   1.0000
     1.0000   1.0000   1.0000   1.0000   1.0000   1.0000   1.0000   1.0000
     1.0000   1.0000   1.0000   1.0000   1.0000   1.0000   1.0000   1.0000
     1.0000   1.0000   1.0000   1.0000   1.0000   1.0000   1.0000   1.0000
     1.0000   1.0000   1.0000   1.0000   1.0000   1.0000   1.0000   1.0000
     1.0000   1.0000   1.0000   1.0000   1.0000   1.0000   1.0000   1.0000
     1.0000   1.0000   1.0000   1.0000   1.0000   1.0000   1.0000   1.0000
     1.0000   1.0000   1.0000   1.0000  -0.0000  -0.0000  -0.0000  -0.0000
    -0.0000  -0.0000  -0.0000  -0.0000  -0.0000  -0.0000  -0.0000  -0.0000
    -0.0000  -0.0000  -0.0000  -0.0000  -0.0000  -0.0000  -0.0000  -0.0000
    -0.0000  -0.0000  -0.0000  -0.0000  -0.0000  -0.0000  -0.0000  -0.0000
    -0.0000  -0.0000  -0.0000  -0.0000  -0.0000  -0.0000  -0.0000  -0.0000

          k =-0.0000-0.3849-0.1479 ( 11525 PWs)   bands (ev):

   -69.0395 -69.0395 -69.0393 -69.0393 -35.9763 -35.9763 -35.9751 -35.9751
   -35.6885 -35.6885 -35.6880 -35.6880 -35.6866 -35.6866 -35.6859 -35.6859
   -20.8202 -20.8202 -16.0933 -16.0933 -16.0928 -16.0928 -16.0921 -16.0921
   -16.0911 -16.0911 -13.1226 -13.1226 -13.1204 -13.1204 -13.1098 -13.1098
   -13.1072 -13.1072 -13.1003 -13.1003 -13.0998 -13.0998  -7.4910  -7.4910
    -5.5757  -5.5757  -5.4523  -5.4523  -2.7240  -2.7240  -2.6094  -2.6094
     3.7538   3.7538   4.1447   4.1447   5.1134   5.1134   5.6286   5.6286
     6.2120   6.2120   6.5944   6.5944   8.2121   8.2121   9.2609   9.2609
    10.1407  10.1407  10.4938  10.4938  10.6798  10.6798  11.3096  11.3096
    11.5026  11.5026  11.7978  11.7978  12.0327  12.0327  12.5088  12.5088
    12.7435  12.7435  13.1586  13.1586  13.4960  13.4960  13.9399  13.9399
    15.4625  15.4625  15.6586  15.6586  16.5181  16.5181  16.6192  16.6193

     occupation numbers 
     1.0000   1.0000   1.0000   1.0000   1.0000   1.0000   1.0000   1.0000
     1.0000   1.0000   1.0000   1.0000   1.0000   1.0000   1.0000   1.0000
     1.0000   1.0000   1.0000   1.0000   1.0000   1.0000   1.0000   1.0000
     1.0000   1.0000   1.0000   1.0000   1.0000   1.0000   1.0000   1.0000
     1.0000   1.0000   1.0000   1.0000   1.0000   1.0000   1.0000   1.0000
     1.0000   1.0000   1.0000   1.0000   1.0000   1.0000   1.0000   1.0000
     1.0000   1.0000   1.0000   1.0000   1.0000   1.0000   1.0000   1.0000
     1.0000   1.0000   1.0000   1.0000  -0.0003  -0.0003  -0.0000  -0.0000
    -0.0000  -0.0000  -0.0000  -0.0000  -0.0000  -0.0000  -0.0000  -0.0000
    -0.0000  -0.0000  -0.0000  -0.0000  -0.0000  -0.0000  -0.0000  -0.0000
    -0.0000  -0.0000  -0.0000  -0.0000  -0.0000  -0.0000  -0.0000  -0.0000
    -0.0000  -0.0000  -0.0000  -0.0000  -0.0000  -0.0000  -0.0000  -0.0000

          k = 0.1667-0.2887 0.0000 ( 11513 PWs)   bands (ev):

   -69.0395 -69.0395 -69.0393 -69.0393 -35.9764 -35.9764 -35.9748 -35.9748
   -35.6886 -35.6886 -35.6879 -35.6879 -35.6863 -35.6863 -35.6857 -35.6857
   -20.8212 -20.8212 -16.0931 -16.0931 -16.0928 -16.0928 -16.0924 -16.0924
   -16.0913 -16.0913 -13.1225 -13.1225 -13.1210 -13.1210 -13.1099 -13.1099
   -13.1071 -13.1071 -13.1005 -13.1005 -13.1003 -13.1003  -7.4854  -7.4854
    -5.5537  -5.5537  -5.4609  -5.4609  -2.8620  -2.8620  -2.5324  -2.5324
     3.7915   3.7915   4.4185   4.4185   4.9612   4.9612   5.7621   5.7621
     6.0518   6.0518   6.9113   6.9113   8.8654   8.8654   9.2719   9.2719
     9.7064   9.7064  10.3035  10.3035  10.4394  10.4394  11.1672  11.1672
    11.3136  11.3136  11.7271  11.7271  11.8902  11.8902  12.2022  12.2022
    13.0012  13.0012  13.1581  13.1581  13.3475  13.3475  14.3772  14.3772
    14.8938  14.8938  15.0775  15.0775  16.0304  16.0304  16.2647  16.2647

     occupation numbers 
     1.0000   1.0000   1.0000   1.0000   1.0000   1.0000   1.0000   1.0000
     1.0000   1.0000   1.0000   1.0000   1.0000   1.0000   1.0000   1.0000
     1.0000   1.0000   1.0000   1.0000   1.0000   1.0000   1.0000   1.0000
     1.0000   1.0000   1.0000   1.0000   1.0000   1.0000   1.0000   1.0000
     1.0000   1.0000   1.0000   1.0000   1.0000   1.0000   1.0000   1.0000
     1.0000   1.0000   1.0000   1.0000   1.0000   1.0000   1.0000   1.0000
     1.0000   1.0000   1.0000   1.0000   1.0000   1.0000   1.0000   1.0000
     1.0000   1.0000   1.0000   1.0000  -0.0000  -0.0000  -0.0000  -0.0000
    -0.0000  -0.0000  -0.0000  -0.0000  -0.0000  -0.0000  -0.0000  -0.0000
    -0.0000  -0.0000  -0.0000  -0.0000  -0.0000  -0.0000  -0.0000  -0.0000
    -0.0000  -0.0000  -0.0000  -0.0000  -0.0000  -0.0000  -0.0000  -0.0000
    -0.0000  -0.0000  -0.0000  -0.0000  -0.0000  -0.0000  -0.0000  -0.0000

          k = 0.1667-0.2887 0.1479 ( 11553 PWs)   bands (ev):

   -69.0395 -69.0395 -69.0393 -69.0393 -35.9767 -35.9767 -35.9751 -35.9751
   -35.6889 -35.6889 -35.6882 -35.6882 -35.6866 -35.6866 -35.6861 -35.6861
   -20.8212 -20.8212 -16.0931 -16.0931 -16.0929 -16.0929 -16.0923 -16.0923
   -16.0914 -16.0914 -13.1224 -13.1224 -13.1211 -13.1211 -13.1095 -13.1095
   -13.1075 -13.1075 -13.1007 -13.1007 -13.1001 -13.1001  -7.4855  -7.4855
    -5.5544  -5.5544  -5.4612  -5.4612  -2.8340  -2.8340  -2.5607  -2.5607
     3.7646   3.7646   4.2958   4.2958   5.1797   5.1797   5.7699   5.7699
     6.1508   6.1508   6.8070   6.8070   8.8373   8.8373   9.3351   9.3351
     9.7823   9.7823   9.9807   9.9807  10.3775  10.3775  10.7878  10.7878
    11.2728  11.2728  11.4899  11.4899  12.0998  12.0998  12.6863  12.6863
    12.8796  12.8796  13.5618  13.5618  13.8084  13.8084  14.0499  14.0499
    15.0354  15.0354  15.3923  15.3923  15.6409  15.6409  16.4904  16.4904

     occupation numbers 
     1.0000   1.0000   1.0000   1.0000   1.0000   1.0000   1.0000   1.0000
     1.0000   1.0000   1.0000   1.0000   1.0000   1.0000   1.0000   1.0000
     1.0000   1.0000   1.0000   1.0000   1.0000   1.0000   1.0000   1.0000
     1.0000   1.0000   1.0000   1.0000   1.0000   1.0000   1.0000   1.0000
     1.0000   1.0000   1.0000   1.0000   1.0000   1.0000   1.0000   1.0000
     1.0000   1.0000   1.0000   1.0000   1.0000   1.0000   1.0000   1.0000
     1.0000   1.0000   1.0000   1.0000   1.0000   1.0000   1.0000   1.0000
     1.0000   1.0000   1.0000   1.0000  -0.0000  -0.0000  -0.0000  -0.0000
    -0.0000  -0.0000  -0.0000  -0.0000  -0.0000  -0.0000  -0.0000  -0.0000
    -0.0000  -0.0000  -0.0000  -0.0000  -0.0000  -0.0000  -0.0000  -0.0000
    -0.0000  -0.0000  -0.0000  -0.0000  -0.0000  -0.0000  -0.0000  -0.0000
    -0.0000  -0.0000  -0.0000  -0.0000  -0.0000  -0.0000  -0.0000  -0.0000

          k = 0.1667-0.2887-0.2958 ( 11552 PWs)   bands (ev):

   -69.0395 -69.0395 -69.0393 -69.0393 -35.9766 -35.9766 -35.9752 -35.9752
   -35.6888 -35.6888 -35.6881 -35.6881 -35.6866 -35.6866 -35.6862 -35.6862
   -20.8212 -20.8212 -16.0931 -16.0931 -16.0929 -16.0929 -16.0922 -16.0921
   -16.0915 -16.0915 -13.1222 -13.1222 -13.1213 -13.1213 -13.1088 -13.1088
   -13.1081 -13.1081 -13.1008 -13.1008 -13.1000 -13.1000  -7.4856  -7.4856
    -5.5550  -5.5550  -5.4615  -5.4615  -2.7986  -2.7986  -2.5964  -2.5964
     3.7432   3.7432   4.2016   4.2016   5.4169   5.4169   5.7321   5.7321
     6.3159   6.3159   6.6195   6.6195   8.9514   8.9514   9.1852   9.1852
     9.8715   9.8715   9.9038   9.9038  10.1014  10.1014  10.7278  10.7278
    11.2004  11.2004  11.3065  11.3065  12.0366  12.0366  12.8390  12.8390
    13.2725  13.2725  13.5516  13.5516  14.0850  14.0850  14.7955  14.7955
    14.8924  14.8924  15.3554  15.3554  15.5715  15.5716  16.0897  16.0897

     occupation numbers 
     1.0000   1.0000   1.0000   1.0000   1.0000   1.0000   1.0000   1.0000
     1.0000   1.0000   1.0000   1.0000   1.0000   1.0000   1.0000   1.0000
     1.0000   1.0000   1.0000   1.0000   1.0000   1.0000   1.0000   1.0000
     1.0000   1.0000   1.0000   1.0000   1.0000   1.0000   1.0000   1.0000
     1.0000   1.0000   1.0000   1.0000   1.0000   1.0000   1.0000   1.0000
     1.0000   1.0000   1.0000   1.0000   1.0000   1.0000   1.0000   1.0000
     1.0000   1.0000   1.0000   1.0000   1.0000   1.0000   1.0000   1.0000
     1.0000   1.0000   1.0000   1.0000  -0.0000  -0.0000  -0.0000  -0.0000
    -0.0000  -0.0000  -0.0000  -0.0000  -0.0000  -0.0000  -0.0000  -0.0000
    -0.0000  -0.0000  -0.0000  -0.0000  -0.0000  -0.0000  -0.0000  -0.0000
    -0.0000  -0.0000  -0.0000  -0.0000  -0.0000  -0.0000  -0.0000  -0.0000
    -0.0000  -0.0000  -0.0000  -0.0000  -0.0000  -0.0000  -0.0000  -0.0000

          k = 0.1667-0.2887-0.1479 ( 11553 PWs)   bands (ev):

   -69.0395 -69.0395 -69.0393 -69.0393 -35.9767 -35.9767 -35.9751 -35.9751
   -35.6889 -35.6889 -35.6882 -35.6882 -35.6866 -35.6866 -35.6861 -35.6861
   -20.8212 -20.8212 -16.0931 -16.0931 -16.0929 -16.0929 -16.0923 -16.0923
   -16.0914 -16.0914 -13.1224 -13.1224 -13.1211 -13.1211 -13.1095 -13.1095
   -13.1075 -13.1075 -13.1007 -13.1007 -13.1001 -13.1001  -7.4855  -7.4855
    -5.5544  -5.5544  -5.4612  -5.4612  -2.8340  -2.8340  -2.5607  -2.5607
     3.7646   3.7646   4.2958   4.2958   5.1797   5.1797   5.7699   5.7699
     6.1508   6.1508   6.8070   6.8070   8.8373   8.8373   9.3351   9.3351
     9.7823   9.7823   9.9807   9.9807  10.3775  10.3775  10.7878  10.7878
    11.2728  11.2728  11.4899  11.4899  12.0998  12.0998  12.6863  12.6863
    12.8796  12.8796  13.5618  13.5618  13.8084  13.8084  14.0499  14.0499
    15.0354  15.0354  15.3923  15.3923  15.6409  15.6409  16.4904  16.4905

     occupation numbers 
     1.0000   1.0000   1.0000   1.0000   1.0000   1.0000   1.0000   1.0000
     1.0000   1.0000   1.0000   1.0000   1.0000   1.0000   1.0000   1.0000
     1.0000   1.0000   1.0000   1.0000   1.0000   1.0000   1.0000   1.0000
     1.0000   1.0000   1.0000   1.0000   1.0000   1.0000   1.0000   1.0000
     1.0000   1.0000   1.0000   1.0000   1.0000   1.0000   1.0000   1.0000
     1.0000   1.0000   1.0000   1.0000   1.0000   1.0000   1.0000   1.0000
     1.0000   1.0000   1.0000   1.0000   1.0000   1.0000   1.0000   1.0000
     1.0000   1.0000   1.0000   1.0000  -0.0000  -0.0000  -0.0000  -0.0000
    -0.0000  -0.0000  -0.0000  -0.0000  -0.0000  -0.0000  -0.0000  -0.0000
    -0.0000  -0.0000  -0.0000  -0.0000  -0.0000  -0.0000  -0.0000  -0.0000
    -0.0000  -0.0000  -0.0000  -0.0000  -0.0000  -0.0000  -0.0000  -0.0000
    -0.0000  -0.0000  -0.0000  -0.0000  -0.0000  -0.0000  -0.0000  -0.0000

          k =-0.5000 0.2887 0.0000 ( 11530 PWs)   bands (ev):

   -69.0394 -69.0394 -69.0393 -69.0393 -35.9760 -35.9760 -35.9757 -35.9757
   -35.6884 -35.6884 -35.6881 -35.6881 -35.6866 -35.6866 -35.6862 -35.6862
   -20.8181 -20.8181 -16.0931 -16.0931 -16.0922 -16.0922 -16.0922 -16.0922
   -16.0908 -16.0908 -13.1221 -13.1221 -13.1196 -13.1196 -13.1105 -13.1105
   -13.1068 -13.1068 -13.0996 -13.0996 -13.0993 -13.0993  -7.5020  -7.5020
    -5.6082  -5.6082  -5.4438  -5.4438  -2.6400  -2.6400  -2.5490  -2.5490
     3.4171   3.4171   3.8969   3.8969   5.3402   5.3402   5.3976   5.3976
     6.1050   6.1050   6.3426   6.3426   7.9844   7.9844   9.6782   9.6782
     9.7895   9.7895  10.6378  10.6378  11.3774  11.3774  11.4196  11.4196
    11.5942  11.5942  11.8247  11.8247  11.9096  11.9096  12.5486  12.5486
    12.6805  12.6805  14.3118  14.3118  14.6022  14.6022  14.9833  14.9833
    15.4467  15.4467  15.5360  15.5360  15.5956  15.5956  16.6274  16.6276

     occupation numbers 
     1.0000   1.0000   1.0000   1.0000   1.0000   1.0000   1.0000   1.0000
     1.0000   1.0000   1.0000   1.0000   1.0000   1.0000   1.0000   1.0000
     1.0000   1.0000   1.0000   1.0000   1.0000   1.0000   1.0000   1.0000
     1.0000   1.0000   1.0000   1.0000   1.0000   1.0000   1.0000   1.0000
     1.0000   1.0000   1.0000   1.0000   1.0000   1.0000   1.0000   1.0000
     1.0000   1.0000   1.0000   1.0000   1.0000   1.0000   1.0000   1.0000
     1.0000   1.0000   1.0000   1.0000   1.0000   1.0000   1.0000   1.0000
     1.0000   1.0000   1.0000   1.0000  -0.0326  -0.0326  -0.0000  -0.0000
    -0.0000  -0.0000  -0.0000  -0.0000  -0.0000  -0.0000  -0.0000  -0.0000
    -0.0000  -0.0000  -0.0000  -0.0000  -0.0000  -0.0000  -0.0000  -0.0000
    -0.0000  -0.0000  -0.0000  -0.0000  -0.0000  -0.0000  -0.0000  -0.0000
    -0.0000  -0.0000  -0.0000  -0.0000  -0.0000  -0.0000  -0.0000  -0.0000

          k =-0.5000 0.2887 0.1479 ( 11496 PWs)   bands (ev):

   -69.0394 -69.0394 -69.0393 -69.0393 -35.9758 -35.9758 -35.9753 -35.9753
   -35.6883 -35.6883 -35.6878 -35.6878 -35.6864 -35.6864 -35.6858 -35.6858
   -20.8181 -20.8181 -16.0931 -16.0931 -16.0926 -16.0926 -16.0919 -16.0919
   -16.0907 -16.0907 -13.1221 -13.1221 -13.1199 -13.1199 -13.1100 -13.1100
   -13.1072 -13.1072 -13.0997 -13.0997 -13.0992 -13.0992  -7.5020  -7.5020
    -5.6073  -5.6073  -5.4440  -5.4440  -2.7183  -2.7183  -2.4665  -2.4665
     3.4373   3.4373   3.7675   3.7675   5.2113   5.2113   5.6918   5.6918
     5.9783   5.9783   6.7083   6.7083   8.0800   8.0800   9.2053   9.2053
     9.5885   9.5885  10.0727  10.0727  10.8079  10.8079  11.3792  11.3792
    11.6044  11.6044  12.2520  12.2520  12.6034  12.6034  12.7942  12.7942
    13.4510  13.4510  14.3799  14.3799  14.8222  14.8222  15.1152  15.1152
    15.2123  15.2123  15.4513  15.4513  15.8855  15.8855  16.2231  16.2231

     occupation numbers 
     1.0000   1.0000   1.0000   1.0000   1.0000   1.0000   1.0000   1.0000
     1.0000   1.0000   1.0000   1.0000   1.0000   1.0000   1.0000   1.0000
     1.0000   1.0000   1.0000   1.0000   1.0000   1.0000   1.0000   1.0000
     1.0000   1.0000   1.0000   1.0000   1.0000   1.0000   1.0000   1.0000
     1.0000   1.0000   1.0000   1.0000   1.0000   1.0000   1.0000   1.0000
     1.0000   1.0000   1.0000   1.0000   1.0000   1.0000   1.0000   1.0000
     1.0000   1.0000   1.0000   1.0000   1.0000   1.0000   1.0000   1.0000
     1.0000   1.0000   1.0000   1.0000  -0.0144  -0.0144  -0.0000  -0.0000
    -0.0000  -0.0000  -0.0000  -0.0000  -0.0000  -0.0000  -0.0000  -0.0000
    -0.0000  -0.0000  -0.0000  -0.0000  -0.0000  -0.0000  -0.0000  -0.0000
    -0.0000  -0.0000  -0.0000  -0.0000  -0.0000  -0.0000  -0.0000  -0.0000
    -0.0000  -0.0000  -0.0000  -0.0000  -0.0000  -0.0000  -0.0000  -0.0000

          k =-0.5000 0.2887-0.2958 ( 11528 PWs)   bands (ev):

   -69.0394 -69.0394 -69.0393 -69.0393 -35.9761 -35.9761 -35.9755 -35.9755
   -35.6886 -35.6886 -35.6881 -35.6881 -35.6866 -35.6866 -35.6859 -35.6859
   -20.8181 -20.8181 -16.0931 -16.0931 -16.0927 -16.0927 -16.0918 -16.0918
   -16.0907 -16.0907 -13.1221 -13.1221 -13.1201 -13.1201 -13.1092 -13.1092
   -13.1078 -13.1078 -13.0998 -13.0998 -13.0991 -13.0991  -7.5019  -7.5019
    -5.6065  -5.6065  -5.4442  -5.4442  -2.7626  -2.7626  -2.4179  -2.4179
     3.4300   3.4300   3.6997   3.6997   5.1159   5.1159   5.8722   5.8722
     5.9774   5.9774   7.1186   7.1186   8.2052   8.2052   8.7059   8.7059
     9.2016   9.2016   9.8539   9.8539  10.4281  10.4281  11.3837  11.3837
    11.6079  11.6079  12.4866  12.4866  13.0453  13.0453  13.5640  13.5640
    13.9702  13.9702  14.1821  14.1821  14.7845  14.7845  15.0127  15.0127
    15.3093  15.3093  15.6270  15.6270  15.9828  15.9829  16.3610  16.3611

     occupation numbers 
     1.0000   1.0000   1.0000   1.0000   1.0000   1.0000   1.0000   1.0000
     1.0000   1.0000   1.0000   1.0000   1.0000   1.0000   1.0000   1.0000
     1.0000   1.0000   1.0000   1.0000   1.0000   1.0000   1.0000   1.0000
     1.0000   1.0000   1.0000   1.0000   1.0000   1.0000   1.0000   1.0000
     1.0000   1.0000   1.0000   1.0000   1.0000   1.0000   1.0000   1.0000
     1.0000   1.0000   1.0000   1.0000   1.0000   1.0000   1.0000   1.0000
     1.0000   1.0000   1.0000   1.0000   1.0000   1.0000   1.0000   1.0000
     1.0000   1.0000   1.0000   1.0000  -0.0004  -0.0004  -0.0000  -0.0000
    -0.0000  -0.0000  -0.0000  -0.0000  -0.0000  -0.0000  -0.0000  -0.0000
    -0.0000  -0.0000  -0.0000  -0.0000  -0.0000  -0.0000  -0.0000  -0.0000
    -0.0000  -0.0000  -0.0000  -0.0000  -0.0000  -0.0000  -0.0000  -0.0000
    -0.0000  -0.0000  -0.0000  -0.0000  -0.0000  -0.0000  -0.0000  -0.0000

          k =-0.5000 0.2887-0.1479 ( 11496 PWs)   bands (ev):

   -69.0394 -69.0394 -69.0393 -69.0393 -35.9758 -35.9758 -35.9753 -35.9753
   -35.6883 -35.6883 -35.6878 -35.6878 -35.6864 -35.6864 -35.6858 -35.6858
   -20.8181 -20.8181 -16.0931 -16.0931 -16.0926 -16.0926 -16.0919 -16.0919
   -16.0907 -16.0907 -13.1221 -13.1221 -13.1199 -13.1199 -13.1100 -13.1100
   -13.1072 -13.1072 -13.0997 -13.0997 -13.0992 -13.0992  -7.5020  -7.5020
    -5.6073  -5.6073  -5.4440  -5.4440  -2.7183  -2.7183  -2.4665  -2.4665
     3.4373   3.4373   3.7675   3.7675   5.2113   5.2113   5.6918   5.6918
     5.9783   5.9783   6.7083   6.7083   8.0800   8.0800   9.2053   9.2053
     9.5885   9.5885  10.0727  10.0727  10.8079  10.8079  11.3792  11.3792
    11.6044  11.6044  12.2520  12.2520  12.6034  12.6034  12.7942  12.7942
    13.4510  13.4510  14.3799  14.3799  14.8222  14.8222  15.1152  15.1152
    15.2123  15.2123  15.4513  15.4513  15.8855  15.8855  16.2231  16.2231

     occupation numbers 
     1.0000   1.0000   1.0000   1.0000   1.0000   1.0000   1.0000   1.0000
     1.0000   1.0000   1.0000   1.0000   1.0000   1.0000   1.0000   1.0000
     1.0000   1.0000   1.0000   1.0000   1.0000   1.0000   1.0000   1.0000
     1.0000   1.0000   1.0000   1.0000   1.0000   1.0000   1.0000   1.0000
     1.0000   1.0000   1.0000   1.0000   1.0000   1.0000   1.0000   1.0000
     1.0000   1.0000   1.0000   1.0000   1.0000   1.0000   1.0000   1.0000
     1.0000   1.0000   1.0000   1.0000   1.0000   1.0000   1.0000   1.0000
     1.0000   1.0000   1.0000   1.0000  -0.0144  -0.0144  -0.0000  -0.0000
    -0.0000  -0.0000  -0.0000  -0.0000  -0.0000  -0.0000  -0.0000  -0.0000
    -0.0000  -0.0000  -0.0000  -0.0000  -0.0000  -0.0000  -0.0000  -0.0000
    -0.0000  -0.0000  -0.0000  -0.0000  -0.0000  -0.0000  -0.0000  -0.0000
    -0.0000  -0.0000  -0.0000  -0.0000  -0.0000  -0.0000  -0.0000  -0.0000

          k =-0.3333 0.3849 0.0000 ( 11514 PWs)   bands (ev):

   -69.0394 -69.0394 -69.0393 -69.0393 -35.9761 -35.9761 -35.9753 -35.9753
   -35.6886 -35.6886 -35.6878 -35.6878 -35.6866 -35.6866 -35.6858 -35.6858
   -20.8181 -20.8181 -16.0928 -16.0928 -16.0923 -16.0923 -16.0922 -16.0922
   -16.0909 -16.0909 -13.1217 -13.1217 -13.1198 -13.1198 -13.1101 -13.1101
   -13.1072 -13.1072 -13.0997 -13.0997 -13.0994 -13.0994  -7.5010  -7.5010
    -5.5869  -5.5869  -5.4707  -5.4707  -2.6366  -2.6366  -2.5467  -2.5467
     3.5773   3.5773   3.9212   3.9212   4.8874   4.8874   5.5762   5.5762
     5.7785   5.7785   6.3884   6.3884   8.9133   8.9133   9.6301   9.6301
    10.0290  10.0290  10.3549  10.3549  10.8278  10.8278  11.0835  11.0835
    11.5081  11.5081  11.7573  11.7573  12.3956  12.3956  12.8294  12.8294
    13.3217  13.3217  13.5479  13.5479  14.1331  14.1331  14.7282  14.7282
    15.0256  15.0256  15.3207  15.3208  15.9386  15.9386  16.6203  16.6204

     occupation numbers 
     1.0000   1.0000   1.0000   1.0000   1.0000   1.0000   1.0000   1.0000
     1.0000   1.0000   1.0000   1.0000   1.0000   1.0000   1.0000   1.0000
     1.0000   1.0000   1.0000   1.0000   1.0000   1.0000   1.0000   1.0000
     1.0000   1.0000   1.0000   1.0000   1.0000   1.0000   1.0000   1.0000
     1.0000   1.0000   1.0000   1.0000   1.0000   1.0000   1.0000   1.0000
     1.0000   1.0000   1.0000   1.0000   1.0000   1.0000   1.0000   1.0000
     1.0000   1.0000   1.0000   1.0000   1.0000   1.0000   1.0000   1.0000
     1.0000   1.0000   1.0000   1.0000  -0.0000  -0.0000  -0.0000  -0.0000
    -0.0000  -0.0000  -0.0000  -0.0000  -0.0000  -0.0000  -0.0000  -0.0000
    -0.0000  -0.0000  -0.0000  -0.0000  -0.0000  -0.0000  -0.0000  -0.0000
    -0.0000  -0.0000  -0.0000  -0.0000  -0.0000  -0.0000  -0.0000  -0.0000
    -0.0000  -0.0000  -0.0000  -0.0000  -0.0000  -0.0000  -0.0000  -0.0000

          k =-0.3333 0.3849 0.1479 ( 11540 PWs)   bands (ev):

   -69.0394 -69.0394 -69.0393 -69.0393 -35.9762 -35.9762 -35.9756 -35.9756
   -35.6888 -35.6888 -35.6879 -35.6879 -35.6868 -35.6868 -35.6860 -35.6860
   -20.8181 -20.8181 -16.0928 -16.0928 -16.0926 -16.0926 -16.0920 -16.0920
   -16.0908 -16.0908 -13.1215 -13.1215 -13.1203 -13.1203 -13.1097 -13.1097
   -13.1075 -13.1075 -13.0998 -13.0998 -13.0993 -13.0993  -7.5009  -7.5009
    -5.5860  -5.5860  -5.4710  -5.4710  -2.7045  -2.7045  -2.4759  -2.4759
     3.5540   3.5540   3.8283   3.8283   4.9780   4.9780   5.6153   5.6153
     5.8497   5.8497   6.5403   6.5403   8.6572   8.6572   9.5148   9.5148
     9.8925   9.8925  10.0516  10.0516  10.6762  10.6762  10.9533  10.9533
    11.5182  11.5182  12.2023  12.2023  12.5916  12.5916  13.1925  13.1925
    13.4114  13.4114  13.8411  13.8411  14.3009  14.3009  14.6886  14.6886
    15.1002  15.1002  15.4200  15.4200  15.7321  15.7321  16.3893  16.3894

     occupation numbers 
     1.0000   1.0000   1.0000   1.0000   1.0000   1.0000   1.0000   1.0000
     1.0000   1.0000   1.0000   1.0000   1.0000   1.0000   1.0000   1.0000
     1.0000   1.0000   1.0000   1.0000   1.0000   1.0000   1.0000   1.0000
     1.0000   1.0000   1.0000   1.0000   1.0000   1.0000   1.0000   1.0000
     1.0000   1.0000   1.0000   1.0000   1.0000   1.0000   1.0000   1.0000
     1.0000   1.0000   1.0000   1.0000   1.0000   1.0000   1.0000   1.0000
     1.0000   1.0000   1.0000   1.0000   1.0000   1.0000   1.0000   1.0000
     1.0000   1.0000   1.0000   1.0000  -0.0000  -0.0000  -0.0000  -0.0000
    -0.0000  -0.0000  -0.0000  -0.0000  -0.0000  -0.0000  -0.0000  -0.0000
    -0.0000  -0.0000  -0.0000  -0.0000  -0.0000  -0.0000  -0.0000  -0.0000
    -0.0000  -0.0000  -0.0000  -0.0000  -0.0000  -0.0000  -0.0000  -0.0000
    -0.0000  -0.0000  -0.0000  -0.0000  -0.0000  -0.0000  -0.0000  -0.0000

          k =-0.3333 0.3849-0.2958 ( 11530 PWs)   bands (ev):

   -69.0394 -69.0394 -69.0393 -69.0393 -35.9761 -35.9761 -35.9755 -35.9755
   -35.6887 -35.6887 -35.6880 -35.6880 -35.6866 -35.6866 -35.6859 -35.6859
   -20.8181 -20.8181 -16.0930 -16.0930 -16.0927 -16.0927 -16.0920 -16.0920
   -16.0907 -16.0907 -13.1216 -13.1216 -13.1205 -13.1205 -13.1093 -13.1093
   -13.1076 -13.1076 -13.0999 -13.0999 -13.0992 -13.0992  -7.5009  -7.5009
    -5.5854  -5.5854  -5.4712  -5.4712  -2.7111  -2.7111  -2.4717  -2.4717
     3.5608   3.5608   3.8276   3.8276   4.9989   4.9989   5.6118   5.6118
     5.8922   5.8922   6.5527   6.5527   8.5995   8.5995   9.1882   9.1882
     9.7403   9.7403  10.1116  10.1116  10.9600  10.9600  11.2067  11.2067
    11.5031  11.5031  11.8096  11.8096  12.7589  12.7589  13.1548  13.1548
    13.4575  13.4575  13.8060  13.8060  14.4511  14.4511  14.8253  14.8253
    15.0837  15.0837  15.6942  15.6942  15.9984  15.9984  16.7246  16.7246

     occupation numbers 
     1.0000   1.0000   1.0000   1.0000   1.0000   1.0000   1.0000   1.0000
     1.0000   1.0000   1.0000   1.0000   1.0000   1.0000   1.0000   1.0000
     1.0000   1.0000   1.0000   1.0000   1.0000   1.0000   1.0000   1.0000
     1.0000   1.0000   1.0000   1.0000   1.0000   1.0000   1.0000   1.0000
     1.0000   1.0000   1.0000   1.0000   1.0000   1.0000   1.0000   1.0000
     1.0000   1.0000   1.0000   1.0000   1.0000   1.0000   1.0000   1.0000
     1.0000   1.0000   1.0000   1.0000   1.0000   1.0000   1.0000   1.0000
     1.0000   1.0000   1.0000   1.0000  -0.0000  -0.0000  -0.0000  -0.0000
    -0.0000  -0.0000  -0.0000  -0.0000  -0.0000  -0.0000  -0.0000  -0.0000
    -0.0000  -0.0000  -0.0000  -0.0000  -0.0000  -0.0000  -0.0000  -0.0000
    -0.0000  -0.0000  -0.0000  -0.0000  -0.0000  -0.0000  -0.0000  -0.0000
    -0.0000  -0.0000  -0.0000  -0.0000  -0.0000  -0.0000  -0.0000  -0.0000

          k =-0.3333 0.3849-0.1479 ( 11540 PWs)   bands (ev):

   -69.0394 -69.0394 -69.0393 -69.0393 -35.9763 -35.9763 -35.9755 -35.9755
   -35.6889 -35.6889 -35.6880 -35.6880 -35.6868 -35.6868 -35.6859 -35.6859
   -20.8181 -20.8181 -16.0929 -16.0929 -16.0926 -16.0926 -16.0920 -16.0920
   -16.0908 -16.0908 -13.1218 -13.1218 -13.1201 -13.1201 -13.1097 -13.1097
   -13.1074 -13.1074 -13.0998 -13.0998 -13.0993 -13.0993  -7.5009  -7.5009
    -5.5863  -5.5863  -5.4709  -5.4709  -2.6503  -2.6503  -2.5354  -2.5354
     3.5907   3.5907   3.9064   3.9064   4.9302   4.9302   5.5370   5.5370
     5.8491   5.8491   6.3819   6.3819   8.8071   8.8071   9.4417   9.4417
     9.9005   9.9005  10.3492  10.3492  10.8058  10.8058  11.3171  11.3171
    11.5415  11.5415  11.9544  11.9544  12.4051  12.4051  12.6959  12.6959
    13.0682  13.0682  13.8274  13.8274  14.2183  14.2183  14.7715  14.7715
    15.1343  15.1343  15.6425  15.6425  15.8651  15.8651  16.9025  16.9029

     occupation numbers 
     1.0000   1.0000   1.0000   1.0000   1.0000   1.0000   1.0000   1.0000
     1.0000   1.0000   1.0000   1.0000   1.0000   1.0000   1.0000   1.0000
     1.0000   1.0000   1.0000   1.0000   1.0000   1.0000   1.0000   1.0000
     1.0000   1.0000   1.0000   1.0000   1.0000   1.0000   1.0000   1.0000
     1.0000   1.0000   1.0000   1.0000   1.0000   1.0000   1.0000   1.0000
     1.0000   1.0000   1.0000   1.0000   1.0000   1.0000   1.0000   1.0000
     1.0000   1.0000   1.0000   1.0000   1.0000   1.0000   1.0000   1.0000
     1.0000   1.0000   1.0000   1.0000  -0.0000  -0.0000  -0.0000  -0.0000
    -0.0000  -0.0000  -0.0000  -0.0000  -0.0000  -0.0000  -0.0000  -0.0000
    -0.0000  -0.0000  -0.0000  -0.0000  -0.0000  -0.0000  -0.0000  -0.0000
    -0.0000  -0.0000  -0.0000  -0.0000  -0.0000  -0.0000  -0.0000  -0.0000
    -0.0000  -0.0000  -0.0000  -0.0000  -0.0000  -0.0000  -0.0000  -0.0000

          k =-0.1667 0.4811 0.0000 ( 11514 PWs)   bands (ev):

   -69.0394 -69.0394 -69.0393 -69.0393 -35.9761 -35.9761 -35.9753 -35.9753
   -35.6886 -35.6886 -35.6878 -35.6878 -35.6866 -35.6866 -35.6858 -35.6858
   -20.8181 -20.8181 -16.0928 -16.0928 -16.0923 -16.0923 -16.0922 -16.0922
   -16.0909 -16.0909 -13.1217 -13.1217 -13.1198 -13.1198 -13.1101 -13.1101
   -13.1072 -13.1072 -13.0997 -13.0997 -13.0994 -13.0994  -7.5010  -7.5010
    -5.5869  -5.5869  -5.4707  -5.4707  -2.6366  -2.6366  -2.5467  -2.5467
     3.5773   3.5773   3.9212   3.9212   4.8874   4.8874   5.5762   5.5762
     5.7785   5.7785   6.3884   6.3884   8.9133   8.9133   9.6301   9.6301
    10.0290  10.0290  10.3549  10.3549  10.8278  10.8278  11.0835  11.0835
    11.5081  11.5081  11.7573  11.7573  12.3956  12.3956  12.8294  12.8294
    13.3217  13.3217  13.5479  13.5479  14.1331  14.1331  14.7282  14.7282
    15.0256  15.0256  15.3207  15.3208  15.9386  15.9386  16.6203  16.6203

     occupation numbers 
     1.0000   1.0000   1.0000   1.0000   1.0000   1.0000   1.0000   1.0000
     1.0000   1.0000   1.0000   1.0000   1.0000   1.0000   1.0000   1.0000
     1.0000   1.0000   1.0000   1.0000   1.0000   1.0000   1.0000   1.0000
     1.0000   1.0000   1.0000   1.0000   1.0000   1.0000   1.0000   1.0000
     1.0000   1.0000   1.0000   1.0000   1.0000   1.0000   1.0000   1.0000
     1.0000   1.0000   1.0000   1.0000   1.0000   1.0000   1.0000   1.0000
     1.0000   1.0000   1.0000   1.0000   1.0000   1.0000   1.0000   1.0000
     1.0000   1.0000   1.0000   1.0000  -0.0000  -0.0000  -0.0000  -0.0000
    -0.0000  -0.0000  -0.0000  -0.0000  -0.0000  -0.0000  -0.0000  -0.0000
    -0.0000  -0.0000  -0.0000  -0.0000  -0.0000  -0.0000  -0.0000  -0.0000
    -0.0000  -0.0000  -0.0000  -0.0000  -0.0000  -0.0000  -0.0000  -0.0000
    -0.0000  -0.0000  -0.0000  -0.0000  -0.0000  -0.0000  -0.0000  -0.0000

          k =-0.1667 0.4811 0.1479 ( 11540 PWs)   bands (ev):

   -69.0394 -69.0394 -69.0393 -69.0393 -35.9763 -35.9763 -35.9755 -35.9755
   -35.6889 -35.6889 -35.6880 -35.6880 -35.6868 -35.6868 -35.6859 -35.6859
   -20.8181 -20.8181 -16.0929 -16.0929 -16.0926 -16.0926 -16.0920 -16.0920
   -16.0908 -16.0908 -13.1218 -13.1218 -13.1201 -13.1201 -13.1097 -13.1097
   -13.1074 -13.1074 -13.0998 -13.0998 -13.0993 -13.0993  -7.5009  -7.5009
    -5.5863  -5.5863  -5.4709  -5.4709  -2.6503  -2.6503  -2.5354  -2.5354
     3.5907   3.5907   3.9064   3.9064   4.9302   4.9302   5.5370   5.5370
     5.8491   5.8491   6.3819   6.3819   8.8071   8.8071   9.4417   9.4417
     9.9005   9.9005  10.3492  10.3492  10.8058  10.8058  11.3171  11.3171
    11.5415  11.5415  11.9544  11.9544  12.4051  12.4051  12.6959  12.6959
    13.0682  13.0682  13.8274  13.8274  14.2183  14.2183  14.7715  14.7715
    15.1343  15.1343  15.6424  15.6425  15.8651  15.8651  16.9026  16.9029

     occupation numbers 
     1.0000   1.0000   1.0000   1.0000   1.0000   1.0000   1.0000   1.0000
     1.0000   1.0000   1.0000   1.0000   1.0000   1.0000   1.0000   1.0000
     1.0000   1.0000   1.0000   1.0000   1.0000   1.0000   1.0000   1.0000
     1.0000   1.0000   1.0000   1.0000   1.0000   1.0000   1.0000   1.0000
     1.0000   1.0000   1.0000   1.0000   1.0000   1.0000   1.0000   1.0000
     1.0000   1.0000   1.0000   1.0000   1.0000   1.0000   1.0000   1.0000
     1.0000   1.0000   1.0000   1.0000   1.0000   1.0000   1.0000   1.0000
     1.0000   1.0000   1.0000   1.0000  -0.0000  -0.0000  -0.0000  -0.0000
    -0.0000  -0.0000  -0.0000  -0.0000  -0.0000  -0.0000  -0.0000  -0.0000
    -0.0000  -0.0000  -0.0000  -0.0000  -0.0000  -0.0000  -0.0000  -0.0000
    -0.0000  -0.0000  -0.0000  -0.0000  -0.0000  -0.0000  -0.0000  -0.0000
    -0.0000  -0.0000  -0.0000  -0.0000  -0.0000  -0.0000  -0.0000  -0.0000

          k =-0.1667 0.4811-0.2958 ( 11530 PWs)   bands (ev):

   -69.0394 -69.0394 -69.0393 -69.0393 -35.9761 -35.9761 -35.9755 -35.9755
   -35.6887 -35.6887 -35.6880 -35.6880 -35.6866 -35.6866 -35.6859 -35.6859
   -20.8181 -20.8181 -16.0930 -16.0930 -16.0927 -16.0927 -16.0920 -16.0920
   -16.0907 -16.0907 -13.1216 -13.1216 -13.1205 -13.1205 -13.1093 -13.1093
   -13.1076 -13.1076 -13.0999 -13.0999 -13.0992 -13.0992  -7.5009  -7.5009
    -5.5854  -5.5854  -5.4712  -5.4712  -2.7111  -2.7111  -2.4717  -2.4717
     3.5608   3.5608   3.8276   3.8276   4.9989   4.9989   5.6118   5.6118
     5.8922   5.8922   6.5527   6.5527   8.5995   8.5995   9.1882   9.1882
     9.7403   9.7403  10.1116  10.1116  10.9600  10.9600  11.2067  11.2067
    11.5031  11.5031  11.8096  11.8096  12.7589  12.7589  13.1548  13.1548
    13.4575  13.4575  13.8060  13.8060  14.4511  14.4511  14.8253  14.8253
    15.0837  15.0837  15.6942  15.6942  15.9984  15.9984  16.7246  16.7246

     occupation numbers 
     1.0000   1.0000   1.0000   1.0000   1.0000   1.0000   1.0000   1.0000
     1.0000   1.0000   1.0000   1.0000   1.0000   1.0000   1.0000   1.0000
     1.0000   1.0000   1.0000   1.0000   1.0000   1.0000   1.0000   1.0000
     1.0000   1.0000   1.0000   1.0000   1.0000   1.0000   1.0000   1.0000
     1.0000   1.0000   1.0000   1.0000   1.0000   1.0000   1.0000   1.0000
     1.0000   1.0000   1.0000   1.0000   1.0000   1.0000   1.0000   1.0000
     1.0000   1.0000   1.0000   1.0000   1.0000   1.0000   1.0000   1.0000
     1.0000   1.0000   1.0000   1.0000  -0.0000  -0.0000  -0.0000  -0.0000
    -0.0000  -0.0000  -0.0000  -0.0000  -0.0000  -0.0000  -0.0000  -0.0000
    -0.0000  -0.0000  -0.0000  -0.0000  -0.0000  -0.0000  -0.0000  -0.0000
    -0.0000  -0.0000  -0.0000  -0.0000  -0.0000  -0.0000  -0.0000  -0.0000
    -0.0000  -0.0000  -0.0000  -0.0000  -0.0000  -0.0000  -0.0000  -0.0000

          k =-0.1667 0.4811-0.1479 ( 11540 PWs)   bands (ev):

   -69.0394 -69.0394 -69.0393 -69.0393 -35.9762 -35.9762 -35.9756 -35.9756
   -35.6888 -35.6888 -35.6879 -35.6879 -35.6868 -35.6868 -35.6860 -35.6860
   -20.8181 -20.8181 -16.0928 -16.0928 -16.0926 -16.0926 -16.0920 -16.0920
   -16.0908 -16.0908 -13.1215 -13.1215 -13.1203 -13.1203 -13.1097 -13.1097
   -13.1075 -13.1075 -13.0998 -13.0998 -13.0993 -13.0993  -7.5009  -7.5009
    -5.5860  -5.5860  -5.4710  -5.4710  -2.7045  -2.7045  -2.4759  -2.4759
     3.5540   3.5540   3.8283   3.8283   4.9780   4.9780   5.6153   5.6153
     5.8497   5.8497   6.5403   6.5403   8.6572   8.6572   9.5148   9.5148
     9.8925   9.8925  10.0516  10.0516  10.6762  10.6762  10.9533  10.9533
    11.5182  11.5182  12.2023  12.2023  12.5916  12.5916  13.1925  13.1925
    13.4114  13.4114  13.8411  13.8411  14.3009  14.3009  14.6886  14.6886
    15.1002  15.1002  15.4200  15.4200  15.7321  15.7321  16.3893  16.3894

     occupation numbers 
     1.0000   1.0000   1.0000   1.0000   1.0000   1.0000   1.0000   1.0000
     1.0000   1.0000   1.0000   1.0000   1.0000   1.0000   1.0000   1.0000
     1.0000   1.0000   1.0000   1.0000   1.0000   1.0000   1.0000   1.0000
     1.0000   1.0000   1.0000   1.0000   1.0000   1.0000   1.0000   1.0000
     1.0000   1.0000   1.0000   1.0000   1.0000   1.0000   1.0000   1.0000
     1.0000   1.0000   1.0000   1.0000   1.0000   1.0000   1.0000   1.0000
     1.0000   1.0000   1.0000   1.0000   1.0000   1.0000   1.0000   1.0000
     1.0000   1.0000   1.0000   1.0000  -0.0000  -0.0000  -0.0000  -0.0000
    -0.0000  -0.0000  -0.0000  -0.0000  -0.0000  -0.0000  -0.0000  -0.0000
    -0.0000  -0.0000  -0.0000  -0.0000  -0.0000  -0.0000  -0.0000  -0.0000
    -0.0000  -0.0000  -0.0000  -0.0000  -0.0000  -0.0000  -0.0000  -0.0000
    -0.0000  -0.0000  -0.0000  -0.0000  -0.0000  -0.0000  -0.0000  -0.0000

          k =-1.0000 0.0000 0.0000 ( 11530 PWs)   bands (ev):

   -69.0394 -69.0394 -69.0393 -69.0393 -35.9760 -35.9760 -35.9757 -35.9757
   -35.6884 -35.6884 -35.6881 -35.6881 -35.6866 -35.6866 -35.6862 -35.6862
   -20.8181 -20.8181 -16.0931 -16.0931 -16.0922 -16.0922 -16.0922 -16.0922
   -16.0908 -16.0908 -13.1221 -13.1221 -13.1196 -13.1196 -13.1105 -13.1105
   -13.1068 -13.1068 -13.0996 -13.0996 -13.0993 -13.0993  -7.5020  -7.5020
    -5.6082  -5.6082  -5.4438  -5.4438  -2.6400  -2.6400  -2.5490  -2.5490
     3.4171   3.4171   3.8969   3.8969   5.3402   5.3402   5.3976   5.3976
     6.1050   6.1050   6.3426   6.3426   7.9844   7.9844   9.6782   9.6782
     9.7894   9.7894  10.6378  10.6378  11.3774  11.3774  11.4196  11.4196
    11.5942  11.5942  11.8247  11.8247  11.9096  11.9096  12.5486  12.5486
    12.6805  12.6805  14.3118  14.3118  14.6022  14.6022  14.9833  14.9834
    15.4467  15.4467  15.5360  15.5361  15.5956  15.5956  16.6274  16.6275

     occupation numbers 
     1.0000   1.0000   1.0000   1.0000   1.0000   1.0000   1.0000   1.0000
     1.0000   1.0000   1.0000   1.0000   1.0000   1.0000   1.0000   1.0000
     1.0000   1.0000   1.0000   1.0000   1.0000   1.0000   1.0000   1.0000
     1.0000   1.0000   1.0000   1.0000   1.0000   1.0000   1.0000   1.0000
     1.0000   1.0000   1.0000   1.0000   1.0000   1.0000   1.0000   1.0000
     1.0000   1.0000   1.0000   1.0000   1.0000   1.0000   1.0000   1.0000
     1.0000   1.0000   1.0000   1.0000   1.0000   1.0000   1.0000   1.0000
     1.0000   1.0000   1.0000   1.0000  -0.0326  -0.0326  -0.0000  -0.0000
    -0.0000  -0.0000  -0.0000  -0.0000  -0.0000  -0.0000  -0.0000  -0.0000
    -0.0000  -0.0000  -0.0000  -0.0000  -0.0000  -0.0000  -0.0000  -0.0000
    -0.0000  -0.0000  -0.0000  -0.0000  -0.0000  -0.0000  -0.0000  -0.0000
    -0.0000  -0.0000  -0.0000  -0.0000  -0.0000  -0.0000  -0.0000  -0.0000

          k =-1.0000 0.0000 0.1479 ( 11496 PWs)   bands (ev):

   -69.0394 -69.0394 -69.0393 -69.0393 -35.9758 -35.9758 -35.9753 -35.9753
   -35.6883 -35.6883 -35.6878 -35.6878 -35.6864 -35.6864 -35.6858 -35.6858
   -20.8181 -20.8181 -16.0931 -16.0931 -16.0926 -16.0926 -16.0919 -16.0919
   -16.0907 -16.0907 -13.1221 -13.1221 -13.1199 -13.1199 -13.1100 -13.1100
   -13.1072 -13.1072 -13.0997 -13.0997 -13.0992 -13.0992  -7.5020  -7.5020
    -5.6073  -5.6073  -5.4440  -5.4440  -2.7183  -2.7183  -2.4665  -2.4665
     3.4373   3.4373   3.7675   3.7675   5.2113   5.2113   5.6918   5.6918
     5.9783   5.9783   6.7083   6.7083   8.0800   8.0800   9.2053   9.2053
     9.5885   9.5885  10.0727  10.0727  10.8079  10.8079  11.3792  11.3792
    11.6044  11.6044  12.2520  12.2520  12.6034  12.6034  12.7942  12.7942
    13.4510  13.4510  14.3799  14.3799  14.8222  14.8222  15.1152  15.1152
    15.2123  15.2123  15.4513  15.4513  15.8855  15.8856  16.2231  16.2231

     occupation numbers 
     1.0000   1.0000   1.0000   1.0000   1.0000   1.0000   1.0000   1.0000
     1.0000   1.0000   1.0000   1.0000   1.0000   1.0000   1.0000   1.0000
     1.0000   1.0000   1.0000   1.0000   1.0000   1.0000   1.0000   1.0000
     1.0000   1.0000   1.0000   1.0000   1.0000   1.0000   1.0000   1.0000
     1.0000   1.0000   1.0000   1.0000   1.0000   1.0000   1.0000   1.0000
     1.0000   1.0000   1.0000   1.0000   1.0000   1.0000   1.0000   1.0000
     1.0000   1.0000   1.0000   1.0000   1.0000   1.0000   1.0000   1.0000
     1.0000   1.0000   1.0000   1.0000  -0.0144  -0.0144  -0.0000  -0.0000
    -0.0000  -0.0000  -0.0000  -0.0000  -0.0000  -0.0000  -0.0000  -0.0000
    -0.0000  -0.0000  -0.0000  -0.0000  -0.0000  -0.0000  -0.0000  -0.0000
    -0.0000  -0.0000  -0.0000  -0.0000  -0.0000  -0.0000  -0.0000  -0.0000
    -0.0000  -0.0000  -0.0000  -0.0000  -0.0000  -0.0000  -0.0000  -0.0000

          k =-1.0000 0.0000-0.2958 ( 11528 PWs)   bands (ev):

   -69.0394 -69.0394 -69.0393 -69.0393 -35.9761 -35.9761 -35.9755 -35.9755
   -35.6886 -35.6886 -35.6881 -35.6881 -35.6866 -35.6866 -35.6859 -35.6859
   -20.8181 -20.8181 -16.0931 -16.0931 -16.0927 -16.0927 -16.0918 -16.0918
   -16.0907 -16.0907 -13.1221 -13.1221 -13.1201 -13.1201 -13.1092 -13.1092
   -13.1078 -13.1078 -13.0998 -13.0998 -13.0991 -13.0991  -7.5019  -7.5019
    -5.6065  -5.6065  -5.4442  -5.4442  -2.7626  -2.7626  -2.4179  -2.4179
     3.4300   3.4300   3.6997   3.6997   5.1159   5.1159   5.8722   5.8722
     5.9774   5.9774   7.1186   7.1186   8.2052   8.2052   8.7059   8.7059
     9.2016   9.2016   9.8539   9.8539  10.4281  10.4281  11.3837  11.3837
    11.6079  11.6079  12.4866  12.4866  13.0453  13.0453  13.5640  13.5640
    13.9702  13.9702  14.1821  14.1821  14.7845  14.7845  15.0127  15.0127
    15.3093  15.3093  15.6270  15.6270  15.9828  15.9830  16.3609  16.3613

     occupation numbers 
     1.0000   1.0000   1.0000   1.0000   1.0000   1.0000   1.0000   1.0000
     1.0000   1.0000   1.0000   1.0000   1.0000   1.0000   1.0000   1.0000
     1.0000   1.0000   1.0000   1.0000   1.0000   1.0000   1.0000   1.0000
     1.0000   1.0000   1.0000   1.0000   1.0000   1.0000   1.0000   1.0000
     1.0000   1.0000   1.0000   1.0000   1.0000   1.0000   1.0000   1.0000
     1.0000   1.0000   1.0000   1.0000   1.0000   1.0000   1.0000   1.0000
     1.0000   1.0000   1.0000   1.0000   1.0000   1.0000   1.0000   1.0000
     1.0000   1.0000   1.0000   1.0000  -0.0004  -0.0004  -0.0000  -0.0000
    -0.0000  -0.0000  -0.0000  -0.0000  -0.0000  -0.0000  -0.0000  -0.0000
    -0.0000  -0.0000  -0.0000  -0.0000  -0.0000  -0.0000  -0.0000  -0.0000
    -0.0000  -0.0000  -0.0000  -0.0000  -0.0000  -0.0000  -0.0000  -0.0000
    -0.0000  -0.0000  -0.0000  -0.0000  -0.0000  -0.0000  -0.0000  -0.0000

          k =-1.0000 0.0000-0.1479 ( 11496 PWs)   bands (ev):

   -69.0394 -69.0394 -69.0393 -69.0393 -35.9758 -35.9758 -35.9753 -35.9753
   -35.6883 -35.6883 -35.6878 -35.6878 -35.6864 -35.6864 -35.6858 -35.6858
   -20.8181 -20.8181 -16.0931 -16.0931 -16.0926 -16.0926 -16.0919 -16.0919
   -16.0907 -16.0907 -13.1221 -13.1221 -13.1199 -13.1199 -13.1100 -13.1100
   -13.1072 -13.1072 -13.0997 -13.0997 -13.0992 -13.0992  -7.5020  -7.5020
    -5.6073  -5.6073  -5.4440  -5.4440  -2.7183  -2.7183  -2.4665  -2.4665
     3.4373   3.4373   3.7675   3.7675   5.2113   5.2113   5.6918   5.6918
     5.9783   5.9783   6.7083   6.7083   8.0800   8.0800   9.2053   9.2053
     9.5885   9.5885  10.0727  10.0727  10.8079  10.8079  11.3792  11.3792
    11.6044  11.6044  12.2520  12.2520  12.6034  12.6034  12.7942  12.7942
    13.4510  13.4510  14.3799  14.3799  14.8222  14.8222  15.1152  15.1152
    15.2123  15.2123  15.4513  15.4513  15.8855  15.8856  16.2231  16.2231

     occupation numbers 
     1.0000   1.0000   1.0000   1.0000   1.0000   1.0000   1.0000   1.0000
     1.0000   1.0000   1.0000   1.0000   1.0000   1.0000   1.0000   1.0000
     1.0000   1.0000   1.0000   1.0000   1.0000   1.0000   1.0000   1.0000
     1.0000   1.0000   1.0000   1.0000   1.0000   1.0000   1.0000   1.0000
     1.0000   1.0000   1.0000   1.0000   1.0000   1.0000   1.0000   1.0000
     1.0000   1.0000   1.0000   1.0000   1.0000   1.0000   1.0000   1.0000
     1.0000   1.0000   1.0000   1.0000   1.0000   1.0000   1.0000   1.0000
     1.0000   1.0000   1.0000   1.0000  -0.0144  -0.0144  -0.0000  -0.0000
    -0.0000  -0.0000  -0.0000  -0.0000  -0.0000  -0.0000  -0.0000  -0.0000
    -0.0000  -0.0000  -0.0000  -0.0000  -0.0000  -0.0000  -0.0000  -0.0000
    -0.0000  -0.0000  -0.0000  -0.0000  -0.0000  -0.0000  -0.0000  -0.0000
    -0.0000  -0.0000  -0.0000  -0.0000  -0.0000  -0.0000  -0.0000  -0.0000

          k =-0.8333 0.0962 0.0000 ( 11514 PWs)   bands (ev):

   -69.0394 -69.0394 -69.0393 -69.0393 -35.9761 -35.9761 -35.9753 -35.9753
   -35.6886 -35.6886 -35.6878 -35.6878 -35.6866 -35.6866 -35.6858 -35.6858
   -20.8181 -20.8181 -16.0928 -16.0928 -16.0923 -16.0923 -16.0922 -16.0922
   -16.0909 -16.0909 -13.1217 -13.1217 -13.1198 -13.1198 -13.1101 -13.1101
   -13.1072 -13.1072 -13.0997 -13.0997 -13.0994 -13.0994  -7.5010  -7.5010
    -5.5869  -5.5869  -5.4707  -5.4707  -2.6366  -2.6366  -2.5467  -2.5467
     3.5773   3.5773   3.9212   3.9212   4.8874   4.8874   5.5762   5.5762
     5.7785   5.7785   6.3884   6.3884   8.9133   8.9133   9.6301   9.6301
    10.0290  10.0290  10.3549  10.3549  10.8278  10.8278  11.0835  11.0835
    11.5081  11.5081  11.7573  11.7573  12.3956  12.3956  12.8294  12.8294
    13.3217  13.3217  13.5479  13.5479  14.1331  14.1331  14.7282  14.7282
    15.0256  15.0256  15.3207  15.3208  15.9386  15.9386  16.6203  16.6204

     occupation numbers 
     1.0000   1.0000   1.0000   1.0000   1.0000   1.0000   1.0000   1.0000
     1.0000   1.0000   1.0000   1.0000   1.0000   1.0000   1.0000   1.0000
     1.0000   1.0000   1.0000   1.0000   1.0000   1.0000   1.0000   1.0000
     1.0000   1.0000   1.0000   1.0000   1.0000   1.0000   1.0000   1.0000
     1.0000   1.0000   1.0000   1.0000   1.0000   1.0000   1.0000   1.0000
     1.0000   1.0000   1.0000   1.0000   1.0000   1.0000   1.0000   1.0000
     1.0000   1.0000   1.0000   1.0000   1.0000   1.0000   1.0000   1.0000
     1.0000   1.0000   1.0000   1.0000  -0.0000  -0.0000  -0.0000  -0.0000
    -0.0000  -0.0000  -0.0000  -0.0000  -0.0000  -0.0000  -0.0000  -0.0000
    -0.0000  -0.0000  -0.0000  -0.0000  -0.0000  -0.0000  -0.0000  -0.0000
    -0.0000  -0.0000  -0.0000  -0.0000  -0.0000  -0.0000  -0.0000  -0.0000
    -0.0000  -0.0000  -0.0000  -0.0000  -0.0000  -0.0000  -0.0000  -0.0000

          k =-0.8333 0.0962 0.1479 ( 11540 PWs)   bands (ev):

   -69.0394 -69.0394 -69.0393 -69.0393 -35.9762 -35.9762 -35.9756 -35.9756
   -35.6888 -35.6888 -35.6879 -35.6879 -35.6868 -35.6868 -35.6860 -35.6860
   -20.8181 -20.8181 -16.0928 -16.0928 -16.0926 -16.0926 -16.0920 -16.0920
   -16.0908 -16.0908 -13.1215 -13.1215 -13.1203 -13.1203 -13.1097 -13.1097
   -13.1075 -13.1075 -13.0998 -13.0998 -13.0993 -13.0993  -7.5009  -7.5009
    -5.5860  -5.5860  -5.4710  -5.4710  -2.7045  -2.7045  -2.4759  -2.4759
     3.5540   3.5540   3.8283   3.8283   4.9780   4.9780   5.6153   5.6153
     5.8497   5.8497   6.5403   6.5403   8.6572   8.6572   9.5148   9.5148
     9.8925   9.8925  10.0516  10.0516  10.6762  10.6762  10.9533  10.9533
    11.5182  11.5182  12.2023  12.2023  12.5916  12.5916  13.1925  13.1925
    13.4114  13.4114  13.8411  13.8411  14.3009  14.3009  14.6886  14.6886
    15.1002  15.1002  15.4200  15.4200  15.7321  15.7321  16.3893  16.3894

     occupation numbers 
     1.0000   1.0000   1.0000   1.0000   1.0000   1.0000   1.0000   1.0000
     1.0000   1.0000   1.0000   1.0000   1.0000   1.0000   1.0000   1.0000
     1.0000   1.0000   1.0000   1.0000   1.0000   1.0000   1.0000   1.0000
     1.0000   1.0000   1.0000   1.0000   1.0000   1.0000   1.0000   1.0000
     1.0000   1.0000   1.0000   1.0000   1.0000   1.0000   1.0000   1.0000
     1.0000   1.0000   1.0000   1.0000   1.0000   1.0000   1.0000   1.0000
     1.0000   1.0000   1.0000   1.0000   1.0000   1.0000   1.0000   1.0000
     1.0000   1.0000   1.0000   1.0000  -0.0000  -0.0000  -0.0000  -0.0000
    -0.0000  -0.0000  -0.0000  -0.0000  -0.0000  -0.0000  -0.0000  -0.0000
    -0.0000  -0.0000  -0.0000  -0.0000  -0.0000  -0.0000  -0.0000  -0.0000
    -0.0000  -0.0000  -0.0000  -0.0000  -0.0000  -0.0000  -0.0000  -0.0000
    -0.0000  -0.0000  -0.0000  -0.0000  -0.0000  -0.0000  -0.0000  -0.0000

          k =-0.8333 0.0962-0.2958 ( 11530 PWs)   bands (ev):

   -69.0394 -69.0394 -69.0393 -69.0393 -35.9761 -35.9761 -35.9755 -35.9755
   -35.6887 -35.6887 -35.6880 -35.6880 -35.6866 -35.6866 -35.6859 -35.6859
   -20.8181 -20.8181 -16.0930 -16.0930 -16.0927 -16.0927 -16.0920 -16.0920
   -16.0907 -16.0907 -13.1216 -13.1216 -13.1205 -13.1205 -13.1093 -13.1093
   -13.1076 -13.1076 -13.0999 -13.0999 -13.0992 -13.0992  -7.5009  -7.5009
    -5.5854  -5.5854  -5.4712  -5.4712  -2.7111  -2.7111  -2.4717  -2.4717
     3.5608   3.5608   3.8276   3.8276   4.9989   4.9989   5.6118   5.6118
     5.8922   5.8922   6.5527   6.5527   8.5995   8.5995   9.1882   9.1882
     9.7403   9.7403  10.1116  10.1116  10.9600  10.9600  11.2067  11.2067
    11.5031  11.5031  11.8096  11.8096  12.7589  12.7589  13.1548  13.1548
    13.4575  13.4575  13.8060  13.8060  14.4511  14.4511  14.8253  14.8253
    15.0837  15.0837  15.6942  15.6942  15.9984  15.9984  16.7247  16.7248

     occupation numbers 
     1.0000   1.0000   1.0000   1.0000   1.0000   1.0000   1.0000   1.0000
     1.0000   1.0000   1.0000   1.0000   1.0000   1.0000   1.0000   1.0000
     1.0000   1.0000   1.0000   1.0000   1.0000   1.0000   1.0000   1.0000
     1.0000   1.0000   1.0000   1.0000   1.0000   1.0000   1.0000   1.0000
     1.0000   1.0000   1.0000   1.0000   1.0000   1.0000   1.0000   1.0000
     1.0000   1.0000   1.0000   1.0000   1.0000   1.0000   1.0000   1.0000
     1.0000   1.0000   1.0000   1.0000   1.0000   1.0000   1.0000   1.0000
     1.0000   1.0000   1.0000   1.0000  -0.0000  -0.0000  -0.0000  -0.0000
    -0.0000  -0.0000  -0.0000  -0.0000  -0.0000  -0.0000  -0.0000  -0.0000
    -0.0000  -0.0000  -0.0000  -0.0000  -0.0000  -0.0000  -0.0000  -0.0000
    -0.0000  -0.0000  -0.0000  -0.0000  -0.0000  -0.0000  -0.0000  -0.0000
    -0.0000  -0.0000  -0.0000  -0.0000  -0.0000  -0.0000  -0.0000  -0.0000

          k =-0.8333 0.0962-0.1479 ( 11540 PWs)   bands (ev):

   -69.0394 -69.0394 -69.0393 -69.0393 -35.9763 -35.9763 -35.9755 -35.9755
   -35.6889 -35.6889 -35.6880 -35.6880 -35.6868 -35.6868 -35.6859 -35.6859
   -20.8181 -20.8181 -16.0929 -16.0929 -16.0926 -16.0926 -16.0920 -16.0920
   -16.0908 -16.0908 -13.1218 -13.1218 -13.1201 -13.1201 -13.1097 -13.1097
   -13.1074 -13.1074 -13.0998 -13.0998 -13.0993 -13.0993  -7.5009  -7.5009
    -5.5863  -5.5863  -5.4709  -5.4709  -2.6503  -2.6503  -2.5354  -2.5354
     3.5907   3.5907   3.9064   3.9064   4.9302   4.9302   5.5370   5.5370
     5.8491   5.8491   6.3819   6.3819   8.8071   8.8071   9.4417   9.4417
     9.9005   9.9005  10.3492  10.3492  10.8058  10.8058  11.3171  11.3171
    11.5415  11.5415  11.9544  11.9544  12.4051  12.4051  12.6959  12.6959
    13.0682  13.0682  13.8274  13.8274  14.2183  14.2183  14.7715  14.7715
    15.1343  15.1343  15.6424  15.6425  15.8651  15.8651  16.9027  16.9028

     occupation numbers 
     1.0000   1.0000   1.0000   1.0000   1.0000   1.0000   1.0000   1.0000
     1.0000   1.0000   1.0000   1.0000   1.0000   1.0000   1.0000   1.0000
     1.0000   1.0000   1.0000   1.0000   1.0000   1.0000   1.0000   1.0000
     1.0000   1.0000   1.0000   1.0000   1.0000   1.0000   1.0000   1.0000
     1.0000   1.0000   1.0000   1.0000   1.0000   1.0000   1.0000   1.0000
     1.0000   1.0000   1.0000   1.0000   1.0000   1.0000   1.0000   1.0000
     1.0000   1.0000   1.0000   1.0000   1.0000   1.0000   1.0000   1.0000
     1.0000   1.0000   1.0000   1.0000  -0.0000  -0.0000  -0.0000  -0.0000
    -0.0000  -0.0000  -0.0000  -0.0000  -0.0000  -0.0000  -0.0000  -0.0000
    -0.0000  -0.0000  -0.0000  -0.0000  -0.0000  -0.0000  -0.0000  -0.0000
    -0.0000  -0.0000  -0.0000  -0.0000  -0.0000  -0.0000  -0.0000  -0.0000
    -0.0000  -0.0000  -0.0000  -0.0000  -0.0000  -0.0000  -0.0000  -0.0000

          k =-0.6667 0.1925 0.0000 ( 11514 PWs)   bands (ev):

   -69.0394 -69.0394 -69.0393 -69.0393 -35.9761 -35.9761 -35.9753 -35.9753
   -35.6886 -35.6886 -35.6878 -35.6878 -35.6866 -35.6866 -35.6858 -35.6858
   -20.8181 -20.8181 -16.0928 -16.0928 -16.0923 -16.0923 -16.0922 -16.0922
   -16.0909 -16.0909 -13.1217 -13.1217 -13.1198 -13.1198 -13.1101 -13.1101
   -13.1072 -13.1072 -13.0997 -13.0997 -13.0994 -13.0994  -7.5010  -7.5010
    -5.5869  -5.5869  -5.4707  -5.4707  -2.6366  -2.6366  -2.5467  -2.5467
     3.5773   3.5773   3.9212   3.9212   4.8874   4.8874   5.5762   5.5762
     5.7785   5.7785   6.3884   6.3884   8.9133   8.9133   9.6301   9.6301
    10.0290  10.0290  10.3549  10.3549  10.8278  10.8278  11.0835  11.0835
    11.5081  11.5081  11.7573  11.7573  12.3956  12.3956  12.8294  12.8294
    13.3217  13.3217  13.5479  13.5479  14.1331  14.1331  14.7282  14.7282
    15.0256  15.0256  15.3207  15.3208  15.9386  15.9386  16.6204  16.6205

     occupation numbers 
     1.0000   1.0000   1.0000   1.0000   1.0000   1.0000   1.0000   1.0000
     1.0000   1.0000   1.0000   1.0000   1.0000   1.0000   1.0000   1.0000
     1.0000   1.0000   1.0000   1.0000   1.0000   1.0000   1.0000   1.0000
     1.0000   1.0000   1.0000   1.0000   1.0000   1.0000   1.0000   1.0000
     1.0000   1.0000   1.0000   1.0000   1.0000   1.0000   1.0000   1.0000
     1.0000   1.0000   1.0000   1.0000   1.0000   1.0000   1.0000   1.0000
     1.0000   1.0000   1.0000   1.0000   1.0000   1.0000   1.0000   1.0000
     1.0000   1.0000   1.0000   1.0000  -0.0000  -0.0000  -0.0000  -0.0000
    -0.0000  -0.0000  -0.0000  -0.0000  -0.0000  -0.0000  -0.0000  -0.0000
    -0.0000  -0.0000  -0.0000  -0.0000  -0.0000  -0.0000  -0.0000  -0.0000
    -0.0000  -0.0000  -0.0000  -0.0000  -0.0000  -0.0000  -0.0000  -0.0000
    -0.0000  -0.0000  -0.0000  -0.0000  -0.0000  -0.0000  -0.0000  -0.0000

          k =-0.6667 0.1925 0.1479 ( 11540 PWs)   bands (ev):

   -69.0394 -69.0394 -69.0393 -69.0393 -35.9763 -35.9763 -35.9755 -35.9755
   -35.6889 -35.6889 -35.6880 -35.6880 -35.6868 -35.6868 -35.6859 -35.6859
   -20.8181 -20.8181 -16.0929 -16.0929 -16.0926 -16.0926 -16.0920 -16.0920
   -16.0908 -16.0908 -13.1218 -13.1218 -13.1201 -13.1201 -13.1097 -13.1097
   -13.1074 -13.1074 -13.0998 -13.0998 -13.0993 -13.0993  -7.5009  -7.5009
    -5.5863  -5.5863  -5.4709  -5.4709  -2.6503  -2.6503  -2.5354  -2.5354
     3.5907   3.5907   3.9064   3.9064   4.9302   4.9302   5.5370   5.5370
     5.8491   5.8491   6.3819   6.3819   8.8071   8.8071   9.4417   9.4417
     9.9005   9.9005  10.3492  10.3492  10.8058  10.8058  11.3171  11.3171
    11.5415  11.5415  11.9544  11.9544  12.4051  12.4051  12.6959  12.6959
    13.0682  13.0682  13.8274  13.8274  14.2183  14.2183  14.7715  14.7715
    15.1343  15.1343  15.6424  15.6425  15.8651  15.8652  16.9027  16.9028

     occupation numbers 
     1.0000   1.0000   1.0000   1.0000   1.0000   1.0000   1.0000   1.0000
     1.0000   1.0000   1.0000   1.0000   1.0000   1.0000   1.0000   1.0000
     1.0000   1.0000   1.0000   1.0000   1.0000   1.0000   1.0000   1.0000
     1.0000   1.0000   1.0000   1.0000   1.0000   1.0000   1.0000   1.0000
     1.0000   1.0000   1.0000   1.0000   1.0000   1.0000   1.0000   1.0000
     1.0000   1.0000   1.0000   1.0000   1.0000   1.0000   1.0000   1.0000
     1.0000   1.0000   1.0000   1.0000   1.0000   1.0000   1.0000   1.0000
     1.0000   1.0000   1.0000   1.0000  -0.0000  -0.0000  -0.0000  -0.0000
    -0.0000  -0.0000  -0.0000  -0.0000  -0.0000  -0.0000  -0.0000  -0.0000
    -0.0000  -0.0000  -0.0000  -0.0000  -0.0000  -0.0000  -0.0000  -0.0000
    -0.0000  -0.0000  -0.0000  -0.0000  -0.0000  -0.0000  -0.0000  -0.0000
    -0.0000  -0.0000  -0.0000  -0.0000  -0.0000  -0.0000  -0.0000  -0.0000

          k =-0.6667 0.1925-0.2958 ( 11530 PWs)   bands (ev):

   -69.0394 -69.0394 -69.0393 -69.0393 -35.9761 -35.9761 -35.9755 -35.9755
   -35.6887 -35.6887 -35.6880 -35.6880 -35.6866 -35.6866 -35.6859 -35.6859
   -20.8181 -20.8181 -16.0930 -16.0930 -16.0927 -16.0927 -16.0920 -16.0920
   -16.0907 -16.0907 -13.1216 -13.1216 -13.1205 -13.1205 -13.1093 -13.1093
   -13.1076 -13.1076 -13.0999 -13.0999 -13.0992 -13.0992  -7.5009  -7.5009
    -5.5854  -5.5854  -5.4712  -5.4712  -2.7111  -2.7111  -2.4717  -2.4717
     3.5608   3.5608   3.8276   3.8276   4.9989   4.9989   5.6118   5.6118
     5.8922   5.8922   6.5527   6.5527   8.5995   8.5995   9.1882   9.1882
     9.7403   9.7403  10.1116  10.1116  10.9600  10.9600  11.2067  11.2067
    11.5031  11.5031  11.8096  11.8096  12.7589  12.7589  13.1548  13.1548
    13.4575  13.4575  13.8060  13.8060  14.4511  14.4511  14.8253  14.8253
    15.0837  15.0837  15.6942  15.6942  15.9984  15.9984  16.7246  16.7246

     occupation numbers 
     1.0000   1.0000   1.0000   1.0000   1.0000   1.0000   1.0000   1.0000
     1.0000   1.0000   1.0000   1.0000   1.0000   1.0000   1.0000   1.0000
     1.0000   1.0000   1.0000   1.0000   1.0000   1.0000   1.0000   1.0000
     1.0000   1.0000   1.0000   1.0000   1.0000   1.0000   1.0000   1.0000
     1.0000   1.0000   1.0000   1.0000   1.0000   1.0000   1.0000   1.0000
     1.0000   1.0000   1.0000   1.0000   1.0000   1.0000   1.0000   1.0000
     1.0000   1.0000   1.0000   1.0000   1.0000   1.0000   1.0000   1.0000
     1.0000   1.0000   1.0000   1.0000  -0.0000  -0.0000  -0.0000  -0.0000
    -0.0000  -0.0000  -0.0000  -0.0000  -0.0000  -0.0000  -0.0000  -0.0000
    -0.0000  -0.0000  -0.0000  -0.0000  -0.0000  -0.0000  -0.0000  -0.0000
    -0.0000  -0.0000  -0.0000  -0.0000  -0.0000  -0.0000  -0.0000  -0.0000
    -0.0000  -0.0000  -0.0000  -0.0000  -0.0000  -0.0000  -0.0000  -0.0000

          k =-0.6667 0.1925-0.1479 ( 11540 PWs)   bands (ev):

   -69.0394 -69.0394 -69.0393 -69.0393 -35.9762 -35.9762 -35.9756 -35.9756
   -35.6888 -35.6888 -35.6879 -35.6879 -35.6868 -35.6868 -35.6860 -35.6860
   -20.8181 -20.8181 -16.0928 -16.0928 -16.0926 -16.0926 -16.0920 -16.0920
   -16.0908 -16.0908 -13.1215 -13.1215 -13.1203 -13.1203 -13.1097 -13.1097
   -13.1075 -13.1075 -13.0998 -13.0998 -13.0993 -13.0993  -7.5009  -7.5009
    -5.5860  -5.5860  -5.4710  -5.4710  -2.7045  -2.7045  -2.4759  -2.4759
     3.5540   3.5540   3.8283   3.8283   4.9780   4.9780   5.6153   5.6153
     5.8497   5.8497   6.5403   6.5403   8.6572   8.6572   9.5148   9.5148
     9.8925   9.8925  10.0516  10.0516  10.6762  10.6762  10.9533  10.9533
    11.5182  11.5182  12.2023  12.2023  12.5916  12.5916  13.1925  13.1925
    13.4114  13.4114  13.8411  13.8411  14.3009  14.3009  14.6886  14.6886
    15.1002  15.1002  15.4200  15.4200  15.7321  15.7321  16.3893  16.3894

     occupation numbers 
     1.0000   1.0000   1.0000   1.0000   1.0000   1.0000   1.0000   1.0000
     1.0000   1.0000   1.0000   1.0000   1.0000   1.0000   1.0000   1.0000
     1.0000   1.0000   1.0000   1.0000   1.0000   1.0000   1.0000   1.0000
     1.0000   1.0000   1.0000   1.0000   1.0000   1.0000   1.0000   1.0000
     1.0000   1.0000   1.0000   1.0000   1.0000   1.0000   1.0000   1.0000
     1.0000   1.0000   1.0000   1.0000   1.0000   1.0000   1.0000   1.0000
     1.0000   1.0000   1.0000   1.0000   1.0000   1.0000   1.0000   1.0000
     1.0000   1.0000   1.0000   1.0000  -0.0000  -0.0000  -0.0000  -0.0000
    -0.0000  -0.0000  -0.0000  -0.0000  -0.0000  -0.0000  -0.0000  -0.0000
    -0.0000  -0.0000  -0.0000  -0.0000  -0.0000  -0.0000  -0.0000  -0.0000
    -0.0000  -0.0000  -0.0000  -0.0000  -0.0000  -0.0000  -0.0000  -0.0000
    -0.0000  -0.0000  -0.0000  -0.0000  -0.0000  -0.0000  -0.0000  -0.0000

          k =-0.3333 0.1925 0.0000 ( 11530 PWs)   bands (ev):

   -69.0395 -69.0395 -69.0393 -69.0393 -35.9765 -35.9765 -35.9751 -35.9751
   -35.6885 -35.6885 -35.6882 -35.6882 -35.6864 -35.6864 -35.6860 -35.6860
   -20.8202 -20.8202 -16.0932 -16.0932 -16.0926 -16.0926 -16.0923 -16.0923
   -16.0911 -16.0911 -13.1224 -13.1224 -13.1205 -13.1205 -13.1102 -13.1102
   -13.1069 -13.1069 -13.1002 -13.1002 -13.1000 -13.1000  -7.4910  -7.4910
    -5.5754  -5.5754  -5.4519  -5.4519  -2.7890  -2.7890  -2.5398  -2.5398
     3.7484   3.7484   4.0885   4.0885   5.0588   5.0588   5.8062   5.8062
     6.0918   6.0918   6.6817   6.6817   8.2203   8.2203   9.3534   9.3534
    10.1838  10.1838  10.3560  10.3560  10.5451  10.5451  11.1578  11.1578
    11.4587  11.4587  11.8712  11.8712  12.2627  12.2627  12.5172  12.5172
    12.9750  12.9750  13.3708  13.3708  13.5922  13.5922  14.0061  14.0061
    14.7929  14.7929  15.1062  15.1062  15.9685  15.9686  16.5078  16.5078

     occupation numbers 
     1.0000   1.0000   1.0000   1.0000   1.0000   1.0000   1.0000   1.0000
     1.0000   1.0000   1.0000   1.0000   1.0000   1.0000   1.0000   1.0000
     1.0000   1.0000   1.0000   1.0000   1.0000   1.0000   1.0000   1.0000
     1.0000   1.0000   1.0000   1.0000   1.0000   1.0000   1.0000   1.0000
     1.0000   1.0000   1.0000   1.0000   1.0000   1.0000   1.0000   1.0000
     1.0000   1.0000   1.0000   1.0000   1.0000   1.0000   1.0000   1.0000
     1.0000   1.0000   1.0000   1.0000   1.0000   1.0000   1.0000   1.0000
     1.0000   1.0000   1.0000   1.0000  -0.0002  -0.0002  -0.0000  -0.0000
    -0.0000  -0.0000  -0.0000  -0.0000  -0.0000  -0.0000  -0.0000  -0.0000
    -0.0000  -0.0000  -0.0000  -0.0000  -0.0000  -0.0000  -0.0000  -0.0000
    -0.0000  -0.0000  -0.0000  -0.0000  -0.0000  -0.0000  -0.0000  -0.0000
    -0.0000  -0.0000  -0.0000  -0.0000  -0.0000  -0.0000  -0.0000  -0.0000

          k =-0.3333 0.1925 0.1479 ( 11525 PWs)   bands (ev):

   -69.0395 -69.0395 -69.0393 -69.0393 -35.9762 -35.9762 -35.9753 -35.9753
   -35.6883 -35.6883 -35.6881 -35.6881 -35.6864 -35.6864 -35.6862 -35.6862
   -20.8202 -20.8202 -16.0930 -16.0930 -16.0927 -16.0927 -16.0922 -16.0922
   -16.0913 -16.0913 -13.1218 -13.1218 -13.1210 -13.1210 -13.1096 -13.1096
   -13.1076 -13.1076 -13.1004 -13.1004 -13.0998 -13.0998  -7.4910  -7.4910
    -5.5748  -5.5748  -5.4526  -5.4526  -2.8347  -2.8347  -2.4843  -2.4843
     3.6294   3.6294   3.9299   3.9299   5.2646   5.2646   5.9316   5.9316
     6.1563   6.1563   7.1117   7.1117   8.3440   8.3440   9.1131   9.1131
     9.2739   9.2739   9.8035   9.8035  10.3725  10.3725  10.8618  10.8618
    11.0372  11.0372  12.3651  12.3651  13.0269  13.0269  13.2822  13.2822
    13.5571  13.5571  13.8847  13.8847  13.9674  13.9674  14.4364  14.4364
    14.5796  14.5796  14.9408  14.9409  15.6759  15.6760  15.9696  15.9696

     occupation numbers 
     1.0000   1.0000   1.0000   1.0000   1.0000   1.0000   1.0000   1.0000
     1.0000   1.0000   1.0000   1.0000   1.0000   1.0000   1.0000   1.0000
     1.0000   1.0000   1.0000   1.0000   1.0000   1.0000   1.0000   1.0000
     1.0000   1.0000   1.0000   1.0000   1.0000   1.0000   1.0000   1.0000
     1.0000   1.0000   1.0000   1.0000   1.0000   1.0000   1.0000   1.0000
     1.0000   1.0000   1.0000   1.0000   1.0000   1.0000   1.0000   1.0000
     1.0000   1.0000   1.0000   1.0000   1.0000   1.0000   1.0000   1.0000
     1.0000   1.0000   1.0000   1.0000  -0.0000  -0.0000  -0.0000  -0.0000
    -0.0000  -0.0000  -0.0000  -0.0000  -0.0000  -0.0000  -0.0000  -0.0000
    -0.0000  -0.0000  -0.0000  -0.0000  -0.0000  -0.0000  -0.0000  -0.0000
    -0.0000  -0.0000  -0.0000  -0.0000  -0.0000  -0.0000  -0.0000  -0.0000
    -0.0000  -0.0000  -0.0000  -0.0000  -0.0000  -0.0000  -0.0000  -0.0000

          k =-0.3333 0.1925-0.2958 ( 11510 PWs)   bands (ev):

   -69.0395 -69.0395 -69.0393 -69.0393 -35.9761 -35.9761 -35.9751 -35.9751
   -35.6883 -35.6883 -35.6879 -35.6879 -35.6864 -35.6864 -35.6859 -35.6859
   -20.8202 -20.8202 -16.0931 -16.0931 -16.0928 -16.0928 -16.0919 -16.0919
   -16.0913 -16.0913 -13.1222 -13.1222 -13.1209 -13.1209 -13.1089 -13.1089
   -13.1081 -13.1081 -13.1005 -13.1005 -13.0997 -13.0997  -7.4911  -7.4911
    -5.5751  -5.5751  -5.4529  -5.4529  -2.7974  -2.7974  -2.5263  -2.5263
     3.6403   3.6403   3.9651   3.9651   5.3175   5.3175   5.8624   5.8624
     6.1643   6.1643   6.9757   6.9757   8.4233   8.4233   9.1199   9.1199
     9.4109   9.4109   9.5449   9.5449  10.5029  10.5029  10.8797  10.8797
    11.1961  11.1961  12.2020  12.2020  12.7803  12.7803  13.0530  13.0530
    13.1997  13.1997  13.9662  13.9662  14.3444  14.3444  14.6101  14.6101
    15.0062  15.0062  15.1496  15.1496  15.6881  15.6881  16.2685  16.2687

     occupation numbers 
     1.0000   1.0000   1.0000   1.0000   1.0000   1.0000   1.0000   1.0000
     1.0000   1.0000   1.0000   1.0000   1.0000   1.0000   1.0000   1.0000
     1.0000   1.0000   1.0000   1.0000   1.0000   1.0000   1.0000   1.0000
     1.0000   1.0000   1.0000   1.0000   1.0000   1.0000   1.0000   1.0000
     1.0000   1.0000   1.0000   1.0000   1.0000   1.0000   1.0000   1.0000
     1.0000   1.0000   1.0000   1.0000   1.0000   1.0000   1.0000   1.0000
     1.0000   1.0000   1.0000   1.0000   1.0000   1.0000   1.0000   1.0000
     1.0000   1.0000   1.0000   1.0000  -0.0000  -0.0000  -0.0000  -0.0000
    -0.0000  -0.0000  -0.0000  -0.0000  -0.0000  -0.0000  -0.0000  -0.0000
    -0.0000  -0.0000  -0.0000  -0.0000  -0.0000  -0.0000  -0.0000  -0.0000
    -0.0000  -0.0000  -0.0000  -0.0000  -0.0000  -0.0000  -0.0000  -0.0000
    -0.0000  -0.0000  -0.0000  -0.0000  -0.0000  -0.0000  -0.0000  -0.0000

          k =-0.3333 0.1925-0.1479 ( 11525 PWs)   bands (ev):

   -69.0395 -69.0395 -69.0393 -69.0393 -35.9763 -35.9763 -35.9751 -35.9751
   -35.6885 -35.6885 -35.6880 -35.6880 -35.6866 -35.6866 -35.6859 -35.6859
   -20.8202 -20.8202 -16.0933 -16.0933 -16.0928 -16.0928 -16.0921 -16.0921
   -16.0911 -16.0911 -13.1226 -13.1226 -13.1204 -13.1204 -13.1098 -13.1098
   -13.1072 -13.1072 -13.1003 -13.1003 -13.0998 -13.0998  -7.4910  -7.4910
    -5.5757  -5.5757  -5.4523  -5.4523  -2.7240  -2.7240  -2.6094  -2.6094
     3.7538   3.7538   4.1447   4.1447   5.1134   5.1134   5.6286   5.6286
     6.2120   6.2120   6.5944   6.5944   8.2121   8.2121   9.2609   9.2609
    10.1407  10.1407  10.4938  10.4938  10.6798  10.6798  11.3096  11.3096
    11.5026  11.5026  11.7978  11.7978  12.0327  12.0327  12.5088  12.5088
    12.7435  12.7435  13.1586  13.1586  13.4960  13.4960  13.9399  13.9399
    15.4625  15.4625  15.6586  15.6586  16.5181  16.5181  16.6191  16.6191

     occupation numbers 
     1.0000   1.0000   1.0000   1.0000   1.0000   1.0000   1.0000   1.0000
     1.0000   1.0000   1.0000   1.0000   1.0000   1.0000   1.0000   1.0000
     1.0000   1.0000   1.0000   1.0000   1.0000   1.0000   1.0000   1.0000
     1.0000   1.0000   1.0000   1.0000   1.0000   1.0000   1.0000   1.0000
     1.0000   1.0000   1.0000   1.0000   1.0000   1.0000   1.0000   1.0000
     1.0000   1.0000   1.0000   1.0000   1.0000   1.0000   1.0000   1.0000
     1.0000   1.0000   1.0000   1.0000   1.0000   1.0000   1.0000   1.0000
     1.0000   1.0000   1.0000   1.0000  -0.0003  -0.0003  -0.0000  -0.0000
    -0.0000  -0.0000  -0.0000  -0.0000  -0.0000  -0.0000  -0.0000  -0.0000
    -0.0000  -0.0000  -0.0000  -0.0000  -0.0000  -0.0000  -0.0000  -0.0000
    -0.0000  -0.0000  -0.0000  -0.0000  -0.0000  -0.0000  -0.0000  -0.0000
    -0.0000  -0.0000  -0.0000  -0.0000  -0.0000  -0.0000  -0.0000  -0.0000

          k =-0.1667 0.2887 0.0000 ( 11513 PWs)   bands (ev):

   -69.0395 -69.0395 -69.0393 -69.0393 -35.9764 -35.9764 -35.9748 -35.9748
   -35.6886 -35.6886 -35.6879 -35.6879 -35.6863 -35.6863 -35.6857 -35.6857
   -20.8212 -20.8212 -16.0931 -16.0931 -16.0928 -16.0928 -16.0924 -16.0924
   -16.0913 -16.0913 -13.1225 -13.1225 -13.1210 -13.1210 -13.1099 -13.1099
   -13.1071 -13.1071 -13.1005 -13.1005 -13.1003 -13.1003  -7.4854  -7.4854
    -5.5537  -5.5537  -5.4609  -5.4609  -2.8620  -2.8620  -2.5324  -2.5324
     3.7915   3.7915   4.4185   4.4185   4.9612   4.9612   5.7621   5.7621
     6.0518   6.0518   6.9113   6.9113   8.8654   8.8654   9.2719   9.2719
     9.7064   9.7064  10.3035  10.3035  10.4394  10.4394  11.1672  11.1672
    11.3136  11.3136  11.7271  11.7271  11.8902  11.8902  12.2022  12.2022
    13.0012  13.0012  13.1581  13.1581  13.3475  13.3475  14.3772  14.3772
    14.8938  14.8938  15.0775  15.0775  16.0304  16.0304  16.2647  16.2647

     occupation numbers 
     1.0000   1.0000   1.0000   1.0000   1.0000   1.0000   1.0000   1.0000
     1.0000   1.0000   1.0000   1.0000   1.0000   1.0000   1.0000   1.0000
     1.0000   1.0000   1.0000   1.0000   1.0000   1.0000   1.0000   1.0000
     1.0000   1.0000   1.0000   1.0000   1.0000   1.0000   1.0000   1.0000
     1.0000   1.0000   1.0000   1.0000   1.0000   1.0000   1.0000   1.0000
     1.0000   1.0000   1.0000   1.0000   1.0000   1.0000   1.0000   1.0000
     1.0000   1.0000   1.0000   1.0000   1.0000   1.0000   1.0000   1.0000
     1.0000   1.0000   1.0000   1.0000  -0.0000  -0.0000  -0.0000  -0.0000
    -0.0000  -0.0000  -0.0000  -0.0000  -0.0000  -0.0000  -0.0000  -0.0000
    -0.0000  -0.0000  -0.0000  -0.0000  -0.0000  -0.0000  -0.0000  -0.0000
    -0.0000  -0.0000  -0.0000  -0.0000  -0.0000  -0.0000  -0.0000  -0.0000
    -0.0000  -0.0000  -0.0000  -0.0000  -0.0000  -0.0000  -0.0000  -0.0000

          k =-0.1667 0.2887 0.1479 ( 11553 PWs)   bands (ev):

   -69.0395 -69.0395 -69.0393 -69.0393 -35.9767 -35.9767 -35.9751 -35.9751
   -35.6889 -35.6889 -35.6882 -35.6882 -35.6866 -35.6866 -35.6861 -35.6861
   -20.8212 -20.8212 -16.0931 -16.0931 -16.0929 -16.0929 -16.0923 -16.0923
   -16.0914 -16.0914 -13.1224 -13.1224 -13.1211 -13.1211 -13.1095 -13.1095
   -13.1075 -13.1075 -13.1007 -13.1007 -13.1001 -13.1001  -7.4855  -7.4855
    -5.5544  -5.5544  -5.4612  -5.4612  -2.8340  -2.8340  -2.5607  -2.5607
     3.7646   3.7646   4.2958   4.2958   5.1797   5.1797   5.7699   5.7699
     6.1508   6.1508   6.8070   6.8070   8.8373   8.8373   9.3351   9.3351
     9.7823   9.7823   9.9807   9.9807  10.3775  10.3775  10.7878  10.7878
    11.2728  11.2728  11.4899  11.4899  12.0998  12.0998  12.6863  12.6863
    12.8796  12.8796  13.5618  13.5618  13.8084  13.8084  14.0499  14.0499
    15.0354  15.0354  15.3923  15.3923  15.6409  15.6409  16.4904  16.4904

     occupation numbers 
     1.0000   1.0000   1.0000   1.0000   1.0000   1.0000   1.0000   1.0000
     1.0000   1.0000   1.0000   1.0000   1.0000   1.0000   1.0000   1.0000
     1.0000   1.0000   1.0000   1.0000   1.0000   1.0000   1.0000   1.0000
     1.0000   1.0000   1.0000   1.0000   1.0000   1.0000   1.0000   1.0000
     1.0000   1.0000   1.0000   1.0000   1.0000   1.0000   1.0000   1.0000
     1.0000   1.0000   1.0000   1.0000   1.0000   1.0000   1.0000   1.0000
     1.0000   1.0000   1.0000   1.0000   1.0000   1.0000   1.0000   1.0000
     1.0000   1.0000   1.0000   1.0000  -0.0000  -0.0000  -0.0000  -0.0000
    -0.0000  -0.0000  -0.0000  -0.0000  -0.0000  -0.0000  -0.0000  -0.0000
    -0.0000  -0.0000  -0.0000  -0.0000  -0.0000  -0.0000  -0.0000  -0.0000
    -0.0000  -0.0000  -0.0000  -0.0000  -0.0000  -0.0000  -0.0000  -0.0000
    -0.0000  -0.0000  -0.0000  -0.0000  -0.0000  -0.0000  -0.0000  -0.0000

          k =-0.1667 0.2887-0.2958 ( 11552 PWs)   bands (ev):

   -69.0395 -69.0395 -69.0393 -69.0393 -35.9766 -35.9766 -35.9752 -35.9752
   -35.6888 -35.6888 -35.6881 -35.6881 -35.6866 -35.6866 -35.6862 -35.6862
   -20.8212 -20.8212 -16.0931 -16.0931 -16.0929 -16.0929 -16.0922 -16.0921
   -16.0915 -16.0915 -13.1222 -13.1222 -13.1213 -13.1213 -13.1088 -13.1088
   -13.1081 -13.1081 -13.1008 -13.1008 -13.1000 -13.1000  -7.4856  -7.4856
    -5.5550  -5.5550  -5.4615  -5.4615  -2.7986  -2.7986  -2.5964  -2.5964
     3.7432   3.7432   4.2016   4.2016   5.4169   5.4169   5.7321   5.7321
     6.3159   6.3159   6.6195   6.6195   8.9514   8.9514   9.1852   9.1852
     9.8715   9.8715   9.9038   9.9038  10.1014  10.1014  10.7278  10.7278
    11.2004  11.2004  11.3065  11.3065  12.0366  12.0366  12.8390  12.8390
    13.2725  13.2725  13.5516  13.5516  14.0850  14.0850  14.7955  14.7955
    14.8924  14.8924  15.3554  15.3554  15.5715  15.5715  16.0897  16.0897

     occupation numbers 
     1.0000   1.0000   1.0000   1.0000   1.0000   1.0000   1.0000   1.0000
     1.0000   1.0000   1.0000   1.0000   1.0000   1.0000   1.0000   1.0000
     1.0000   1.0000   1.0000   1.0000   1.0000   1.0000   1.0000   1.0000
     1.0000   1.0000   1.0000   1.0000   1.0000   1.0000   1.0000   1.0000
     1.0000   1.0000   1.0000   1.0000   1.0000   1.0000   1.0000   1.0000
     1.0000   1.0000   1.0000   1.0000   1.0000   1.0000   1.0000   1.0000
     1.0000   1.0000   1.0000   1.0000   1.0000   1.0000   1.0000   1.0000
     1.0000   1.0000   1.0000   1.0000  -0.0000  -0.0000  -0.0000  -0.0000
    -0.0000  -0.0000  -0.0000  -0.0000  -0.0000  -0.0000  -0.0000  -0.0000
    -0.0000  -0.0000  -0.0000  -0.0000  -0.0000  -0.0000  -0.0000  -0.0000
    -0.0000  -0.0000  -0.0000  -0.0000  -0.0000  -0.0000  -0.0000  -0.0000
    -0.0000  -0.0000  -0.0000  -0.0000  -0.0000  -0.0000  -0.0000  -0.0000

          k =-0.1667 0.2887-0.1479 ( 11553 PWs)   bands (ev):

   -69.0395 -69.0395 -69.0393 -69.0393 -35.9767 -35.9767 -35.9751 -35.9751
   -35.6889 -35.6889 -35.6882 -35.6882 -35.6866 -35.6866 -35.6861 -35.6861
   -20.8212 -20.8212 -16.0931 -16.0931 -16.0929 -16.0929 -16.0923 -16.0923
   -16.0914 -16.0914 -13.1224 -13.1224 -13.1211 -13.1211 -13.1095 -13.1095
   -13.1075 -13.1075 -13.1007 -13.1007 -13.1001 -13.1001  -7.4855  -7.4855
    -5.5544  -5.5544  -5.4612  -5.4612  -2.8340  -2.8340  -2.5607  -2.5607
     3.7646   3.7646   4.2958   4.2958   5.1797   5.1797   5.7699   5.7699
     6.1508   6.1508   6.8070   6.8070   8.8373   8.8373   9.3351   9.3351
     9.7823   9.7823   9.9807   9.9807  10.3775  10.3775  10.7878  10.7878
    11.2728  11.2728  11.4899  11.4899  12.0998  12.0998  12.6863  12.6863
    12.8796  12.8796  13.5618  13.5618  13.8084  13.8084  14.0499  14.0499
    15.0354  15.0354  15.3923  15.3923  15.6409  15.6409  16.4904  16.4904

     occupation numbers 
     1.0000   1.0000   1.0000   1.0000   1.0000   1.0000   1.0000   1.0000
     1.0000   1.0000   1.0000   1.0000   1.0000   1.0000   1.0000   1.0000
     1.0000   1.0000   1.0000   1.0000   1.0000   1.0000   1.0000   1.0000
     1.0000   1.0000   1.0000   1.0000   1.0000   1.0000   1.0000   1.0000
     1.0000   1.0000   1.0000   1.0000   1.0000   1.0000   1.0000   1.0000
     1.0000   1.0000   1.0000   1.0000   1.0000   1.0000   1.0000   1.0000
     1.0000   1.0000   1.0000   1.0000   1.0000   1.0000   1.0000   1.0000
     1.0000   1.0000   1.0000   1.0000  -0.0000  -0.0000  -0.0000  -0.0000
    -0.0000  -0.0000  -0.0000  -0.0000  -0.0000  -0.0000  -0.0000  -0.0000
    -0.0000  -0.0000  -0.0000  -0.0000  -0.0000  -0.0000  -0.0000  -0.0000
    -0.0000  -0.0000  -0.0000  -0.0000  -0.0000  -0.0000  -0.0000  -0.0000
    -0.0000  -0.0000  -0.0000  -0.0000  -0.0000  -0.0000  -0.0000  -0.0000

          k =-0.0000 0.3849 0.0000 ( 11530 PWs)   bands (ev):

   -69.0395 -69.0395 -69.0393 -69.0393 -35.9765 -35.9765 -35.9751 -35.9751
   -35.6885 -35.6885 -35.6882 -35.6882 -35.6864 -35.6864 -35.6860 -35.6860
   -20.8202 -20.8202 -16.0932 -16.0932 -16.0926 -16.0926 -16.0923 -16.0923
   -16.0911 -16.0911 -13.1224 -13.1224 -13.1205 -13.1205 -13.1102 -13.1102
   -13.1069 -13.1069 -13.1002 -13.1002 -13.1000 -13.1000  -7.4910  -7.4910
    -5.5754  -5.5754  -5.4519  -5.4519  -2.7890  -2.7890  -2.5398  -2.5398
     3.7484   3.7484   4.0885   4.0885   5.0588   5.0588   5.8062   5.8062
     6.0918   6.0918   6.6817   6.6817   8.2202   8.2202   9.3534   9.3534
    10.1838  10.1838  10.3560  10.3560  10.5451  10.5451  11.1578  11.1578
    11.4587  11.4587  11.8712  11.8712  12.2627  12.2627  12.5172  12.5172
    12.9750  12.9750  13.3708  13.3708  13.5922  13.5922  14.0061  14.0061
    14.7929  14.7929  15.1062  15.1062  15.9685  15.9686  16.5078  16.5078

     occupation numbers 
     1.0000   1.0000   1.0000   1.0000   1.0000   1.0000   1.0000   1.0000
     1.0000   1.0000   1.0000   1.0000   1.0000   1.0000   1.0000   1.0000
     1.0000   1.0000   1.0000   1.0000   1.0000   1.0000   1.0000   1.0000
     1.0000   1.0000   1.0000   1.0000   1.0000   1.0000   1.0000   1.0000
     1.0000   1.0000   1.0000   1.0000   1.0000   1.0000   1.0000   1.0000
     1.0000   1.0000   1.0000   1.0000   1.0000   1.0000   1.0000   1.0000
     1.0000   1.0000   1.0000   1.0000   1.0000   1.0000   1.0000   1.0000
     1.0000   1.0000   1.0000   1.0000  -0.0002  -0.0002  -0.0000  -0.0000
    -0.0000  -0.0000  -0.0000  -0.0000  -0.0000  -0.0000  -0.0000  -0.0000
    -0.0000  -0.0000  -0.0000  -0.0000  -0.0000  -0.0000  -0.0000  -0.0000
    -0.0000  -0.0000  -0.0000  -0.0000  -0.0000  -0.0000  -0.0000  -0.0000
    -0.0000  -0.0000  -0.0000  -0.0000  -0.0000  -0.0000  -0.0000  -0.0000

          k =-0.0000 0.3849 0.1479 ( 11525 PWs)   bands (ev):

   -69.0395 -69.0395 -69.0393 -69.0393 -35.9763 -35.9763 -35.9751 -35.9751
   -35.6885 -35.6885 -35.6880 -35.6880 -35.6866 -35.6866 -35.6859 -35.6859
   -20.8202 -20.8202 -16.0933 -16.0933 -16.0928 -16.0928 -16.0921 -16.0921
   -16.0911 -16.0911 -13.1226 -13.1226 -13.1204 -13.1204 -13.1098 -13.1098
   -13.1072 -13.1072 -13.1003 -13.1003 -13.0998 -13.0998  -7.4910  -7.4910
    -5.5757  -5.5757  -5.4523  -5.4523  -2.7240  -2.7240  -2.6094  -2.6094
     3.7538   3.7538   4.1447   4.1447   5.1134   5.1134   5.6286   5.6286
     6.2120   6.2120   6.5944   6.5944   8.2121   8.2121   9.2609   9.2609
    10.1407  10.1407  10.4938  10.4938  10.6798  10.6798  11.3096  11.3096
    11.5026  11.5026  11.7978  11.7978  12.0327  12.0327  12.5088  12.5088
    12.7435  12.7435  13.1586  13.1586  13.4960  13.4960  13.9399  13.9399
    15.4625  15.4625  15.6586  15.6586  16.5181  16.5181  16.6191  16.6192

     occupation numbers 
     1.0000   1.0000   1.0000   1.0000   1.0000   1.0000   1.0000   1.0000
     1.0000   1.0000   1.0000   1.0000   1.0000   1.0000   1.0000   1.0000
     1.0000   1.0000   1.0000   1.0000   1.0000   1.0000   1.0000   1.0000
     1.0000   1.0000   1.0000   1.0000   1.0000   1.0000   1.0000   1.0000
     1.0000   1.0000   1.0000   1.0000   1.0000   1.0000   1.0000   1.0000
     1.0000   1.0000   1.0000   1.0000   1.0000   1.0000   1.0000   1.0000
     1.0000   1.0000   1.0000   1.0000   1.0000   1.0000   1.0000   1.0000
     1.0000   1.0000   1.0000   1.0000  -0.0003  -0.0003  -0.0000  -0.0000
    -0.0000  -0.0000  -0.0000  -0.0000  -0.0000  -0.0000  -0.0000  -0.0000
    -0.0000  -0.0000  -0.0000  -0.0000  -0.0000  -0.0000  -0.0000  -0.0000
    -0.0000  -0.0000  -0.0000  -0.0000  -0.0000  -0.0000  -0.0000  -0.0000
    -0.0000  -0.0000  -0.0000  -0.0000  -0.0000  -0.0000  -0.0000  -0.0000

          k =-0.0000 0.3849-0.2958 ( 11510 PWs)   bands (ev):

   -69.0395 -69.0395 -69.0393 -69.0393 -35.9761 -35.9761 -35.9751 -35.9751
   -35.6883 -35.6883 -35.6879 -35.6879 -35.6864 -35.6864 -35.6859 -35.6859
   -20.8202 -20.8202 -16.0931 -16.0931 -16.0928 -16.0928 -16.0919 -16.0919
   -16.0913 -16.0913 -13.1222 -13.1222 -13.1209 -13.1209 -13.1089 -13.1089
   -13.1081 -13.1081 -13.1005 -13.1005 -13.0997 -13.0997  -7.4911  -7.4911
    -5.5751  -5.5751  -5.4529  -5.4529  -2.7974  -2.7974  -2.5263  -2.5263
     3.6403   3.6403   3.9651   3.9651   5.3175   5.3175   5.8624   5.8624
     6.1643   6.1643   6.9757   6.9757   8.4233   8.4233   9.1199   9.1199
     9.4109   9.4109   9.5449   9.5449  10.5029  10.5029  10.8797  10.8797
    11.1961  11.1961  12.2020  12.2020  12.7803  12.7803  13.0530  13.0530
    13.1997  13.1997  13.9662  13.9662  14.3444  14.3444  14.6101  14.6101
    15.0062  15.0062  15.1496  15.1496  15.6880  15.6880  16.2685  16.2685

     occupation numbers 
     1.0000   1.0000   1.0000   1.0000   1.0000   1.0000   1.0000   1.0000
     1.0000   1.0000   1.0000   1.0000   1.0000   1.0000   1.0000   1.0000
     1.0000   1.0000   1.0000   1.0000   1.0000   1.0000   1.0000   1.0000
     1.0000   1.0000   1.0000   1.0000   1.0000   1.0000   1.0000   1.0000
     1.0000   1.0000   1.0000   1.0000   1.0000   1.0000   1.0000   1.0000
     1.0000   1.0000   1.0000   1.0000   1.0000   1.0000   1.0000   1.0000
     1.0000   1.0000   1.0000   1.0000   1.0000   1.0000   1.0000   1.0000
     1.0000   1.0000   1.0000   1.0000  -0.0000  -0.0000  -0.0000  -0.0000
    -0.0000  -0.0000  -0.0000  -0.0000  -0.0000  -0.0000  -0.0000  -0.0000
    -0.0000  -0.0000  -0.0000  -0.0000  -0.0000  -0.0000  -0.0000  -0.0000
    -0.0000  -0.0000  -0.0000  -0.0000  -0.0000  -0.0000  -0.0000  -0.0000
    -0.0000  -0.0000  -0.0000  -0.0000  -0.0000  -0.0000  -0.0000  -0.0000

          k =-0.0000 0.3849-0.1479 ( 11525 PWs)   bands (ev):

   -69.0395 -69.0395 -69.0393 -69.0393 -35.9762 -35.9762 -35.9753 -35.9753
   -35.6883 -35.6883 -35.6881 -35.6881 -35.6864 -35.6864 -35.6862 -35.6862
   -20.8202 -20.8202 -16.0930 -16.0930 -16.0927 -16.0927 -16.0922 -16.0922
   -16.0913 -16.0913 -13.1218 -13.1218 -13.1210 -13.1210 -13.1096 -13.1096
   -13.1076 -13.1076 -13.1004 -13.1004 -13.0998 -13.0998  -7.4910  -7.4910
    -5.5748  -5.5748  -5.4526  -5.4526  -2.8347  -2.8347  -2.4843  -2.4843
     3.6294   3.6294   3.9299   3.9299   5.2646   5.2646   5.9316   5.9316
     6.1563   6.1563   7.1117   7.1117   8.3440   8.3440   9.1131   9.1131
     9.2739   9.2739   9.8035   9.8035  10.3725  10.3725  10.8618  10.8618
    11.0372  11.0372  12.3651  12.3651  13.0269  13.0269  13.2822  13.2822
    13.5571  13.5571  13.8847  13.8847  13.9674  13.9674  14.4364  14.4364
    14.5796  14.5796  14.9409  14.9409  15.6759  15.6760  15.9696  15.9696

     occupation numbers 
     1.0000   1.0000   1.0000   1.0000   1.0000   1.0000   1.0000   1.0000
     1.0000   1.0000   1.0000   1.0000   1.0000   1.0000   1.0000   1.0000
     1.0000   1.0000   1.0000   1.0000   1.0000   1.0000   1.0000   1.0000
     1.0000   1.0000   1.0000   1.0000   1.0000   1.0000   1.0000   1.0000
     1.0000   1.0000   1.0000   1.0000   1.0000   1.0000   1.0000   1.0000
     1.0000   1.0000   1.0000   1.0000   1.0000   1.0000   1.0000   1.0000
     1.0000   1.0000   1.0000   1.0000   1.0000   1.0000   1.0000   1.0000
     1.0000   1.0000   1.0000   1.0000  -0.0000  -0.0000  -0.0000  -0.0000
    -0.0000  -0.0000  -0.0000  -0.0000  -0.0000  -0.0000  -0.0000  -0.0000
    -0.0000  -0.0000  -0.0000  -0.0000  -0.0000  -0.0000  -0.0000  -0.0000
    -0.0000  -0.0000  -0.0000  -0.0000  -0.0000  -0.0000  -0.0000  -0.0000
    -0.0000  -0.0000  -0.0000  -0.0000  -0.0000  -0.0000  -0.0000  -0.0000

          k =-0.8333-0.0962 0.0000 ( 11514 PWs)   bands (ev):

   -69.0394 -69.0394 -69.0393 -69.0393 -35.9761 -35.9761 -35.9753 -35.9753
   -35.6886 -35.6886 -35.6878 -35.6878 -35.6866 -35.6866 -35.6858 -35.6858
   -20.8181 -20.8181 -16.0928 -16.0928 -16.0923 -16.0923 -16.0922 -16.0922
   -16.0909 -16.0909 -13.1217 -13.1217 -13.1198 -13.1198 -13.1101 -13.1101
   -13.1072 -13.1072 -13.0997 -13.0997 -13.0994 -13.0994  -7.5010  -7.5010
    -5.5869  -5.5869  -5.4707  -5.4707  -2.6366  -2.6366  -2.5467  -2.5467
     3.5773   3.5773   3.9212   3.9212   4.8874   4.8874   5.5762   5.5762
     5.7785   5.7785   6.3884   6.3884   8.9133   8.9133   9.6301   9.6301
    10.0290  10.0290  10.3549  10.3549  10.8278  10.8278  11.0835  11.0835
    11.5081  11.5081  11.7573  11.7573  12.3956  12.3956  12.8294  12.8294
    13.3217  13.3217  13.5479  13.5479  14.1331  14.1331  14.7282  14.7282
    15.0256  15.0256  15.3207  15.3207  15.9386  15.9386  16.6203  16.6203

     occupation numbers 
     1.0000   1.0000   1.0000   1.0000   1.0000   1.0000   1.0000   1.0000
     1.0000   1.0000   1.0000   1.0000   1.0000   1.0000   1.0000   1.0000
     1.0000   1.0000   1.0000   1.0000   1.0000   1.0000   1.0000   1.0000
     1.0000   1.0000   1.0000   1.0000   1.0000   1.0000   1.0000   1.0000
     1.0000   1.0000   1.0000   1.0000   1.0000   1.0000   1.0000   1.0000
     1.0000   1.0000   1.0000   1.0000   1.0000   1.0000   1.0000   1.0000
     1.0000   1.0000   1.0000   1.0000   1.0000   1.0000   1.0000   1.0000
     1.0000   1.0000   1.0000   1.0000  -0.0000  -0.0000  -0.0000  -0.0000
    -0.0000  -0.0000  -0.0000  -0.0000  -0.0000  -0.0000  -0.0000  -0.0000
    -0.0000  -0.0000  -0.0000  -0.0000  -0.0000  -0.0000  -0.0000  -0.0000
    -0.0000  -0.0000  -0.0000  -0.0000  -0.0000  -0.0000  -0.0000  -0.0000
    -0.0000  -0.0000  -0.0000  -0.0000  -0.0000  -0.0000  -0.0000  -0.0000

          k =-0.8333-0.0962 0.1479 ( 11540 PWs)   bands (ev):

   -69.0394 -69.0394 -69.0393 -69.0393 -35.9763 -35.9763 -35.9755 -35.9755
   -35.6889 -35.6889 -35.6880 -35.6880 -35.6868 -35.6868 -35.6859 -35.6859
   -20.8181 -20.8181 -16.0929 -16.0929 -16.0926 -16.0926 -16.0920 -16.0920
   -16.0908 -16.0908 -13.1218 -13.1218 -13.1201 -13.1201 -13.1097 -13.1097
   -13.1074 -13.1074 -13.0998 -13.0998 -13.0993 -13.0993  -7.5009  -7.5009
    -5.5863  -5.5863  -5.4709  -5.4709  -2.6503  -2.6503  -2.5354  -2.5354
     3.5907   3.5907   3.9064   3.9064   4.9302   4.9302   5.5370   5.5370
     5.8491   5.8491   6.3819   6.3819   8.8071   8.8071   9.4417   9.4417
     9.9005   9.9005  10.3492  10.3492  10.8058  10.8058  11.3171  11.3171
    11.5415  11.5415  11.9544  11.9544  12.4051  12.4051  12.6959  12.6959
    13.0682  13.0682  13.8274  13.8274  14.2183  14.2183  14.7715  14.7715
    15.1343  15.1343  15.6424  15.6425  15.8651  15.8651  16.9025  16.9025

     occupation numbers 
     1.0000   1.0000   1.0000   1.0000   1.0000   1.0000   1.0000   1.0000
     1.0000   1.0000   1.0000   1.0000   1.0000   1.0000   1.0000   1.0000
     1.0000   1.0000   1.0000   1.0000   1.0000   1.0000   1.0000   1.0000
     1.0000   1.0000   1.0000   1.0000   1.0000   1.0000   1.0000   1.0000
     1.0000   1.0000   1.0000   1.0000   1.0000   1.0000   1.0000   1.0000
     1.0000   1.0000   1.0000   1.0000   1.0000   1.0000   1.0000   1.0000
     1.0000   1.0000   1.0000   1.0000   1.0000   1.0000   1.0000   1.0000
     1.0000   1.0000   1.0000   1.0000  -0.0000  -0.0000  -0.0000  -0.0000
    -0.0000  -0.0000  -0.0000  -0.0000  -0.0000  -0.0000  -0.0000  -0.0000
    -0.0000  -0.0000  -0.0000  -0.0000  -0.0000  -0.0000  -0.0000  -0.0000
    -0.0000  -0.0000  -0.0000  -0.0000  -0.0000  -0.0000  -0.0000  -0.0000
    -0.0000  -0.0000  -0.0000  -0.0000  -0.0000  -0.0000  -0.0000  -0.0000

          k =-0.8333-0.0962-0.2958 ( 11530 PWs)   bands (ev):

   -69.0394 -69.0394 -69.0393 -69.0393 -35.9761 -35.9761 -35.9755 -35.9755
   -35.6887 -35.6887 -35.6880 -35.6880 -35.6866 -35.6866 -35.6859 -35.6859
   -20.8181 -20.8181 -16.0930 -16.0930 -16.0927 -16.0927 -16.0920 -16.0920
   -16.0907 -16.0907 -13.1216 -13.1216 -13.1205 -13.1205 -13.1093 -13.1093
   -13.1076 -13.1076 -13.0999 -13.0999 -13.0992 -13.0992  -7.5009  -7.5009
    -5.5854  -5.5854  -5.4712  -5.4712  -2.7111  -2.7111  -2.4717  -2.4717
     3.5608   3.5608   3.8276   3.8276   4.9989   4.9989   5.6118   5.6118
     5.8922   5.8922   6.5527   6.5527   8.5995   8.5995   9.1882   9.1882
     9.7403   9.7403  10.1116  10.1116  10.9600  10.9600  11.2067  11.2067
    11.5031  11.5031  11.8096  11.8096  12.7589  12.7589  13.1548  13.1548
    13.4575  13.4575  13.8060  13.8060  14.4511  14.4511  14.8253  14.8253
    15.0837  15.0837  15.6942  15.6942  15.9984  15.9984  16.7246  16.7246

     occupation numbers 
     1.0000   1.0000   1.0000   1.0000   1.0000   1.0000   1.0000   1.0000
     1.0000   1.0000   1.0000   1.0000   1.0000   1.0000   1.0000   1.0000
     1.0000   1.0000   1.0000   1.0000   1.0000   1.0000   1.0000   1.0000
     1.0000   1.0000   1.0000   1.0000   1.0000   1.0000   1.0000   1.0000
     1.0000   1.0000   1.0000   1.0000   1.0000   1.0000   1.0000   1.0000
     1.0000   1.0000   1.0000   1.0000   1.0000   1.0000   1.0000   1.0000
     1.0000   1.0000   1.0000   1.0000   1.0000   1.0000   1.0000   1.0000
     1.0000   1.0000   1.0000   1.0000  -0.0000  -0.0000  -0.0000  -0.0000
    -0.0000  -0.0000  -0.0000  -0.0000  -0.0000  -0.0000  -0.0000  -0.0000
    -0.0000  -0.0000  -0.0000  -0.0000  -0.0000  -0.0000  -0.0000  -0.0000
    -0.0000  -0.0000  -0.0000  -0.0000  -0.0000  -0.0000  -0.0000  -0.0000
    -0.0000  -0.0000  -0.0000  -0.0000  -0.0000  -0.0000  -0.0000  -0.0000

          k =-0.8333-0.0962-0.1479 ( 11540 PWs)   bands (ev):

   -69.0394 -69.0394 -69.0393 -69.0393 -35.9762 -35.9762 -35.9756 -35.9756
   -35.6888 -35.6888 -35.6879 -35.6879 -35.6868 -35.6868 -35.6860 -35.6860
   -20.8181 -20.8181 -16.0928 -16.0928 -16.0926 -16.0926 -16.0920 -16.0920
   -16.0908 -16.0908 -13.1215 -13.1215 -13.1203 -13.1203 -13.1097 -13.1097
   -13.1075 -13.1075 -13.0998 -13.0998 -13.0993 -13.0993  -7.5009  -7.5009
    -5.5860  -5.5860  -5.4710  -5.4710  -2.7045  -2.7045  -2.4759  -2.4759
     3.5540   3.5540   3.8283   3.8283   4.9780   4.9780   5.6153   5.6153
     5.8497   5.8497   6.5403   6.5403   8.6572   8.6572   9.5148   9.5148
     9.8925   9.8925  10.0516  10.0516  10.6762  10.6762  10.9533  10.9533
    11.5182  11.5182  12.2023  12.2023  12.5916  12.5916  13.1925  13.1925
    13.4114  13.4114  13.8411  13.8411  14.3009  14.3009  14.6886  14.6886
    15.1002  15.1002  15.4200  15.4200  15.7321  15.7321  16.3893  16.3894

     occupation numbers 
     1.0000   1.0000   1.0000   1.0000   1.0000   1.0000   1.0000   1.0000
     1.0000   1.0000   1.0000   1.0000   1.0000   1.0000   1.0000   1.0000
     1.0000   1.0000   1.0000   1.0000   1.0000   1.0000   1.0000   1.0000
     1.0000   1.0000   1.0000   1.0000   1.0000   1.0000   1.0000   1.0000
     1.0000   1.0000   1.0000   1.0000   1.0000   1.0000   1.0000   1.0000
     1.0000   1.0000   1.0000   1.0000   1.0000   1.0000   1.0000   1.0000
     1.0000   1.0000   1.0000   1.0000   1.0000   1.0000   1.0000   1.0000
     1.0000   1.0000   1.0000   1.0000  -0.0000  -0.0000  -0.0000  -0.0000
    -0.0000  -0.0000  -0.0000  -0.0000  -0.0000  -0.0000  -0.0000  -0.0000
    -0.0000  -0.0000  -0.0000  -0.0000  -0.0000  -0.0000  -0.0000  -0.0000
    -0.0000  -0.0000  -0.0000  -0.0000  -0.0000  -0.0000  -0.0000  -0.0000
    -0.0000  -0.0000  -0.0000  -0.0000  -0.0000  -0.0000  -0.0000  -0.0000

          k =-0.6667 0.0000 0.0000 ( 11514 PWs)   bands (ev):

   -69.0394 -69.0394 -69.0394 -69.0394 -35.9757 -35.9757 -35.9757 -35.9757
   -35.6889 -35.6889 -35.6875 -35.6875 -35.6869 -35.6869 -35.6856 -35.6856
   -20.8170 -20.8170 -16.0924 -16.0924 -16.0923 -16.0923 -16.0921 -16.0921
   -16.0911 -16.0911 -13.1210 -13.1210 -13.1198 -13.1198 -13.1096 -13.1096
   -13.1079 -13.1079 -13.0995 -13.0995 -13.0992 -13.0992  -7.5053  -7.5053
    -5.5775  -5.5775  -5.4975  -5.4975  -2.5708  -2.5708  -2.5325  -2.5325
     3.5493   3.5493   3.9546   3.9546   4.3670   4.3670   5.6569   5.6569
     5.7951   5.7951   6.1760   6.1760   9.6795   9.6795   9.7526   9.7526
     9.9412   9.9412  10.2109  10.2109  10.4621  10.4621  10.6451  10.6451
    12.5236  12.5236  12.5865  12.5865  12.7053  12.7053  12.7429  12.7429
    12.9395  12.9395  13.7305  13.7305  13.8936  13.8936  14.0083  14.0083
    14.8405  14.8405  15.1625  15.1625  15.9979  15.9980  16.3977  16.3977

     occupation numbers 
     1.0000   1.0000   1.0000   1.0000   1.0000   1.0000   1.0000   1.0000
     1.0000   1.0000   1.0000   1.0000   1.0000   1.0000   1.0000   1.0000
     1.0000   1.0000   1.0000   1.0000   1.0000   1.0000   1.0000   1.0000
     1.0000   1.0000   1.0000   1.0000   1.0000   1.0000   1.0000   1.0000
     1.0000   1.0000   1.0000   1.0000   1.0000   1.0000   1.0000   1.0000
     1.0000   1.0000   1.0000   1.0000   1.0000   1.0000   1.0000   1.0000
     1.0000   1.0000   1.0000   1.0000   1.0000   1.0000   1.0000   1.0000
     1.0000   1.0000   1.0000   1.0000  -0.0000  -0.0000  -0.0000  -0.0000
    -0.0000  -0.0000  -0.0000  -0.0000  -0.0000  -0.0000  -0.0000  -0.0000
    -0.0000  -0.0000  -0.0000  -0.0000  -0.0000  -0.0000  -0.0000  -0.0000
    -0.0000  -0.0000  -0.0000  -0.0000  -0.0000  -0.0000  -0.0000  -0.0000
    -0.0000  -0.0000  -0.0000  -0.0000  -0.0000  -0.0000  -0.0000  -0.0000

          k =-0.6667 0.0000 0.1479 ( 11511 PWs)   bands (ev):

   -69.0394 -69.0394 -69.0394 -69.0394 -35.9756 -35.9756 -35.9756 -35.9756
   -35.6886 -35.6886 -35.6873 -35.6873 -35.6869 -35.6869 -35.6857 -35.6857
   -20.8170 -20.8170 -16.0926 -16.0926 -16.0923 -16.0923 -16.0923 -16.0923
   -16.0906 -16.0906 -13.1209 -13.1209 -13.1202 -13.1202 -13.1095 -13.1095
   -13.1076 -13.1076 -13.0996 -13.0996 -13.0991 -13.0991  -7.5053  -7.5053
    -5.5768  -5.5768  -5.4975  -5.4975  -2.5729  -2.5729  -2.5360  -2.5360
     3.5686   3.5686   3.9808   3.9808   4.4311   4.4311   5.5791   5.5791
     5.8154   5.8154   6.1126   6.1126   9.2836   9.2836   9.3552   9.3552
    10.0595  10.0595  10.7152  10.7152  10.8255  10.8255  11.0894  11.0894
    11.8354  11.8354  11.9051  11.9051  12.5010  12.5010  13.2437  13.2437
    13.5921  13.5921  13.8397  13.8397  13.9055  13.9055  14.0096  14.0096
    14.8256  14.8256  15.1503  15.1503  15.2821  15.2821  17.3135  17.3136

     occupation numbers 
     1.0000   1.0000   1.0000   1.0000   1.0000   1.0000   1.0000   1.0000
     1.0000   1.0000   1.0000   1.0000   1.0000   1.0000   1.0000   1.0000
     1.0000   1.0000   1.0000   1.0000   1.0000   1.0000   1.0000   1.0000
     1.0000   1.0000   1.0000   1.0000   1.0000   1.0000   1.0000   1.0000
     1.0000   1.0000   1.0000   1.0000   1.0000   1.0000   1.0000   1.0000
     1.0000   1.0000   1.0000   1.0000   1.0000   1.0000   1.0000   1.0000
     1.0000   1.0000   1.0000   1.0000   1.0000   1.0000   1.0000   1.0000
     1.0000   1.0000   1.0000   1.0000  -0.0000  -0.0000  -0.0000  -0.0000
    -0.0000  -0.0000  -0.0000  -0.0000  -0.0000  -0.0000  -0.0000  -0.0000
    -0.0000  -0.0000  -0.0000  -0.0000  -0.0000  -0.0000  -0.0000  -0.0000
    -0.0000  -0.0000  -0.0000  -0.0000  -0.0000  -0.0000  -0.0000  -0.0000
    -0.0000  -0.0000  -0.0000  -0.0000  -0.0000  -0.0000  -0.0000  -0.0000

          k =-0.6667 0.0000-0.2958 ( 11538 PWs)   bands (ev):

   -69.0394 -69.0394 -69.0394 -69.0394 -35.9759 -35.9759 -35.9758 -35.9758
   -35.6890 -35.6890 -35.6875 -35.6875 -35.6872 -35.6872 -35.6857 -35.6857
   -20.8170 -20.8170 -16.0929 -16.0929 -16.0923 -16.0923 -16.0923 -16.0923
   -16.0903 -16.0903 -13.1209 -13.1209 -13.1207 -13.1207 -13.1094 -13.1094
   -13.1073 -13.1073 -13.0996 -13.0996 -13.0991 -13.0991  -7.5052  -7.5052
    -5.5761  -5.5761  -5.4974  -5.4974  -2.5749  -2.5749  -2.5395  -2.5395
     3.5881   3.5881   4.0009   4.0009   4.5333   4.5333   5.4078   5.4078
     5.8372   5.8372   6.1335   6.1335   9.0250   9.0250   9.0280   9.0280
    10.4856  10.4856  10.7195  10.7195  11.2838  11.2838  11.4103  11.4103
    11.6012  11.6012  11.8309  11.8309  12.7562  12.7562  12.8480  12.8480
    12.8658  12.8658  13.1975  13.1975  14.2780  14.2780  14.4457  14.4457
    15.0937  15.0937  15.7426  15.7426  15.8042  15.8042  17.4654  17.4695

     occupation numbers 
     1.0000   1.0000   1.0000   1.0000   1.0000   1.0000   1.0000   1.0000
     1.0000   1.0000   1.0000   1.0000   1.0000   1.0000   1.0000   1.0000
     1.0000   1.0000   1.0000   1.0000   1.0000   1.0000   1.0000   1.0000
     1.0000   1.0000   1.0000   1.0000   1.0000   1.0000   1.0000   1.0000
     1.0000   1.0000   1.0000   1.0000   1.0000   1.0000   1.0000   1.0000
     1.0000   1.0000   1.0000   1.0000   1.0000   1.0000   1.0000   1.0000
     1.0000   1.0000   1.0000   1.0000   1.0000   1.0000   1.0000   1.0000
     1.0000   1.0000   1.0000   1.0000  -0.0000  -0.0000  -0.0000  -0.0000
    -0.0000  -0.0000  -0.0000  -0.0000  -0.0000  -0.0000  -0.0000  -0.0000
    -0.0000  -0.0000  -0.0000  -0.0000  -0.0000  -0.0000  -0.0000  -0.0000
    -0.0000  -0.0000  -0.0000  -0.0000  -0.0000  -0.0000  -0.0000  -0.0000
    -0.0000  -0.0000  -0.0000  -0.0000  -0.0000  -0.0000  -0.0000  -0.0000

          k =-0.6667 0.0000-0.1479 ( 11511 PWs)   bands (ev):

   -69.0394 -69.0394 -69.0394 -69.0394 -35.9756 -35.9756 -35.9756 -35.9756
   -35.6886 -35.6886 -35.6873 -35.6873 -35.6869 -35.6869 -35.6857 -35.6857
   -20.8170 -20.8170 -16.0926 -16.0926 -16.0923 -16.0923 -16.0923 -16.0923
   -16.0906 -16.0906 -13.1209 -13.1209 -13.1202 -13.1202 -13.1095 -13.1095
   -13.1076 -13.1076 -13.0996 -13.0996 -13.0991 -13.0991  -7.5053  -7.5053
    -5.5768  -5.5768  -5.4975  -5.4975  -2.5729  -2.5729  -2.5360  -2.5360
     3.5686   3.5686   3.9808   3.9808   4.4311   4.4311   5.5791   5.5791
     5.8154   5.8154   6.1126   6.1126   9.2836   9.2836   9.3552   9.3552
    10.0595  10.0595  10.7152  10.7152  10.8255  10.8255  11.0894  11.0894
    11.8354  11.8354  11.9051  11.9051  12.5010  12.5010  13.2437  13.2437
    13.5921  13.5921  13.8397  13.8397  13.9055  13.9055  14.0096  14.0096
    14.8256  14.8256  15.1503  15.1503  15.2821  15.2821  17.3136  17.3136

     occupation numbers 
     1.0000   1.0000   1.0000   1.0000   1.0000   1.0000   1.0000   1.0000
     1.0000   1.0000   1.0000   1.0000   1.0000   1.0000   1.0000   1.0000
     1.0000   1.0000   1.0000   1.0000   1.0000   1.0000   1.0000   1.0000
     1.0000   1.0000   1.0000   1.0000   1.0000   1.0000   1.0000   1.0000
     1.0000   1.0000   1.0000   1.0000   1.0000   1.0000   1.0000   1.0000
     1.0000   1.0000   1.0000   1.0000   1.0000   1.0000   1.0000   1.0000
     1.0000   1.0000   1.0000   1.0000   1.0000   1.0000   1.0000   1.0000
     1.0000   1.0000   1.0000   1.0000  -0.0000  -0.0000  -0.0000  -0.0000
    -0.0000  -0.0000  -0.0000  -0.0000  -0.0000  -0.0000  -0.0000  -0.0000
    -0.0000  -0.0000  -0.0000  -0.0000  -0.0000  -0.0000  -0.0000  -0.0000
    -0.0000  -0.0000  -0.0000  -0.0000  -0.0000  -0.0000  -0.0000  -0.0000
    -0.0000  -0.0000  -0.0000  -0.0000  -0.0000  -0.0000  -0.0000  -0.0000

          k =-0.5000 0.0962 0.0000 ( 11514 PWs)   bands (ev):

   -69.0394 -69.0394 -69.0393 -69.0393 -35.9761 -35.9761 -35.9753 -35.9753
   -35.6886 -35.6886 -35.6878 -35.6878 -35.6866 -35.6866 -35.6858 -35.6858
   -20.8181 -20.8181 -16.0928 -16.0928 -16.0923 -16.0923 -16.0922 -16.0922
   -16.0909 -16.0909 -13.1217 -13.1217 -13.1198 -13.1198 -13.1101 -13.1101
   -13.1072 -13.1072 -13.0997 -13.0997 -13.0994 -13.0994  -7.5010  -7.5010
    -5.5869  -5.5869  -5.4707  -5.4707  -2.6366  -2.6366  -2.5467  -2.5467
     3.5773   3.5773   3.9212   3.9212   4.8874   4.8874   5.5762   5.5762
     5.7785   5.7785   6.3884   6.3884   8.9133   8.9133   9.6301   9.6301
    10.0290  10.0290  10.3549  10.3549  10.8278  10.8278  11.0835  11.0835
    11.5081  11.5081  11.7573  11.7573  12.3956  12.3956  12.8295  12.8295
    13.3217  13.3217  13.5479  13.5479  14.1331  14.1331  14.7282  14.7282
    15.0256  15.0256  15.3207  15.3208  15.9386  15.9386  16.6204  16.6205

     occupation numbers 
     1.0000   1.0000   1.0000   1.0000   1.0000   1.0000   1.0000   1.0000
     1.0000   1.0000   1.0000   1.0000   1.0000   1.0000   1.0000   1.0000
     1.0000   1.0000   1.0000   1.0000   1.0000   1.0000   1.0000   1.0000
     1.0000   1.0000   1.0000   1.0000   1.0000   1.0000   1.0000   1.0000
     1.0000   1.0000   1.0000   1.0000   1.0000   1.0000   1.0000   1.0000
     1.0000   1.0000   1.0000   1.0000   1.0000   1.0000   1.0000   1.0000
     1.0000   1.0000   1.0000   1.0000   1.0000   1.0000   1.0000   1.0000
     1.0000   1.0000   1.0000   1.0000  -0.0000  -0.0000  -0.0000  -0.0000
    -0.0000  -0.0000  -0.0000  -0.0000  -0.0000  -0.0000  -0.0000  -0.0000
    -0.0000  -0.0000  -0.0000  -0.0000  -0.0000  -0.0000  -0.0000  -0.0000
    -0.0000  -0.0000  -0.0000  -0.0000  -0.0000  -0.0000  -0.0000  -0.0000
    -0.0000  -0.0000  -0.0000  -0.0000  -0.0000  -0.0000  -0.0000  -0.0000

          k =-0.5000 0.0962 0.1479 ( 11540 PWs)   bands (ev):

   -69.0394 -69.0394 -69.0393 -69.0393 -35.9762 -35.9762 -35.9756 -35.9756
   -35.6888 -35.6888 -35.6879 -35.6879 -35.6868 -35.6868 -35.6860 -35.6860
   -20.8181 -20.8181 -16.0928 -16.0928 -16.0926 -16.0926 -16.0920 -16.0920
   -16.0908 -16.0908 -13.1215 -13.1215 -13.1203 -13.1203 -13.1097 -13.1097
   -13.1075 -13.1075 -13.0998 -13.0998 -13.0993 -13.0993  -7.5009  -7.5009
    -5.5860  -5.5860  -5.4710  -5.4710  -2.7045  -2.7045  -2.4759  -2.4759
     3.5540   3.5540   3.8283   3.8283   4.9780   4.9780   5.6153   5.6153
     5.8497   5.8497   6.5403   6.5403   8.6572   8.6572   9.5148   9.5148
     9.8925   9.8925  10.0516  10.0516  10.6762  10.6762  10.9533  10.9533
    11.5182  11.5182  12.2023  12.2023  12.5916  12.5916  13.1925  13.1925
    13.4114  13.4114  13.8411  13.8411  14.3009  14.3009  14.6886  14.6886
    15.1002  15.1002  15.4200  15.4200  15.7321  15.7321  16.3893  16.3894

     occupation numbers 
     1.0000   1.0000   1.0000   1.0000   1.0000   1.0000   1.0000   1.0000
     1.0000   1.0000   1.0000   1.0000   1.0000   1.0000   1.0000   1.0000
     1.0000   1.0000   1.0000   1.0000   1.0000   1.0000   1.0000   1.0000
     1.0000   1.0000   1.0000   1.0000   1.0000   1.0000   1.0000   1.0000
     1.0000   1.0000   1.0000   1.0000   1.0000   1.0000   1.0000   1.0000
     1.0000   1.0000   1.0000   1.0000   1.0000   1.0000   1.0000   1.0000
     1.0000   1.0000   1.0000   1.0000   1.0000   1.0000   1.0000   1.0000
     1.0000   1.0000   1.0000   1.0000  -0.0000  -0.0000  -0.0000  -0.0000
    -0.0000  -0.0000  -0.0000  -0.0000  -0.0000  -0.0000  -0.0000  -0.0000
    -0.0000  -0.0000  -0.0000  -0.0000  -0.0000  -0.0000  -0.0000  -0.0000
    -0.0000  -0.0000  -0.0000  -0.0000  -0.0000  -0.0000  -0.0000  -0.0000
    -0.0000  -0.0000  -0.0000  -0.0000  -0.0000  -0.0000  -0.0000  -0.0000

          k =-0.5000 0.0962-0.2958 ( 11530 PWs)   bands (ev):

   -69.0394 -69.0394 -69.0393 -69.0393 -35.9761 -35.9761 -35.9755 -35.9755
   -35.6887 -35.6887 -35.6880 -35.6880 -35.6866 -35.6866 -35.6859 -35.6859
   -20.8181 -20.8181 -16.0930 -16.0930 -16.0927 -16.0927 -16.0920 -16.0920
   -16.0907 -16.0907 -13.1216 -13.1216 -13.1205 -13.1205 -13.1093 -13.1093
   -13.1076 -13.1076 -13.0999 -13.0999 -13.0992 -13.0992  -7.5009  -7.5009
    -5.5854  -5.5854  -5.4712  -5.4712  -2.7111  -2.7111  -2.4717  -2.4717
     3.5608   3.5608   3.8276   3.8276   4.9989   4.9989   5.6118   5.6118
     5.8922   5.8922   6.5527   6.5527   8.5995   8.5995   9.1882   9.1882
     9.7403   9.7403  10.1116  10.1116  10.9600  10.9600  11.2066  11.2066
    11.5031  11.5031  11.8096  11.8096  12.7589  12.7589  13.1548  13.1548
    13.4575  13.4575  13.8060  13.8060  14.4511  14.4511  14.8253  14.8253
    15.0837  15.0837  15.6942  15.6942  15.9984  15.9984  16.7246  16.7246

     occupation numbers 
     1.0000   1.0000   1.0000   1.0000   1.0000   1.0000   1.0000   1.0000
     1.0000   1.0000   1.0000   1.0000   1.0000   1.0000   1.0000   1.0000
     1.0000   1.0000   1.0000   1.0000   1.0000   1.0000   1.0000   1.0000
     1.0000   1.0000   1.0000   1.0000   1.0000   1.0000   1.0000   1.0000
     1.0000   1.0000   1.0000   1.0000   1.0000   1.0000   1.0000   1.0000
     1.0000   1.0000   1.0000   1.0000   1.0000   1.0000   1.0000   1.0000
     1.0000   1.0000   1.0000   1.0000   1.0000   1.0000   1.0000   1.0000
     1.0000   1.0000   1.0000   1.0000  -0.0000  -0.0000  -0.0000  -0.0000
    -0.0000  -0.0000  -0.0000  -0.0000  -0.0000  -0.0000  -0.0000  -0.0000
    -0.0000  -0.0000  -0.0000  -0.0000  -0.0000  -0.0000  -0.0000  -0.0000
    -0.0000  -0.0000  -0.0000  -0.0000  -0.0000  -0.0000  -0.0000  -0.0000
    -0.0000  -0.0000  -0.0000  -0.0000  -0.0000  -0.0000  -0.0000  -0.0000

          k =-0.5000 0.0962-0.1479 ( 11540 PWs)   bands (ev):

   -69.0394 -69.0394 -69.0393 -69.0393 -35.9763 -35.9763 -35.9755 -35.9755
   -35.6889 -35.6889 -35.6880 -35.6880 -35.6868 -35.6868 -35.6859 -35.6859
   -20.8181 -20.8181 -16.0929 -16.0929 -16.0926 -16.0926 -16.0920 -16.0920
   -16.0908 -16.0908 -13.1218 -13.1218 -13.1201 -13.1201 -13.1097 -13.1097
   -13.1074 -13.1074 -13.0998 -13.0998 -13.0993 -13.0993  -7.5009  -7.5009
    -5.5863  -5.5863  -5.4709  -5.4709  -2.6503  -2.6503  -2.5354  -2.5354
     3.5907   3.5907   3.9064   3.9064   4.9302   4.9302   5.5370   5.5370
     5.8491   5.8491   6.3819   6.3819   8.8071   8.8071   9.4417   9.4417
     9.9005   9.9005  10.3492  10.3492  10.8058  10.8058  11.3171  11.3171
    11.5415  11.5415  11.9544  11.9544  12.4051  12.4051  12.6959  12.6959
    13.0682  13.0682  13.8274  13.8274  14.2183  14.2183  14.7715  14.7715
    15.1343  15.1343  15.6424  15.6425  15.8651  15.8651  16.9025  16.9025

     occupation numbers 
     1.0000   1.0000   1.0000   1.0000   1.0000   1.0000   1.0000   1.0000
     1.0000   1.0000   1.0000   1.0000   1.0000   1.0000   1.0000   1.0000
     1.0000   1.0000   1.0000   1.0000   1.0000   1.0000   1.0000   1.0000
     1.0000   1.0000   1.0000   1.0000   1.0000   1.0000   1.0000   1.0000
     1.0000   1.0000   1.0000   1.0000   1.0000   1.0000   1.0000   1.0000
     1.0000   1.0000   1.0000   1.0000   1.0000   1.0000   1.0000   1.0000
     1.0000   1.0000   1.0000   1.0000   1.0000   1.0000   1.0000   1.0000
     1.0000   1.0000   1.0000   1.0000  -0.0000  -0.0000  -0.0000  -0.0000
    -0.0000  -0.0000  -0.0000  -0.0000  -0.0000  -0.0000  -0.0000  -0.0000
    -0.0000  -0.0000  -0.0000  -0.0000  -0.0000  -0.0000  -0.0000  -0.0000
    -0.0000  -0.0000  -0.0000  -0.0000  -0.0000  -0.0000  -0.0000  -0.0000
    -0.0000  -0.0000  -0.0000  -0.0000  -0.0000  -0.0000  -0.0000  -0.0000

          k =-0.1667 0.0962 0.0000 ( 11541 PWs)   bands (ev):

   -69.0395 -69.0395 -69.0392 -69.0392 -35.9767 -35.9767 -35.9747 -35.9747
   -35.6886 -35.6886 -35.6882 -35.6882 -35.6864 -35.6864 -35.6858 -35.6858
   -20.8244 -20.8244 -16.0934 -16.0934 -16.0932 -16.0932 -16.0928 -16.0928
   -16.0916 -16.0916 -13.1230 -13.1230 -13.1222 -13.1222 -13.1096 -13.1096
   -13.1071 -13.1071 -13.1014 -13.1014 -13.1011 -13.1011  -7.4707  -7.4707
    -5.5470  -5.5470  -5.4164  -5.4164  -3.0768  -3.0768  -2.5138  -2.5138
     3.6389   3.6389   5.0971   5.0971   5.3704   5.3704   6.2519   6.2519
     6.5684   6.5684   7.3356   7.3356   8.6720   8.6720   8.7508   8.7508
     9.5976   9.5976   9.9161   9.9161  10.0261  10.0261  10.4372  10.4372
    10.6454  10.6454  11.2377  11.2377  11.8190  11.8190  12.2576  12.2576
    13.0730  13.0730  13.2475  13.2475  13.3406  13.3406  13.7379  13.7379
    14.6038  14.6038  14.9021  14.9021  15.4823  15.4823  15.9449  15.9449

     occupation numbers 
     1.0000   1.0000   1.0000   1.0000   1.0000   1.0000   1.0000   1.0000
     1.0000   1.0000   1.0000   1.0000   1.0000   1.0000   1.0000   1.0000
     1.0000   1.0000   1.0000   1.0000   1.0000   1.0000   1.0000   1.0000
     1.0000   1.0000   1.0000   1.0000   1.0000   1.0000   1.0000   1.0000
     1.0000   1.0000   1.0000   1.0000   1.0000   1.0000   1.0000   1.0000
     1.0000   1.0000   1.0000   1.0000   1.0000   1.0000   1.0000   1.0000
     1.0000   1.0000   1.0000   1.0000   1.0000   1.0000   1.0000   1.0000
     1.0000   1.0000   1.0000   1.0000  -0.0000  -0.0000  -0.0000  -0.0000
    -0.0000  -0.0000  -0.0000  -0.0000  -0.0000  -0.0000  -0.0000  -0.0000
    -0.0000  -0.0000  -0.0000  -0.0000  -0.0000  -0.0000  -0.0000  -0.0000
    -0.0000  -0.0000  -0.0000  -0.0000  -0.0000  -0.0000  -0.0000  -0.0000
    -0.0000  -0.0000  -0.0000  -0.0000  -0.0000  -0.0000  -0.0000  -0.0000

          k =-0.1667 0.0962 0.1479 ( 11537 PWs)   bands (ev):

   -69.0395 -69.0395 -69.0392 -69.0392 -35.9765 -35.9765 -35.9749 -35.9749
   -35.6885 -35.6885 -35.6879 -35.6879 -35.6866 -35.6866 -35.6859 -35.6859
   -20.8244 -20.8244 -16.0933 -16.0933 -16.0931 -16.0931 -16.0927 -16.0927
   -16.0918 -16.0918 -13.1233 -13.1233 -13.1218 -13.1218 -13.1093 -13.1093
   -13.1075 -13.1075 -13.1016 -13.1016 -13.1009 -13.1009  -7.4710  -7.4710
    -5.5501  -5.5501  -5.4161  -5.4161  -3.0111  -3.0111  -2.5859  -2.5859
     3.7350   3.7350   4.8984   4.8984   5.4807   5.4807   6.2760   6.2760
     6.4691   6.4691   7.3730   7.3730   8.7667   8.7667   9.1001   9.1001
     9.2261   9.2261   9.9441   9.9441  10.0745  10.0745  10.1739  10.1739
    10.8303  10.8303  11.0790  11.0790  11.6681  11.6681  12.3134  12.3134
    13.0845  13.0845  13.3507  13.3507  13.6228  13.6228  13.9618  13.9618
    14.4727  14.4727  14.7834  14.7834  15.3953  15.3953  15.5303  15.5303

     occupation numbers 
     1.0000   1.0000   1.0000   1.0000   1.0000   1.0000   1.0000   1.0000
     1.0000   1.0000   1.0000   1.0000   1.0000   1.0000   1.0000   1.0000
     1.0000   1.0000   1.0000   1.0000   1.0000   1.0000   1.0000   1.0000
     1.0000   1.0000   1.0000   1.0000   1.0000   1.0000   1.0000   1.0000
     1.0000   1.0000   1.0000   1.0000   1.0000   1.0000   1.0000   1.0000
     1.0000   1.0000   1.0000   1.0000   1.0000   1.0000   1.0000   1.0000
     1.0000   1.0000   1.0000   1.0000   1.0000   1.0000   1.0000   1.0000
     1.0000   1.0000   1.0000   1.0000  -0.0000  -0.0000  -0.0000  -0.0000
    -0.0000  -0.0000  -0.0000  -0.0000  -0.0000  -0.0000  -0.0000  -0.0000
    -0.0000  -0.0000  -0.0000  -0.0000  -0.0000  -0.0000  -0.0000  -0.0000
    -0.0000  -0.0000  -0.0000  -0.0000  -0.0000  -0.0000  -0.0000  -0.0000
    -0.0000  -0.0000  -0.0000  -0.0000  -0.0000  -0.0000  -0.0000  -0.0000

          k =-0.1667 0.0962-0.2958 ( 11564 PWs)   bands (ev):

   -69.0395 -69.0395 -69.0392 -69.0392 -35.9768 -35.9768 -35.9751 -35.9751
   -35.6887 -35.6887 -35.6882 -35.6882 -35.6866 -35.6866 -35.6864 -35.6864
   -20.8244 -20.8244 -16.0934 -16.0934 -16.0931 -16.0931 -16.0924 -16.0924
   -16.0921 -16.0921 -13.1237 -13.1237 -13.1215 -13.1215 -13.1091 -13.1091
   -13.1077 -13.1077 -13.1018 -13.1018 -13.1008 -13.1008  -7.4713  -7.4713
    -5.5534  -5.5534  -5.4158  -5.4158  -2.8615  -2.8615  -2.7458  -2.7458
     3.9272   3.9272   4.7109   4.7109   5.6412   5.6412   6.0677   6.0677
     6.5949   6.5949   6.9102   6.9102   8.7410   8.7410   9.3730   9.3730
     9.6978   9.6978   9.9962   9.9962  10.1686  10.1686  10.2568  10.2568
    10.7224  10.7224  11.2499  11.2499  11.7146  11.7146  12.0672  12.0672
    12.6312  12.6312  12.8896  12.8896  13.3228  13.3228  14.0622  14.0622
    14.2872  14.2872  14.5025  14.5025  15.8952  15.8952  16.4374  16.4375

     occupation numbers 
     1.0000   1.0000   1.0000   1.0000   1.0000   1.0000   1.0000   1.0000
     1.0000   1.0000   1.0000   1.0000   1.0000   1.0000   1.0000   1.0000
     1.0000   1.0000   1.0000   1.0000   1.0000   1.0000   1.0000   1.0000
     1.0000   1.0000   1.0000   1.0000   1.0000   1.0000   1.0000   1.0000
     1.0000   1.0000   1.0000   1.0000   1.0000   1.0000   1.0000   1.0000
     1.0000   1.0000   1.0000   1.0000   1.0000   1.0000   1.0000   1.0000
     1.0000   1.0000   1.0000   1.0000   1.0000   1.0000   1.0000   1.0000
     1.0000   1.0000   1.0000   1.0000  -0.0000  -0.0000  -0.0000  -0.0000
    -0.0000  -0.0000  -0.0000  -0.0000  -0.0000  -0.0000  -0.0000  -0.0000
    -0.0000  -0.0000  -0.0000  -0.0000  -0.0000  -0.0000  -0.0000  -0.0000
    -0.0000  -0.0000  -0.0000  -0.0000  -0.0000  -0.0000  -0.0000  -0.0000
    -0.0000  -0.0000  -0.0000  -0.0000  -0.0000  -0.0000  -0.0000  -0.0000

          k =-0.1667 0.0962-0.1479 ( 11537 PWs)   bands (ev):

   -69.0395 -69.0395 -69.0392 -69.0392 -35.9766 -35.9766 -35.9749 -35.9749
   -35.6886 -35.6886 -35.6880 -35.6880 -35.6865 -35.6865 -35.6859 -35.6859
   -20.8244 -20.8244 -16.0934 -16.0934 -16.0932 -16.0932 -16.0926 -16.0926
   -16.0918 -16.0918 -13.1235 -13.1235 -13.1217 -13.1217 -13.1095 -13.1095
   -13.1073 -13.1073 -13.1016 -13.1016 -13.1009 -13.1009  -7.4710  -7.4710
    -5.5504  -5.5504  -5.4160  -5.4160  -2.9930  -2.9930  -2.6081  -2.6081
     3.7887   3.7887   4.9786   4.9786   5.4053   5.4053   6.2524   6.2524
     6.5173   6.5173   6.9804   6.9804   8.6019   8.6019   9.0190   9.0190
     9.8337   9.8337  10.0055  10.0055  10.1626  10.1626  10.5402  10.5402
    10.9993  10.9993  11.5240  11.5240  11.8417  11.8417  11.9812  11.9812
    12.2819  12.2819  12.5116  12.5116  12.8464  12.8464  14.1040  14.1040
    14.7454  14.7454  15.2703  15.2703  15.4131  15.4131  16.1424  16.1424

     occupation numbers 
     1.0000   1.0000   1.0000   1.0000   1.0000   1.0000   1.0000   1.0000
     1.0000   1.0000   1.0000   1.0000   1.0000   1.0000   1.0000   1.0000
     1.0000   1.0000   1.0000   1.0000   1.0000   1.0000   1.0000   1.0000
     1.0000   1.0000   1.0000   1.0000   1.0000   1.0000   1.0000   1.0000
     1.0000   1.0000   1.0000   1.0000   1.0000   1.0000   1.0000   1.0000
     1.0000   1.0000   1.0000   1.0000   1.0000   1.0000   1.0000   1.0000
     1.0000   1.0000   1.0000   1.0000   1.0000   1.0000   1.0000   1.0000
     1.0000   1.0000   1.0000   1.0000  -0.0000  -0.0000  -0.0000  -0.0000
    -0.0000  -0.0000  -0.0000  -0.0000  -0.0000  -0.0000  -0.0000  -0.0000
    -0.0000  -0.0000  -0.0000  -0.0000  -0.0000  -0.0000  -0.0000  -0.0000
    -0.0000  -0.0000  -0.0000  -0.0000  -0.0000  -0.0000  -0.0000  -0.0000
    -0.0000  -0.0000  -0.0000  -0.0000  -0.0000  -0.0000  -0.0000  -0.0000

          k = 0.0000 0.1925 0.0000 ( 11541 PWs)   bands (ev):

   -69.0395 -69.0395 -69.0392 -69.0392 -35.9767 -35.9767 -35.9747 -35.9747
   -35.6886 -35.6886 -35.6882 -35.6882 -35.6864 -35.6864 -35.6858 -35.6858
   -20.8244 -20.8244 -16.0934 -16.0934 -16.0932 -16.0932 -16.0928 -16.0928
   -16.0916 -16.0916 -13.1230 -13.1230 -13.1222 -13.1222 -13.1096 -13.1096
   -13.1071 -13.1071 -13.1014 -13.1014 -13.1011 -13.1011  -7.4707  -7.4707
    -5.5470  -5.5470  -5.4164  -5.4164  -3.0768  -3.0768  -2.5138  -2.5138
     3.6389   3.6389   5.0971   5.0971   5.3704   5.3704   6.2519   6.2519
     6.5684   6.5684   7.3356   7.3356   8.6720   8.6720   8.7508   8.7508
     9.5976   9.5976   9.9161   9.9161  10.0261  10.0261  10.4372  10.4372
    10.6454  10.6454  11.2377  11.2377  11.8190  11.8190  12.2576  12.2576
    13.0730  13.0730  13.2475  13.2475  13.3406  13.3406  13.7379  13.7379
    14.6039  14.6039  14.9021  14.9021  15.4823  15.4823  15.9449  15.9449

     occupation numbers 
     1.0000   1.0000   1.0000   1.0000   1.0000   1.0000   1.0000   1.0000
     1.0000   1.0000   1.0000   1.0000   1.0000   1.0000   1.0000   1.0000
     1.0000   1.0000   1.0000   1.0000   1.0000   1.0000   1.0000   1.0000
     1.0000   1.0000   1.0000   1.0000   1.0000   1.0000   1.0000   1.0000
     1.0000   1.0000   1.0000   1.0000   1.0000   1.0000   1.0000   1.0000
     1.0000   1.0000   1.0000   1.0000   1.0000   1.0000   1.0000   1.0000
     1.0000   1.0000   1.0000   1.0000   1.0000   1.0000   1.0000   1.0000
     1.0000   1.0000   1.0000   1.0000  -0.0000  -0.0000  -0.0000  -0.0000
    -0.0000  -0.0000  -0.0000  -0.0000  -0.0000  -0.0000  -0.0000  -0.0000
    -0.0000  -0.0000  -0.0000  -0.0000  -0.0000  -0.0000  -0.0000  -0.0000
    -0.0000  -0.0000  -0.0000  -0.0000  -0.0000  -0.0000  -0.0000  -0.0000
    -0.0000  -0.0000  -0.0000  -0.0000  -0.0000  -0.0000  -0.0000  -0.0000

          k = 0.0000 0.1925 0.1479 ( 11537 PWs)   bands (ev):

   -69.0395 -69.0395 -69.0392 -69.0392 -35.9766 -35.9766 -35.9749 -35.9749
   -35.6886 -35.6886 -35.6880 -35.6880 -35.6865 -35.6865 -35.6859 -35.6859
   -20.8244 -20.8244 -16.0934 -16.0934 -16.0932 -16.0932 -16.0926 -16.0926
   -16.0918 -16.0918 -13.1235 -13.1235 -13.1217 -13.1217 -13.1095 -13.1095
   -13.1073 -13.1073 -13.1016 -13.1016 -13.1009 -13.1009  -7.4710  -7.4710
    -5.5504  -5.5504  -5.4160  -5.4160  -2.9930  -2.9930  -2.6081  -2.6081
     3.7887   3.7887   4.9786   4.9786   5.4053   5.4053   6.2524   6.2524
     6.5172   6.5172   6.9804   6.9804   8.6019   8.6019   9.0190   9.0190
     9.8337   9.8337  10.0055  10.0055  10.1626  10.1626  10.5402  10.5402
    10.9993  10.9993  11.5240  11.5240  11.8417  11.8417  11.9812  11.9812
    12.2819  12.2819  12.5116  12.5116  12.8464  12.8464  14.1040  14.1040
    14.7454  14.7454  15.2703  15.2703  15.4131  15.4131  16.1424  16.1424

     occupation numbers 
     1.0000   1.0000   1.0000   1.0000   1.0000   1.0000   1.0000   1.0000
     1.0000   1.0000   1.0000   1.0000   1.0000   1.0000   1.0000   1.0000
     1.0000   1.0000   1.0000   1.0000   1.0000   1.0000   1.0000   1.0000
     1.0000   1.0000   1.0000   1.0000   1.0000   1.0000   1.0000   1.0000
     1.0000   1.0000   1.0000   1.0000   1.0000   1.0000   1.0000   1.0000
     1.0000   1.0000   1.0000   1.0000   1.0000   1.0000   1.0000   1.0000
     1.0000   1.0000   1.0000   1.0000   1.0000   1.0000   1.0000   1.0000
     1.0000   1.0000   1.0000   1.0000  -0.0000  -0.0000  -0.0000  -0.0000
    -0.0000  -0.0000  -0.0000  -0.0000  -0.0000  -0.0000  -0.0000  -0.0000
    -0.0000  -0.0000  -0.0000  -0.0000  -0.0000  -0.0000  -0.0000  -0.0000
    -0.0000  -0.0000  -0.0000  -0.0000  -0.0000  -0.0000  -0.0000  -0.0000
    -0.0000  -0.0000  -0.0000  -0.0000  -0.0000  -0.0000  -0.0000  -0.0000

          k = 0.0000 0.1925-0.2958 ( 11564 PWs)   bands (ev):

   -69.0395 -69.0395 -69.0392 -69.0392 -35.9768 -35.9768 -35.9751 -35.9751
   -35.6887 -35.6887 -35.6882 -35.6882 -35.6866 -35.6866 -35.6864 -35.6864
   -20.8244 -20.8244 -16.0934 -16.0934 -16.0931 -16.0931 -16.0924 -16.0924
   -16.0921 -16.0921 -13.1237 -13.1237 -13.1215 -13.1215 -13.1091 -13.1091
   -13.1077 -13.1077 -13.1018 -13.1018 -13.1008 -13.1008  -7.4713  -7.4713
    -5.5534  -5.5534  -5.4158  -5.4158  -2.8615  -2.8615  -2.7458  -2.7458
     3.9272   3.9272   4.7109   4.7109   5.6412   5.6412   6.0677   6.0677
     6.5949   6.5949   6.9102   6.9102   8.7410   8.7410   9.3730   9.3730
     9.6978   9.6978   9.9962   9.9962  10.1686  10.1686  10.2568  10.2568
    10.7224  10.7224  11.2499  11.2499  11.7146  11.7146  12.0672  12.0672
    12.6312  12.6312  12.8896  12.8896  13.3228  13.3228  14.0622  14.0622
    14.2872  14.2872  14.5025  14.5025  15.8952  15.8952  16.4373  16.4374

     occupation numbers 
     1.0000   1.0000   1.0000   1.0000   1.0000   1.0000   1.0000   1.0000
     1.0000   1.0000   1.0000   1.0000   1.0000   1.0000   1.0000   1.0000
     1.0000   1.0000   1.0000   1.0000   1.0000   1.0000   1.0000   1.0000
     1.0000   1.0000   1.0000   1.0000   1.0000   1.0000   1.0000   1.0000
     1.0000   1.0000   1.0000   1.0000   1.0000   1.0000   1.0000   1.0000
     1.0000   1.0000   1.0000   1.0000   1.0000   1.0000   1.0000   1.0000
     1.0000   1.0000   1.0000   1.0000   1.0000   1.0000   1.0000   1.0000
     1.0000   1.0000   1.0000   1.0000  -0.0000  -0.0000  -0.0000  -0.0000
    -0.0000  -0.0000  -0.0000  -0.0000  -0.0000  -0.0000  -0.0000  -0.0000
    -0.0000  -0.0000  -0.0000  -0.0000  -0.0000  -0.0000  -0.0000  -0.0000
    -0.0000  -0.0000  -0.0000  -0.0000  -0.0000  -0.0000  -0.0000  -0.0000
    -0.0000  -0.0000  -0.0000  -0.0000  -0.0000  -0.0000  -0.0000  -0.0000

          k = 0.0000 0.1925-0.1479 ( 11537 PWs)   bands (ev):

   -69.0395 -69.0395 -69.0392 -69.0392 -35.9765 -35.9765 -35.9749 -35.9749
   -35.6885 -35.6885 -35.6879 -35.6879 -35.6866 -35.6866 -35.6859 -35.6859
   -20.8244 -20.8244 -16.0933 -16.0933 -16.0931 -16.0931 -16.0927 -16.0927
   -16.0918 -16.0918 -13.1233 -13.1233 -13.1218 -13.1218 -13.1093 -13.1093
   -13.1075 -13.1075 -13.1016 -13.1016 -13.1009 -13.1009  -7.4710  -7.4710
    -5.5501  -5.5501  -5.4161  -5.4161  -3.0111  -3.0111  -2.5859  -2.5859
     3.7350   3.7350   4.8984   4.8984   5.4807   5.4807   6.2760   6.2760
     6.4691   6.4691   7.3730   7.3730   8.7667   8.7667   9.1001   9.1001
     9.2261   9.2261   9.9441   9.9441  10.0745  10.0745  10.1739  10.1739
    10.8303  10.8303  11.0790  11.0790  11.6681  11.6681  12.3134  12.3134
    13.0845  13.0845  13.3507  13.3507  13.6228  13.6228  13.9618  13.9618
    14.4727  14.4727  14.7834  14.7834  15.3953  15.3954  15.5303  15.5303

     occupation numbers 
     1.0000   1.0000   1.0000   1.0000   1.0000   1.0000   1.0000   1.0000
     1.0000   1.0000   1.0000   1.0000   1.0000   1.0000   1.0000   1.0000
     1.0000   1.0000   1.0000   1.0000   1.0000   1.0000   1.0000   1.0000
     1.0000   1.0000   1.0000   1.0000   1.0000   1.0000   1.0000   1.0000
     1.0000   1.0000   1.0000   1.0000   1.0000   1.0000   1.0000   1.0000
     1.0000   1.0000   1.0000   1.0000   1.0000   1.0000   1.0000   1.0000
     1.0000   1.0000   1.0000   1.0000   1.0000   1.0000   1.0000   1.0000
     1.0000   1.0000   1.0000   1.0000  -0.0000  -0.0000  -0.0000  -0.0000
    -0.0000  -0.0000  -0.0000  -0.0000  -0.0000  -0.0000  -0.0000  -0.0000
    -0.0000  -0.0000  -0.0000  -0.0000  -0.0000  -0.0000  -0.0000  -0.0000
    -0.0000  -0.0000  -0.0000  -0.0000  -0.0000  -0.0000  -0.0000  -0.0000
    -0.0000  -0.0000  -0.0000  -0.0000  -0.0000  -0.0000  -0.0000  -0.0000

          k = 0.1667 0.2887 0.0000 ( 11513 PWs)   bands (ev):

   -69.0395 -69.0395 -69.0393 -69.0393 -35.9764 -35.9764 -35.9748 -35.9748
   -35.6886 -35.6886 -35.6879 -35.6879 -35.6863 -35.6863 -35.6857 -35.6857
   -20.8212 -20.8212 -16.0931 -16.0931 -16.0928 -16.0928 -16.0924 -16.0924
   -16.0913 -16.0913 -13.1225 -13.1225 -13.1210 -13.1210 -13.1099 -13.1099
   -13.1071 -13.1071 -13.1005 -13.1005 -13.1003 -13.1003  -7.4854  -7.4854
    -5.5537  -5.5537  -5.4609  -5.4609  -2.8620  -2.8620  -2.5324  -2.5324
     3.7915   3.7915   4.4185   4.4185   4.9612   4.9612   5.7621   5.7621
     6.0518   6.0518   6.9113   6.9113   8.8654   8.8654   9.2719   9.2719
     9.7064   9.7064  10.3035  10.3035  10.4394  10.4394  11.1672  11.1672
    11.3136  11.3136  11.7271  11.7271  11.8902  11.8902  12.2022  12.2022
    13.0012  13.0012  13.1581  13.1581  13.3475  13.3475  14.3772  14.3772
    14.8938  14.8938  15.0775  15.0775  16.0304  16.0304  16.2647  16.2647

     occupation numbers 
     1.0000   1.0000   1.0000   1.0000   1.0000   1.0000   1.0000   1.0000
     1.0000   1.0000   1.0000   1.0000   1.0000   1.0000   1.0000   1.0000
     1.0000   1.0000   1.0000   1.0000   1.0000   1.0000   1.0000   1.0000
     1.0000   1.0000   1.0000   1.0000   1.0000   1.0000   1.0000   1.0000
     1.0000   1.0000   1.0000   1.0000   1.0000   1.0000   1.0000   1.0000
     1.0000   1.0000   1.0000   1.0000   1.0000   1.0000   1.0000   1.0000
     1.0000   1.0000   1.0000   1.0000   1.0000   1.0000   1.0000   1.0000
     1.0000   1.0000   1.0000   1.0000  -0.0000  -0.0000  -0.0000  -0.0000
    -0.0000  -0.0000  -0.0000  -0.0000  -0.0000  -0.0000  -0.0000  -0.0000
    -0.0000  -0.0000  -0.0000  -0.0000  -0.0000  -0.0000  -0.0000  -0.0000
    -0.0000  -0.0000  -0.0000  -0.0000  -0.0000  -0.0000  -0.0000  -0.0000
    -0.0000  -0.0000  -0.0000  -0.0000  -0.0000  -0.0000  -0.0000  -0.0000

          k = 0.1667 0.2887 0.1479 ( 11553 PWs)   bands (ev):

   -69.0395 -69.0395 -69.0393 -69.0393 -35.9767 -35.9767 -35.9751 -35.9751
   -35.6889 -35.6889 -35.6882 -35.6882 -35.6866 -35.6866 -35.6861 -35.6861
   -20.8212 -20.8212 -16.0931 -16.0931 -16.0929 -16.0929 -16.0923 -16.0923
   -16.0914 -16.0914 -13.1224 -13.1224 -13.1211 -13.1211 -13.1095 -13.1095
   -13.1075 -13.1075 -13.1007 -13.1007 -13.1001 -13.1001  -7.4855  -7.4855
    -5.5544  -5.5544  -5.4612  -5.4612  -2.8340  -2.8340  -2.5607  -2.5607
     3.7646   3.7646   4.2958   4.2958   5.1797   5.1797   5.7699   5.7699
     6.1508   6.1508   6.8070   6.8070   8.8373   8.8373   9.3351   9.3351
     9.7823   9.7823   9.9807   9.9807  10.3775  10.3775  10.7878  10.7878
    11.2728  11.2728  11.4899  11.4899  12.0998  12.0998  12.6863  12.6863
    12.8796  12.8796  13.5618  13.5618  13.8084  13.8084  14.0499  14.0499
    15.0354  15.0354  15.3923  15.3923  15.6409  15.6409  16.4904  16.4904

     occupation numbers 
     1.0000   1.0000   1.0000   1.0000   1.0000   1.0000   1.0000   1.0000
     1.0000   1.0000   1.0000   1.0000   1.0000   1.0000   1.0000   1.0000
     1.0000   1.0000   1.0000   1.0000   1.0000   1.0000   1.0000   1.0000
     1.0000   1.0000   1.0000   1.0000   1.0000   1.0000   1.0000   1.0000
     1.0000   1.0000   1.0000   1.0000   1.0000   1.0000   1.0000   1.0000
     1.0000   1.0000   1.0000   1.0000   1.0000   1.0000   1.0000   1.0000
     1.0000   1.0000   1.0000   1.0000   1.0000   1.0000   1.0000   1.0000
     1.0000   1.0000   1.0000   1.0000  -0.0000  -0.0000  -0.0000  -0.0000
    -0.0000  -0.0000  -0.0000  -0.0000  -0.0000  -0.0000  -0.0000  -0.0000
    -0.0000  -0.0000  -0.0000  -0.0000  -0.0000  -0.0000  -0.0000  -0.0000
    -0.0000  -0.0000  -0.0000  -0.0000  -0.0000  -0.0000  -0.0000  -0.0000
    -0.0000  -0.0000  -0.0000  -0.0000  -0.0000  -0.0000  -0.0000  -0.0000

          k = 0.1667 0.2887-0.2958 ( 11552 PWs)   bands (ev):

   -69.0395 -69.0395 -69.0393 -69.0393 -35.9766 -35.9766 -35.9752 -35.9752
   -35.6888 -35.6888 -35.6881 -35.6881 -35.6866 -35.6866 -35.6862 -35.6862
   -20.8212 -20.8212 -16.0931 -16.0931 -16.0929 -16.0929 -16.0922 -16.0921
   -16.0915 -16.0915 -13.1222 -13.1222 -13.1213 -13.1213 -13.1088 -13.1088
   -13.1081 -13.1081 -13.1008 -13.1008 -13.1000 -13.1000  -7.4856  -7.4856
    -5.5550  -5.5550  -5.4615  -5.4615  -2.7986  -2.7986  -2.5964  -2.5964
     3.7432   3.7432   4.2016   4.2016   5.4169   5.4169   5.7321   5.7321
     6.3159   6.3159   6.6195   6.6195   8.9514   8.9514   9.1852   9.1852
     9.8715   9.8715   9.9038   9.9038  10.1014  10.1014  10.7278  10.7278
    11.2004  11.2004  11.3065  11.3065  12.0366  12.0366  12.8390  12.8390
    13.2725  13.2725  13.5516  13.5516  14.0850  14.0850  14.7955  14.7955
    14.8924  14.8924  15.3554  15.3554  15.5715  15.5716  16.0897  16.0897

     occupation numbers 
     1.0000   1.0000   1.0000   1.0000   1.0000   1.0000   1.0000   1.0000
     1.0000   1.0000   1.0000   1.0000   1.0000   1.0000   1.0000   1.0000
     1.0000   1.0000   1.0000   1.0000   1.0000   1.0000   1.0000   1.0000
     1.0000   1.0000   1.0000   1.0000   1.0000   1.0000   1.0000   1.0000
     1.0000   1.0000   1.0000   1.0000   1.0000   1.0000   1.0000   1.0000
     1.0000   1.0000   1.0000   1.0000   1.0000   1.0000   1.0000   1.0000
     1.0000   1.0000   1.0000   1.0000   1.0000   1.0000   1.0000   1.0000
     1.0000   1.0000   1.0000   1.0000  -0.0000  -0.0000  -0.0000  -0.0000
    -0.0000  -0.0000  -0.0000  -0.0000  -0.0000  -0.0000  -0.0000  -0.0000
    -0.0000  -0.0000  -0.0000  -0.0000  -0.0000  -0.0000  -0.0000  -0.0000
    -0.0000  -0.0000  -0.0000  -0.0000  -0.0000  -0.0000  -0.0000  -0.0000
    -0.0000  -0.0000  -0.0000  -0.0000  -0.0000  -0.0000  -0.0000  -0.0000

          k = 0.1667 0.2887-0.1479 ( 11553 PWs)   bands (ev):

   -69.0395 -69.0395 -69.0393 -69.0393 -35.9767 -35.9767 -35.9751 -35.9751
   -35.6889 -35.6889 -35.6882 -35.6882 -35.6866 -35.6866 -35.6861 -35.6861
   -20.8212 -20.8212 -16.0931 -16.0931 -16.0929 -16.0929 -16.0923 -16.0923
   -16.0914 -16.0914 -13.1224 -13.1224 -13.1211 -13.1211 -13.1095 -13.1095
   -13.1075 -13.1075 -13.1007 -13.1007 -13.1001 -13.1001  -7.4855  -7.4855
    -5.5544  -5.5544  -5.4612  -5.4612  -2.8340  -2.8340  -2.5607  -2.5607
     3.7646   3.7646   4.2958   4.2958   5.1797   5.1797   5.7699   5.7699
     6.1508   6.1508   6.8070   6.8070   8.8373   8.8373   9.3351   9.3351
     9.7823   9.7823   9.9807   9.9807  10.3775  10.3775  10.7878  10.7878
    11.2728  11.2728  11.4899  11.4899  12.0998  12.0998  12.6863  12.6863
    12.8796  12.8796  13.5618  13.5618  13.8084  13.8084  14.0499  14.0499
    15.0354  15.0354  15.3923  15.3923  15.6409  15.6409  16.4904  16.4904

     occupation numbers 
     1.0000   1.0000   1.0000   1.0000   1.0000   1.0000   1.0000   1.0000
     1.0000   1.0000   1.0000   1.0000   1.0000   1.0000   1.0000   1.0000
     1.0000   1.0000   1.0000   1.0000   1.0000   1.0000   1.0000   1.0000
     1.0000   1.0000   1.0000   1.0000   1.0000   1.0000   1.0000   1.0000
     1.0000   1.0000   1.0000   1.0000   1.0000   1.0000   1.0000   1.0000
     1.0000   1.0000   1.0000   1.0000   1.0000   1.0000   1.0000   1.0000
     1.0000   1.0000   1.0000   1.0000   1.0000   1.0000   1.0000   1.0000
     1.0000   1.0000   1.0000   1.0000  -0.0000  -0.0000  -0.0000  -0.0000
    -0.0000  -0.0000  -0.0000  -0.0000  -0.0000  -0.0000  -0.0000  -0.0000
    -0.0000  -0.0000  -0.0000  -0.0000  -0.0000  -0.0000  -0.0000  -0.0000
    -0.0000  -0.0000  -0.0000  -0.0000  -0.0000  -0.0000  -0.0000  -0.0000
    -0.0000  -0.0000  -0.0000  -0.0000  -0.0000  -0.0000  -0.0000  -0.0000

          k =-0.6667-0.1925 0.0000 ( 11514 PWs)   bands (ev):

   -69.0394 -69.0394 -69.0393 -69.0393 -35.9761 -35.9761 -35.9753 -35.9753
   -35.6886 -35.6886 -35.6878 -35.6878 -35.6866 -35.6866 -35.6858 -35.6858
   -20.8181 -20.8181 -16.0928 -16.0928 -16.0923 -16.0923 -16.0922 -16.0922
   -16.0909 -16.0909 -13.1217 -13.1217 -13.1198 -13.1198 -13.1101 -13.1101
   -13.1072 -13.1072 -13.0997 -13.0997 -13.0994 -13.0994  -7.5010  -7.5010
    -5.5869  -5.5869  -5.4707  -5.4707  -2.6366  -2.6366  -2.5467  -2.5467
     3.5773   3.5773   3.9212   3.9212   4.8874   4.8874   5.5762   5.5762
     5.7785   5.7785   6.3884   6.3884   8.9133   8.9133   9.6301   9.6301
    10.0290  10.0290  10.3549  10.3549  10.8278  10.8278  11.0835  11.0835
    11.5081  11.5081  11.7573  11.7573  12.3956  12.3956  12.8294  12.8294
    13.3217  13.3217  13.5479  13.5479  14.1331  14.1331  14.7282  14.7282
    15.0256  15.0256  15.3207  15.3207  15.9386  15.9386  16.6203  16.6203

     occupation numbers 
     1.0000   1.0000   1.0000   1.0000   1.0000   1.0000   1.0000   1.0000
     1.0000   1.0000   1.0000   1.0000   1.0000   1.0000   1.0000   1.0000
     1.0000   1.0000   1.0000   1.0000   1.0000   1.0000   1.0000   1.0000
     1.0000   1.0000   1.0000   1.0000   1.0000   1.0000   1.0000   1.0000
     1.0000   1.0000   1.0000   1.0000   1.0000   1.0000   1.0000   1.0000
     1.0000   1.0000   1.0000   1.0000   1.0000   1.0000   1.0000   1.0000
     1.0000   1.0000   1.0000   1.0000   1.0000   1.0000   1.0000   1.0000
     1.0000   1.0000   1.0000   1.0000  -0.0000  -0.0000  -0.0000  -0.0000
    -0.0000  -0.0000  -0.0000  -0.0000  -0.0000  -0.0000  -0.0000  -0.0000
    -0.0000  -0.0000  -0.0000  -0.0000  -0.0000  -0.0000  -0.0000  -0.0000
    -0.0000  -0.0000  -0.0000  -0.0000  -0.0000  -0.0000  -0.0000  -0.0000
    -0.0000  -0.0000  -0.0000  -0.0000  -0.0000  -0.0000  -0.0000  -0.0000

          k =-0.6667-0.1925 0.1479 ( 11540 PWs)   bands (ev):

   -69.0394 -69.0394 -69.0393 -69.0393 -35.9762 -35.9762 -35.9756 -35.9756
   -35.6888 -35.6888 -35.6879 -35.6879 -35.6868 -35.6868 -35.6860 -35.6860
   -20.8181 -20.8181 -16.0928 -16.0928 -16.0926 -16.0926 -16.0920 -16.0920
   -16.0908 -16.0908 -13.1215 -13.1215 -13.1203 -13.1203 -13.1097 -13.1097
   -13.1075 -13.1075 -13.0998 -13.0998 -13.0993 -13.0993  -7.5009  -7.5009
    -5.5860  -5.5860  -5.4710  -5.4710  -2.7045  -2.7045  -2.4759  -2.4759
     3.5540   3.5540   3.8283   3.8283   4.9780   4.9780   5.6153   5.6153
     5.8497   5.8497   6.5403   6.5403   8.6572   8.6572   9.5148   9.5148
     9.8925   9.8925  10.0516  10.0516  10.6762  10.6762  10.9533  10.9533
    11.5182  11.5182  12.2023  12.2023  12.5916  12.5916  13.1925  13.1925
    13.4114  13.4114  13.8411  13.8411  14.3009  14.3009  14.6886  14.6886
    15.1002  15.1002  15.4200  15.4200  15.7321  15.7321  16.3894  16.3894

     occupation numbers 
     1.0000   1.0000   1.0000   1.0000   1.0000   1.0000   1.0000   1.0000
     1.0000   1.0000   1.0000   1.0000   1.0000   1.0000   1.0000   1.0000
     1.0000   1.0000   1.0000   1.0000   1.0000   1.0000   1.0000   1.0000
     1.0000   1.0000   1.0000   1.0000   1.0000   1.0000   1.0000   1.0000
     1.0000   1.0000   1.0000   1.0000   1.0000   1.0000   1.0000   1.0000
     1.0000   1.0000   1.0000   1.0000   1.0000   1.0000   1.0000   1.0000
     1.0000   1.0000   1.0000   1.0000   1.0000   1.0000   1.0000   1.0000
     1.0000   1.0000   1.0000   1.0000  -0.0000  -0.0000  -0.0000  -0.0000
    -0.0000  -0.0000  -0.0000  -0.0000  -0.0000  -0.0000  -0.0000  -0.0000
    -0.0000  -0.0000  -0.0000  -0.0000  -0.0000  -0.0000  -0.0000  -0.0000
    -0.0000  -0.0000  -0.0000  -0.0000  -0.0000  -0.0000  -0.0000  -0.0000
    -0.0000  -0.0000  -0.0000  -0.0000  -0.0000  -0.0000  -0.0000  -0.0000

          k =-0.6667-0.1925-0.2958 ( 11530 PWs)   bands (ev):

   -69.0394 -69.0394 -69.0393 -69.0393 -35.9761 -35.9761 -35.9755 -35.9755
   -35.6887 -35.6887 -35.6880 -35.6880 -35.6866 -35.6866 -35.6859 -35.6859
   -20.8181 -20.8181 -16.0930 -16.0930 -16.0927 -16.0927 -16.0920 -16.0920
   -16.0907 -16.0907 -13.1216 -13.1216 -13.1205 -13.1205 -13.1093 -13.1093
   -13.1076 -13.1076 -13.0999 -13.0999 -13.0992 -13.0992  -7.5009  -7.5009
    -5.5854  -5.5854  -5.4712  -5.4712  -2.7111  -2.7111  -2.4717  -2.4717
     3.5608   3.5608   3.8276   3.8276   4.9989   4.9989   5.6118   5.6118
     5.8922   5.8922   6.5527   6.5527   8.5995   8.5995   9.1882   9.1882
     9.7403   9.7403  10.1116  10.1116  10.9600  10.9600  11.2067  11.2067
    11.5031  11.5031  11.8096  11.8096  12.7589  12.7589  13.1548  13.1548
    13.4575  13.4575  13.8060  13.8060  14.4511  14.4511  14.8253  14.8253
    15.0837  15.0837  15.6942  15.6942  15.9984  15.9984  16.7246  16.7246

     occupation numbers 
     1.0000   1.0000   1.0000   1.0000   1.0000   1.0000   1.0000   1.0000
     1.0000   1.0000   1.0000   1.0000   1.0000   1.0000   1.0000   1.0000
     1.0000   1.0000   1.0000   1.0000   1.0000   1.0000   1.0000   1.0000
     1.0000   1.0000   1.0000   1.0000   1.0000   1.0000   1.0000   1.0000
     1.0000   1.0000   1.0000   1.0000   1.0000   1.0000   1.0000   1.0000
     1.0000   1.0000   1.0000   1.0000   1.0000   1.0000   1.0000   1.0000
     1.0000   1.0000   1.0000   1.0000   1.0000   1.0000   1.0000   1.0000
     1.0000   1.0000   1.0000   1.0000  -0.0000  -0.0000  -0.0000  -0.0000
    -0.0000  -0.0000  -0.0000  -0.0000  -0.0000  -0.0000  -0.0000  -0.0000
    -0.0000  -0.0000  -0.0000  -0.0000  -0.0000  -0.0000  -0.0000  -0.0000
    -0.0000  -0.0000  -0.0000  -0.0000  -0.0000  -0.0000  -0.0000  -0.0000
    -0.0000  -0.0000  -0.0000  -0.0000  -0.0000  -0.0000  -0.0000  -0.0000

          k =-0.6667-0.1925-0.1479 ( 11540 PWs)   bands (ev):

   -69.0394 -69.0394 -69.0393 -69.0393 -35.9763 -35.9763 -35.9755 -35.9755
   -35.6889 -35.6889 -35.6880 -35.6880 -35.6868 -35.6868 -35.6859 -35.6859
   -20.8181 -20.8181 -16.0929 -16.0929 -16.0926 -16.0926 -16.0920 -16.0920
   -16.0908 -16.0908 -13.1218 -13.1218 -13.1201 -13.1201 -13.1097 -13.1097
   -13.1074 -13.1074 -13.0998 -13.0998 -13.0993 -13.0993  -7.5009  -7.5009
    -5.5863  -5.5863  -5.4709  -5.4709  -2.6503  -2.6503  -2.5354  -2.5354
     3.5907   3.5907   3.9064   3.9064   4.9302   4.9302   5.5370   5.5370
     5.8491   5.8491   6.3819   6.3819   8.8071   8.8071   9.4417   9.4417
     9.9005   9.9005  10.3492  10.3492  10.8058  10.8058  11.3171  11.3171
    11.5415  11.5415  11.9544  11.9544  12.4051  12.4051  12.6959  12.6959
    13.0682  13.0682  13.8274  13.8274  14.2183  14.2183  14.7715  14.7715
    15.1343  15.1343  15.6425  15.6425  15.8651  15.8651  16.9025  16.9028

     occupation numbers 
     1.0000   1.0000   1.0000   1.0000   1.0000   1.0000   1.0000   1.0000
     1.0000   1.0000   1.0000   1.0000   1.0000   1.0000   1.0000   1.0000
     1.0000   1.0000   1.0000   1.0000   1.0000   1.0000   1.0000   1.0000
     1.0000   1.0000   1.0000   1.0000   1.0000   1.0000   1.0000   1.0000
     1.0000   1.0000   1.0000   1.0000   1.0000   1.0000   1.0000   1.0000
     1.0000   1.0000   1.0000   1.0000   1.0000   1.0000   1.0000   1.0000
     1.0000   1.0000   1.0000   1.0000   1.0000   1.0000   1.0000   1.0000
     1.0000   1.0000   1.0000   1.0000  -0.0000  -0.0000  -0.0000  -0.0000
    -0.0000  -0.0000  -0.0000  -0.0000  -0.0000  -0.0000  -0.0000  -0.0000
    -0.0000  -0.0000  -0.0000  -0.0000  -0.0000  -0.0000  -0.0000  -0.0000
    -0.0000  -0.0000  -0.0000  -0.0000  -0.0000  -0.0000  -0.0000  -0.0000
    -0.0000  -0.0000  -0.0000  -0.0000  -0.0000  -0.0000  -0.0000  -0.0000

          k =-0.5000-0.0962 0.0000 ( 11514 PWs)   bands (ev):

   -69.0394 -69.0394 -69.0393 -69.0393 -35.9761 -35.9761 -35.9753 -35.9753
   -35.6886 -35.6886 -35.6878 -35.6878 -35.6866 -35.6866 -35.6858 -35.6858
   -20.8181 -20.8181 -16.0928 -16.0928 -16.0923 -16.0923 -16.0922 -16.0922
   -16.0909 -16.0909 -13.1217 -13.1217 -13.1198 -13.1198 -13.1101 -13.1101
   -13.1072 -13.1072 -13.0997 -13.0997 -13.0994 -13.0994  -7.5010  -7.5010
    -5.5869  -5.5869  -5.4707  -5.4707  -2.6366  -2.6366  -2.5467  -2.5467
     3.5773   3.5773   3.9212   3.9212   4.8874   4.8874   5.5762   5.5762
     5.7785   5.7785   6.3884   6.3884   8.9133   8.9133   9.6301   9.6301
    10.0290  10.0290  10.3549  10.3549  10.8278  10.8278  11.0835  11.0835
    11.5081  11.5081  11.7573  11.7573  12.3956  12.3956  12.8295  12.8295
    13.3217  13.3217  13.5479  13.5479  14.1331  14.1331  14.7282  14.7282
    15.0256  15.0256  15.3207  15.3207  15.9386  15.9386  16.6203  16.6203

     occupation numbers 
     1.0000   1.0000   1.0000   1.0000   1.0000   1.0000   1.0000   1.0000
     1.0000   1.0000   1.0000   1.0000   1.0000   1.0000   1.0000   1.0000
     1.0000   1.0000   1.0000   1.0000   1.0000   1.0000   1.0000   1.0000
     1.0000   1.0000   1.0000   1.0000   1.0000   1.0000   1.0000   1.0000
     1.0000   1.0000   1.0000   1.0000   1.0000   1.0000   1.0000   1.0000
     1.0000   1.0000   1.0000   1.0000   1.0000   1.0000   1.0000   1.0000
     1.0000   1.0000   1.0000   1.0000   1.0000   1.0000   1.0000   1.0000
     1.0000   1.0000   1.0000   1.0000  -0.0000  -0.0000  -0.0000  -0.0000
    -0.0000  -0.0000  -0.0000  -0.0000  -0.0000  -0.0000  -0.0000  -0.0000
    -0.0000  -0.0000  -0.0000  -0.0000  -0.0000  -0.0000  -0.0000  -0.0000
    -0.0000  -0.0000  -0.0000  -0.0000  -0.0000  -0.0000  -0.0000  -0.0000
    -0.0000  -0.0000  -0.0000  -0.0000  -0.0000  -0.0000  -0.0000  -0.0000

          k =-0.5000-0.0962 0.1479 ( 11540 PWs)   bands (ev):

   -69.0394 -69.0394 -69.0393 -69.0393 -35.9763 -35.9763 -35.9755 -35.9755
   -35.6889 -35.6889 -35.6880 -35.6880 -35.6868 -35.6868 -35.6859 -35.6859
   -20.8181 -20.8181 -16.0929 -16.0929 -16.0926 -16.0926 -16.0920 -16.0920
   -16.0908 -16.0908 -13.1218 -13.1218 -13.1201 -13.1201 -13.1097 -13.1097
   -13.1074 -13.1074 -13.0998 -13.0998 -13.0993 -13.0993  -7.5009  -7.5009
    -5.5863  -5.5863  -5.4709  -5.4709  -2.6503  -2.6503  -2.5354  -2.5354
     3.5907   3.5907   3.9064   3.9064   4.9302   4.9302   5.5370   5.5370
     5.8491   5.8491   6.3819   6.3819   8.8071   8.8071   9.4417   9.4417
     9.9005   9.9005  10.3492  10.3492  10.8058  10.8058  11.3171  11.3171
    11.5415  11.5415  11.9544  11.9544  12.4051  12.4051  12.6959  12.6959
    13.0682  13.0682  13.8274  13.8274  14.2183  14.2183  14.7715  14.7715
    15.1343  15.1343  15.6424  15.6425  15.8651  15.8651  16.9026  16.9029

     occupation numbers 
     1.0000   1.0000   1.0000   1.0000   1.0000   1.0000   1.0000   1.0000
     1.0000   1.0000   1.0000   1.0000   1.0000   1.0000   1.0000   1.0000
     1.0000   1.0000   1.0000   1.0000   1.0000   1.0000   1.0000   1.0000
     1.0000   1.0000   1.0000   1.0000   1.0000   1.0000   1.0000   1.0000
     1.0000   1.0000   1.0000   1.0000   1.0000   1.0000   1.0000   1.0000
     1.0000   1.0000   1.0000   1.0000   1.0000   1.0000   1.0000   1.0000
     1.0000   1.0000   1.0000   1.0000   1.0000   1.0000   1.0000   1.0000
     1.0000   1.0000   1.0000   1.0000  -0.0000  -0.0000  -0.0000  -0.0000
    -0.0000  -0.0000  -0.0000  -0.0000  -0.0000  -0.0000  -0.0000  -0.0000
    -0.0000  -0.0000  -0.0000  -0.0000  -0.0000  -0.0000  -0.0000  -0.0000
    -0.0000  -0.0000  -0.0000  -0.0000  -0.0000  -0.0000  -0.0000  -0.0000
    -0.0000  -0.0000  -0.0000  -0.0000  -0.0000  -0.0000  -0.0000  -0.0000

          k =-0.5000-0.0962-0.2958 ( 11530 PWs)   bands (ev):

   -69.0394 -69.0394 -69.0393 -69.0393 -35.9761 -35.9761 -35.9755 -35.9755
   -35.6887 -35.6887 -35.6880 -35.6880 -35.6866 -35.6866 -35.6859 -35.6859
   -20.8181 -20.8181 -16.0930 -16.0930 -16.0927 -16.0927 -16.0920 -16.0920
   -16.0907 -16.0907 -13.1216 -13.1216 -13.1205 -13.1205 -13.1093 -13.1093
   -13.1076 -13.1076 -13.0999 -13.0999 -13.0992 -13.0992  -7.5009  -7.5009
    -5.5854  -5.5854  -5.4712  -5.4712  -2.7111  -2.7111  -2.4717  -2.4717
     3.5608   3.5608   3.8276   3.8276   4.9989   4.9989   5.6118   5.6118
     5.8922   5.8922   6.5527   6.5527   8.5995   8.5995   9.1882   9.1882
     9.7403   9.7403  10.1116  10.1116  10.9600  10.9600  11.2066  11.2066
    11.5031  11.5031  11.8096  11.8096  12.7589  12.7589  13.1548  13.1548
    13.4575  13.4575  13.8060  13.8060  14.4511  14.4511  14.8253  14.8253
    15.0837  15.0837  15.6942  15.6942  15.9984  15.9984  16.7246  16.7246

     occupation numbers 
     1.0000   1.0000   1.0000   1.0000   1.0000   1.0000   1.0000   1.0000
     1.0000   1.0000   1.0000   1.0000   1.0000   1.0000   1.0000   1.0000
     1.0000   1.0000   1.0000   1.0000   1.0000   1.0000   1.0000   1.0000
     1.0000   1.0000   1.0000   1.0000   1.0000   1.0000   1.0000   1.0000
     1.0000   1.0000   1.0000   1.0000   1.0000   1.0000   1.0000   1.0000
     1.0000   1.0000   1.0000   1.0000   1.0000   1.0000   1.0000   1.0000
     1.0000   1.0000   1.0000   1.0000   1.0000   1.0000   1.0000   1.0000
     1.0000   1.0000   1.0000   1.0000  -0.0000  -0.0000  -0.0000  -0.0000
    -0.0000  -0.0000  -0.0000  -0.0000  -0.0000  -0.0000  -0.0000  -0.0000
    -0.0000  -0.0000  -0.0000  -0.0000  -0.0000  -0.0000  -0.0000  -0.0000
    -0.0000  -0.0000  -0.0000  -0.0000  -0.0000  -0.0000  -0.0000  -0.0000
    -0.0000  -0.0000  -0.0000  -0.0000  -0.0000  -0.0000  -0.0000  -0.0000

          k =-0.5000-0.0962-0.1479 ( 11540 PWs)   bands (ev):

   -69.0394 -69.0394 -69.0393 -69.0393 -35.9762 -35.9762 -35.9756 -35.9756
   -35.6888 -35.6888 -35.6879 -35.6879 -35.6868 -35.6868 -35.6860 -35.6860
   -20.8181 -20.8181 -16.0928 -16.0928 -16.0926 -16.0926 -16.0920 -16.0920
   -16.0908 -16.0908 -13.1215 -13.1215 -13.1203 -13.1203 -13.1097 -13.1097
   -13.1075 -13.1075 -13.0998 -13.0998 -13.0993 -13.0993  -7.5009  -7.5009
    -5.5860  -5.5860  -5.4710  -5.4710  -2.7045  -2.7045  -2.4759  -2.4759
     3.5540   3.5540   3.8283   3.8283   4.9780   4.9780   5.6153   5.6153
     5.8497   5.8497   6.5403   6.5403   8.6572   8.6572   9.5148   9.5148
     9.8925   9.8925  10.0516  10.0516  10.6762  10.6762  10.9533  10.9533
    11.5182  11.5182  12.2023  12.2023  12.5916  12.5916  13.1925  13.1925
    13.4114  13.4114  13.8411  13.8411  14.3009  14.3009  14.6886  14.6886
    15.1002  15.1002  15.4200  15.4200  15.7321  15.7321  16.3893  16.3893

     occupation numbers 
     1.0000   1.0000   1.0000   1.0000   1.0000   1.0000   1.0000   1.0000
     1.0000   1.0000   1.0000   1.0000   1.0000   1.0000   1.0000   1.0000
     1.0000   1.0000   1.0000   1.0000   1.0000   1.0000   1.0000   1.0000
     1.0000   1.0000   1.0000   1.0000   1.0000   1.0000   1.0000   1.0000
     1.0000   1.0000   1.0000   1.0000   1.0000   1.0000   1.0000   1.0000
     1.0000   1.0000   1.0000   1.0000   1.0000   1.0000   1.0000   1.0000
     1.0000   1.0000   1.0000   1.0000   1.0000   1.0000   1.0000   1.0000
     1.0000   1.0000   1.0000   1.0000  -0.0000  -0.0000  -0.0000  -0.0000
    -0.0000  -0.0000  -0.0000  -0.0000  -0.0000  -0.0000  -0.0000  -0.0000
    -0.0000  -0.0000  -0.0000  -0.0000  -0.0000  -0.0000  -0.0000  -0.0000
    -0.0000  -0.0000  -0.0000  -0.0000  -0.0000  -0.0000  -0.0000  -0.0000
    -0.0000  -0.0000  -0.0000  -0.0000  -0.0000  -0.0000  -0.0000  -0.0000

          k =-0.3333 0.0000 0.0000 ( 11513 PWs)   bands (ev):

   -69.0395 -69.0395 -69.0393 -69.0393 -35.9764 -35.9764 -35.9748 -35.9748
   -35.6886 -35.6886 -35.6879 -35.6879 -35.6863 -35.6863 -35.6857 -35.6857
   -20.8212 -20.8212 -16.0931 -16.0931 -16.0928 -16.0928 -16.0924 -16.0924
   -16.0913 -16.0913 -13.1225 -13.1225 -13.1210 -13.1210 -13.1099 -13.1099
   -13.1071 -13.1071 -13.1005 -13.1005 -13.1003 -13.1003  -7.4854  -7.4854
    -5.5537  -5.5537  -5.4609  -5.4609  -2.8620  -2.8620  -2.5324  -2.5324
     3.7915   3.7915   4.4185   4.4185   4.9612   4.9612   5.7621   5.7621
     6.0518   6.0518   6.9113   6.9113   8.8655   8.8655   9.2719   9.2719
     9.7064   9.7064  10.3035  10.3035  10.4394  10.4394  11.1672  11.1672
    11.3136  11.3136  11.7271  11.7271  11.8902  11.8902  12.2022  12.2022
    13.0012  13.0012  13.1581  13.1581  13.3475  13.3475  14.3772  14.3772
    14.8938  14.8938  15.0775  15.0775  16.0304  16.0304  16.2647  16.2647

     occupation numbers 
     1.0000   1.0000   1.0000   1.0000   1.0000   1.0000   1.0000   1.0000
     1.0000   1.0000   1.0000   1.0000   1.0000   1.0000   1.0000   1.0000
     1.0000   1.0000   1.0000   1.0000   1.0000   1.0000   1.0000   1.0000
     1.0000   1.0000   1.0000   1.0000   1.0000   1.0000   1.0000   1.0000
     1.0000   1.0000   1.0000   1.0000   1.0000   1.0000   1.0000   1.0000
     1.0000   1.0000   1.0000   1.0000   1.0000   1.0000   1.0000   1.0000
     1.0000   1.0000   1.0000   1.0000   1.0000   1.0000   1.0000   1.0000
     1.0000   1.0000   1.0000   1.0000  -0.0000  -0.0000  -0.0000  -0.0000
    -0.0000  -0.0000  -0.0000  -0.0000  -0.0000  -0.0000  -0.0000  -0.0000
    -0.0000  -0.0000  -0.0000  -0.0000  -0.0000  -0.0000  -0.0000  -0.0000
    -0.0000  -0.0000  -0.0000  -0.0000  -0.0000  -0.0000  -0.0000  -0.0000
    -0.0000  -0.0000  -0.0000  -0.0000  -0.0000  -0.0000  -0.0000  -0.0000

          k =-0.3333 0.0000 0.1479 ( 11553 PWs)   bands (ev):

   -69.0395 -69.0395 -69.0393 -69.0393 -35.9767 -35.9767 -35.9751 -35.9751
   -35.6889 -35.6889 -35.6882 -35.6882 -35.6866 -35.6866 -35.6861 -35.6861
   -20.8212 -20.8212 -16.0931 -16.0931 -16.0929 -16.0929 -16.0923 -16.0923
   -16.0914 -16.0914 -13.1224 -13.1224 -13.1211 -13.1211 -13.1095 -13.1095
   -13.1075 -13.1075 -13.1007 -13.1007 -13.1001 -13.1001  -7.4855  -7.4855
    -5.5544  -5.5544  -5.4612  -5.4612  -2.8340  -2.8340  -2.5607  -2.5607
     3.7646   3.7646   4.2958   4.2958   5.1797   5.1797   5.7699   5.7699
     6.1508   6.1508   6.8070   6.8070   8.8373   8.8373   9.3351   9.3351
     9.7823   9.7823   9.9807   9.9807  10.3775  10.3775  10.7878  10.7878
    11.2728  11.2728  11.4899  11.4899  12.0998  12.0998  12.6863  12.6863
    12.8796  12.8796  13.5618  13.5618  13.8083  13.8083  14.0499  14.0499
    15.0354  15.0354  15.3923  15.3923  15.6409  15.6409  16.4904  16.4904

     occupation numbers 
     1.0000   1.0000   1.0000   1.0000   1.0000   1.0000   1.0000   1.0000
     1.0000   1.0000   1.0000   1.0000   1.0000   1.0000   1.0000   1.0000
     1.0000   1.0000   1.0000   1.0000   1.0000   1.0000   1.0000   1.0000
     1.0000   1.0000   1.0000   1.0000   1.0000   1.0000   1.0000   1.0000
     1.0000   1.0000   1.0000   1.0000   1.0000   1.0000   1.0000   1.0000
     1.0000   1.0000   1.0000   1.0000   1.0000   1.0000   1.0000   1.0000
     1.0000   1.0000   1.0000   1.0000   1.0000   1.0000   1.0000   1.0000
     1.0000   1.0000   1.0000   1.0000  -0.0000  -0.0000  -0.0000  -0.0000
    -0.0000  -0.0000  -0.0000  -0.0000  -0.0000  -0.0000  -0.0000  -0.0000
    -0.0000  -0.0000  -0.0000  -0.0000  -0.0000  -0.0000  -0.0000  -0.0000
    -0.0000  -0.0000  -0.0000  -0.0000  -0.0000  -0.0000  -0.0000  -0.0000
    -0.0000  -0.0000  -0.0000  -0.0000  -0.0000  -0.0000  -0.0000  -0.0000

          k =-0.3333 0.0000-0.2958 ( 11552 PWs)   bands (ev):

   -69.0395 -69.0395 -69.0393 -69.0393 -35.9766 -35.9766 -35.9752 -35.9752
   -35.6888 -35.6888 -35.6881 -35.6881 -35.6866 -35.6866 -35.6862 -35.6862
   -20.8212 -20.8212 -16.0931 -16.0931 -16.0929 -16.0929 -16.0922 -16.0921
   -16.0915 -16.0915 -13.1222 -13.1222 -13.1213 -13.1213 -13.1088 -13.1088
   -13.1081 -13.1081 -13.1008 -13.1008 -13.1000 -13.1000  -7.4856  -7.4856
    -5.5550  -5.5550  -5.4615  -5.4615  -2.7986  -2.7986  -2.5964  -2.5964
     3.7432   3.7432   4.2016   4.2016   5.4169   5.4169   5.7321   5.7321
     6.3159   6.3159   6.6195   6.6195   8.9514   8.9514   9.1852   9.1852
     9.8715   9.8715   9.9038   9.9038  10.1014  10.1014  10.7278  10.7278
    11.2004  11.2004  11.3065  11.3065  12.0366  12.0366  12.8390  12.8390
    13.2725  13.2725  13.5516  13.5516  14.0851  14.0851  14.7955  14.7955
    14.8924  14.8924  15.3554  15.3554  15.5715  15.5715  16.0897  16.0897

     occupation numbers 
     1.0000   1.0000   1.0000   1.0000   1.0000   1.0000   1.0000   1.0000
     1.0000   1.0000   1.0000   1.0000   1.0000   1.0000   1.0000   1.0000
     1.0000   1.0000   1.0000   1.0000   1.0000   1.0000   1.0000   1.0000
     1.0000   1.0000   1.0000   1.0000   1.0000   1.0000   1.0000   1.0000
     1.0000   1.0000   1.0000   1.0000   1.0000   1.0000   1.0000   1.0000
     1.0000   1.0000   1.0000   1.0000   1.0000   1.0000   1.0000   1.0000
     1.0000   1.0000   1.0000   1.0000   1.0000   1.0000   1.0000   1.0000
     1.0000   1.0000   1.0000   1.0000  -0.0000  -0.0000  -0.0000  -0.0000
    -0.0000  -0.0000  -0.0000  -0.0000  -0.0000  -0.0000  -0.0000  -0.0000
    -0.0000  -0.0000  -0.0000  -0.0000  -0.0000  -0.0000  -0.0000  -0.0000
    -0.0000  -0.0000  -0.0000  -0.0000  -0.0000  -0.0000  -0.0000  -0.0000
    -0.0000  -0.0000  -0.0000  -0.0000  -0.0000  -0.0000  -0.0000  -0.0000

          k =-0.3333 0.0000-0.1479 ( 11553 PWs)   bands (ev):

   -69.0395 -69.0395 -69.0393 -69.0393 -35.9767 -35.9767 -35.9751 -35.9751
   -35.6889 -35.6889 -35.6882 -35.6882 -35.6866 -35.6866 -35.6861 -35.6861
   -20.8212 -20.8212 -16.0931 -16.0931 -16.0929 -16.0929 -16.0923 -16.0923
   -16.0914 -16.0914 -13.1224 -13.1224 -13.1211 -13.1211 -13.1095 -13.1095
   -13.1075 -13.1075 -13.1007 -13.1007 -13.1001 -13.1001  -7.4855  -7.4855
    -5.5544  -5.5544  -5.4612  -5.4612  -2.8340  -2.8340  -2.5607  -2.5607
     3.7646   3.7646   4.2958   4.2958   5.1797   5.1797   5.7699   5.7699
     6.1508   6.1508   6.8070   6.8070   8.8373   8.8373   9.3351   9.3351
     9.7823   9.7823   9.9807   9.9807  10.3775  10.3775  10.7878  10.7878
    11.2728  11.2728  11.4899  11.4899  12.0998  12.0998  12.6863  12.6863
    12.8796  12.8796  13.5618  13.5618  13.8083  13.8083  14.0499  14.0499
    15.0354  15.0354  15.3923  15.3923  15.6409  15.6409  16.4904  16.4905

     occupation numbers 
     1.0000   1.0000   1.0000   1.0000   1.0000   1.0000   1.0000   1.0000
     1.0000   1.0000   1.0000   1.0000   1.0000   1.0000   1.0000   1.0000
     1.0000   1.0000   1.0000   1.0000   1.0000   1.0000   1.0000   1.0000
     1.0000   1.0000   1.0000   1.0000   1.0000   1.0000   1.0000   1.0000
     1.0000   1.0000   1.0000   1.0000   1.0000   1.0000   1.0000   1.0000
     1.0000   1.0000   1.0000   1.0000   1.0000   1.0000   1.0000   1.0000
     1.0000   1.0000   1.0000   1.0000   1.0000   1.0000   1.0000   1.0000
     1.0000   1.0000   1.0000   1.0000  -0.0000  -0.0000  -0.0000  -0.0000
    -0.0000  -0.0000  -0.0000  -0.0000  -0.0000  -0.0000  -0.0000  -0.0000
    -0.0000  -0.0000  -0.0000  -0.0000  -0.0000  -0.0000  -0.0000  -0.0000
    -0.0000  -0.0000  -0.0000  -0.0000  -0.0000  -0.0000  -0.0000  -0.0000
    -0.0000  -0.0000  -0.0000  -0.0000  -0.0000  -0.0000  -0.0000  -0.0000

     the Fermi energy is     7.8349 ev

!    total energy              =    -621.59455285 Ry
     estimated scf accuracy    <          8.2E-09 Ry
     smearing contrib. (-TS)   =       0.00003057 Ry
     internal energy E=F+TS    =    -621.59458342 Ry

     The total energy is F=E-TS. E is the sum of the following terms:
     one-electron contribution =    -350.87228311 Ry
     hartree contribution      =     188.89253421 Ry
     xc contribution           =    -131.27733561 Ry
     ewald contribution        =    -328.33749891 Ry

     convergence has been achieved in   9 iterations

     Writing all to output data dir ./out_soc_nc_BaMg2Bi2/BaMg2Bi2_soc_nc.save/ :
     XML data file, charge density, pseudopotentials, collected wavefunctions

     init_run     :     19.94s CPU     23.77s WALL (       1 calls)
     electrons    :    668.91s CPU    721.49s WALL (       1 calls)

     Called by init_run:
     wfcinit      :     18.71s CPU     22.39s WALL (       1 calls)
     wfcinit:atom :      0.12s CPU      0.32s WALL (      18 calls)
     wfcinit:wfcr :     17.99s CPU     19.58s WALL (      18 calls)
     potinit      :      0.14s CPU      0.17s WALL (       1 calls)
     hinit0       :      1.05s CPU      1.17s WALL (       1 calls)

     Called by electrons:
     c_bands      :    616.87s CPU    660.68s WALL (      10 calls)
     sum_band     :     50.49s CPU     57.76s WALL (      10 calls)
     v_of_rho     :      0.72s CPU      1.35s WALL (      10 calls)
     v_h          :      0.03s CPU      0.05s WALL (      10 calls)
     v_xc         :      0.69s CPU      1.29s WALL (      10 calls)
     mix_rho      :      0.22s CPU      0.70s WALL (      10 calls)

     Called by c_bands:
     init_us_2    :      2.63s CPU      4.38s WALL (     378 calls)
     cegterg      :    571.01s CPU    600.52s WALL (     180 calls)

     Called by sum_band:
     sum_band:wei :      0.06s CPU      0.08s WALL (      10 calls)
     sum_band:loo :     48.75s CPU     55.53s WALL (      10 calls)
     sum_band:buf :      0.00s CPU      2.80s WALL (     180 calls)
     sum_band:ini :      1.19s CPU      1.91s WALL (     180 calls)

     Called by *egterg:
     cdiaghg      :      7.99s CPU      8.33s WALL (     790 calls)
     cegterg:over :     81.40s CPU     85.24s WALL (     628 calls)
     cegterg:upda :     47.13s CPU     49.44s WALL (     628 calls)
     cegterg:last :     88.65s CPU     92.43s WALL (     372 calls)
     h_psi        :    324.00s CPU    342.30s WALL (     826 calls)
     g_psi        :      1.22s CPU      1.28s WALL (     628 calls)

     Called by h_psi:
     h_psi:calbec :     54.11s CPU     57.04s WALL (     826 calls)
     vloc_psi     :    215.83s CPU    227.52s WALL (     826 calls)
                                        0.00s GPU  (     826 calls)
     add_vuspsi   :     52.96s CPU     55.22s WALL (     826 calls)

     General routines
     calbec       :     54.11s CPU     57.04s WALL (     826 calls)
     fft          :      0.69s CPU      0.74s WALL (     158 calls)
     ffts         :      0.07s CPU      0.07s WALL (      40 calls)
     fftw         :    224.26s CPU    235.60s WALL (  203132 calls)
     davcio       :      0.01s CPU     16.54s WALL (     662 calls)

     Parallel routines

     PWSCF        :  11m29.73s CPU  12m39.18s WALL


   This run was terminated on:  22:17:32  12Jul2026            

=------------------------------------------------------------------------------=
   JOB DONE.
=------------------------------------------------------------------------------=
