
     Program PWSCF v.7.5 starts on  8Jul2026 at 22:19:19 

     This program is part of the open-source Quantum ESPRESSO suite
     for quantum simulation of materials; please cite
         "P. Giannozzi et al., J. Phys.:Condens. Matter 21 395502 (2009);
         "P. Giannozzi et al., J. Phys.:Condens. Matter 29 465901 (2017);
         "P. Giannozzi et al., J. Chem. Phys. 152 154105 (2020);
          URL http://www.quantum-espresso.org", 
     in publications or presentations arising from this work. More details at
     http://www.quantum-espresso.org/quote

     Parallel version (MPI & OpenMP), running on       8 processor cores
     Number of MPI processes:                 8
     Threads/MPI process:                     1

     MPI processes distributed on     1 nodes
     0 MiB available memory on the printing compute node when the environment starts

     Reading input from Ba3BiSb.scf.soc.nc.in

     Current dimensions of program PWSCF are:
     Max number of different atomic species (ntypx) = 10
     Max number of k-points (npk) =  40000
     Max angular momentum in pseudopotentials (lmaxx) =  4

     K-points division:     npool     =       8
     Subspace diagonalization in iterative solution of the eigenvalue problem:
     a serial algorithm will be used


     G-vector sticks info
     --------------------
     sticks:   dense  smooth     PW     G-vecs:    dense   smooth      PW
     Sum        3341    3341    933               145165   145165   21247

     Using Slab Decomposition



     bravais-lattice index     =            0
     lattice parameter (alat)  =      12.2377  a.u.
     unit-cell volume          =    1832.7237 (a.u.)^3
     number of atoms/cell      =            5
     number of atomic types    =            3
     number of electrons       =        60.00
     number of Kohn-Sham states=           96
     kinetic-energy cutoff     =      70.0000  Ry
     charge density cutoff     =     280.0000  Ry
     scf convergence threshold =      1.0E-08
     mixing beta               =       0.3000
     number of iterations used =            8  plain     mixing
     Exchange-correlation= PBE
                           (   1   4   3   4   0   0   0)
     Non magnetic calculation with spin-orbit


     celldm(1)=  12.237677  celldm(2)=   0.000000  celldm(3)=   0.000000
     celldm(4)=   0.000000  celldm(5)=   0.000000  celldm(6)=   0.000000

     crystal axes: (cart. coord. in units of alat)
               a(1) = (   1.000000   0.000000   0.000000 )  
               a(2) = (   0.000000   1.000000   0.000000 )  
               a(3) = (   0.000000   0.000000   1.000000 )  

     reciprocal axes: (cart. coord. in units 2 pi/alat)
               b(1) = (  1.000000  0.000000  0.000000 )  
               b(2) = (  0.000000  1.000000  0.000000 )  
               b(3) = (  0.000000  0.000000  1.000000 )  


     PseudoPot. # 1 for Ba read from file:
     ./pseudo_nc/Ba_FR.upf
     MD5 check sum: c3493f42e3a3b2e6d8ad780f479f7165
     Pseudo is Norm-conserving + core correction, Zval = 10.0
     Generated using ONCVPSP code by D. R. Hamann
     Using radial grid of 1958 points, 10 beta functions with: 
                l(1) =   0
                l(2) =   0
                l(3) =   1
                l(4) =   1
                l(5) =   1
                l(6) =   1
                l(7) =   2
                l(8) =   2
                l(9) =   2
               l(10) =   2

     PseudoPot. # 2 for Bi read from file:
     ./pseudo_nc/Bi_FR.upf
     MD5 check sum: 260977096fd1df4b879f04c556a28fcb
     Pseudo is Norm-conserving + core correction, Zval = 15.0
     Generated using ONCVPSP code by D. R. Hamann
     Using radial grid of 1562 points, 10 beta functions with: 
                l(1) =   0
                l(2) =   0
                l(3) =   1
                l(4) =   1
                l(5) =   1
                l(6) =   1
                l(7) =   2
                l(8) =   2
                l(9) =   2
               l(10) =   2

     PseudoPot. # 3 for Sb read from file:
     ./pseudo_nc/Sb_FR.upf
     MD5 check sum: f524120fbd47438d62aeb3dc8eb03f3c
     Pseudo is Norm-conserving + core correction, Zval = 15.0
     Generated using ONCVPSP code by D. R. Hamann
     Using radial grid of 1468 points, 10 beta functions with: 
                l(1) =   0
                l(2) =   0
                l(3) =   1
                l(4) =   1
                l(5) =   1
                l(6) =   1
                l(7) =   2
                l(8) =   2
                l(9) =   2
               l(10) =   2

     atomic species   valence    mass     pseudopotential
     Ba               10.00   137.32700     Ba( 1.00)
     Bi               15.00   208.98000     Bi( 1.00)
     Sb               15.00   121.76000     Sb( 1.00)

     No symmetry found


                                    s                        frac. trans.

      isym =  1     identity                                     

 cryst.   s( 1) = (     1          0          0      )
                  (     0          1          0      )
                  (     0          0          1      )

 cart.    s( 1) = (  1.0000000  0.0000000  0.0000000 )
                  (  0.0000000  1.0000000  0.0000000 )
                  (  0.0000000  0.0000000  1.0000000 )


   Cartesian axes

     site n.     atom                  positions (alat units)
         1        Ba     tau(   1) = (   0.0000000   0.5000000   0.5000000  )
         2        Ba     tau(   2) = (   0.5000000   0.0000000   0.5000000  )
         3        Ba     tau(   3) = (   0.5000000   0.5000000   0.0000000  )
         4        Bi     tau(   4) = (   0.0000000   0.0000000   0.0000000  )
         5        Sb     tau(   5) = (   0.5000000   0.5000000   0.5000000  )

   Crystallographic axes

     site n.     atom                  positions (cryst. coord.)
         1        Ba     tau(   1) = (  0.0000000  0.5000000  0.5000000  )
         2        Ba     tau(   2) = (  0.5000000  0.0000000  0.5000000  )
         3        Ba     tau(   3) = (  0.5000000  0.5000000  0.0000000  )
         4        Bi     tau(   4) = (  0.0000000  0.0000000  0.0000000  )
         5        Sb     tau(   5) = (  0.5000000  0.5000000  0.5000000  )

     number of k points=    64  Methfessel-Paxton smearing, width (Ry)=  0.0100
                       cart. coord. in units 2pi/alat
        k(    1) = (   0.0000000   0.0000000   0.0000000), wk =   0.0156250
        k(    2) = (   0.0000000   0.0000000   0.2500000), wk =   0.0156250
        k(    3) = (   0.0000000   0.0000000  -0.5000000), wk =   0.0156250
        k(    4) = (   0.0000000   0.0000000  -0.2500000), wk =   0.0156250
        k(    5) = (   0.0000000   0.2500000   0.0000000), wk =   0.0156250
        k(    6) = (   0.0000000   0.2500000   0.2500000), wk =   0.0156250
        k(    7) = (   0.0000000   0.2500000  -0.5000000), wk =   0.0156250
        k(    8) = (   0.0000000   0.2500000  -0.2500000), wk =   0.0156250
        k(    9) = (   0.0000000  -0.5000000   0.0000000), wk =   0.0156250
        k(   10) = (   0.0000000  -0.5000000   0.2500000), wk =   0.0156250
        k(   11) = (   0.0000000  -0.5000000  -0.5000000), wk =   0.0156250
        k(   12) = (   0.0000000  -0.5000000  -0.2500000), wk =   0.0156250
        k(   13) = (   0.0000000  -0.2500000   0.0000000), wk =   0.0156250
        k(   14) = (   0.0000000  -0.2500000   0.2500000), wk =   0.0156250
        k(   15) = (   0.0000000  -0.2500000  -0.5000000), wk =   0.0156250
        k(   16) = (   0.0000000  -0.2500000  -0.2500000), wk =   0.0156250
        k(   17) = (   0.2500000   0.0000000   0.0000000), wk =   0.0156250
        k(   18) = (   0.2500000   0.0000000   0.2500000), wk =   0.0156250
        k(   19) = (   0.2500000   0.0000000  -0.5000000), wk =   0.0156250
        k(   20) = (   0.2500000   0.0000000  -0.2500000), wk =   0.0156250
        k(   21) = (   0.2500000   0.2500000   0.0000000), wk =   0.0156250
        k(   22) = (   0.2500000   0.2500000   0.2500000), wk =   0.0156250
        k(   23) = (   0.2500000   0.2500000  -0.5000000), wk =   0.0156250
        k(   24) = (   0.2500000   0.2500000  -0.2500000), wk =   0.0156250
        k(   25) = (   0.2500000  -0.5000000   0.0000000), wk =   0.0156250
        k(   26) = (   0.2500000  -0.5000000   0.2500000), wk =   0.0156250
        k(   27) = (   0.2500000  -0.5000000  -0.5000000), wk =   0.0156250
        k(   28) = (   0.2500000  -0.5000000  -0.2500000), wk =   0.0156250
        k(   29) = (   0.2500000  -0.2500000   0.0000000), wk =   0.0156250
        k(   30) = (   0.2500000  -0.2500000   0.2500000), wk =   0.0156250
        k(   31) = (   0.2500000  -0.2500000  -0.5000000), wk =   0.0156250
        k(   32) = (   0.2500000  -0.2500000  -0.2500000), wk =   0.0156250
        k(   33) = (  -0.5000000   0.0000000   0.0000000), wk =   0.0156250
        k(   34) = (  -0.5000000   0.0000000   0.2500000), wk =   0.0156250
        k(   35) = (  -0.5000000   0.0000000  -0.5000000), wk =   0.0156250
        k(   36) = (  -0.5000000   0.0000000  -0.2500000), wk =   0.0156250
        k(   37) = (  -0.5000000   0.2500000   0.0000000), wk =   0.0156250
        k(   38) = (  -0.5000000   0.2500000   0.2500000), wk =   0.0156250
        k(   39) = (  -0.5000000   0.2500000  -0.5000000), wk =   0.0156250
        k(   40) = (  -0.5000000   0.2500000  -0.2500000), wk =   0.0156250
        k(   41) = (  -0.5000000  -0.5000000   0.0000000), wk =   0.0156250
        k(   42) = (  -0.5000000  -0.5000000   0.2500000), wk =   0.0156250
        k(   43) = (  -0.5000000  -0.5000000  -0.5000000), wk =   0.0156250
        k(   44) = (  -0.5000000  -0.5000000  -0.2500000), wk =   0.0156250
        k(   45) = (  -0.5000000  -0.2500000   0.0000000), wk =   0.0156250
        k(   46) = (  -0.5000000  -0.2500000   0.2500000), wk =   0.0156250
        k(   47) = (  -0.5000000  -0.2500000  -0.5000000), wk =   0.0156250
        k(   48) = (  -0.5000000  -0.2500000  -0.2500000), wk =   0.0156250
        k(   49) = (  -0.2500000   0.0000000   0.0000000), wk =   0.0156250
        k(   50) = (  -0.2500000   0.0000000   0.2500000), wk =   0.0156250
        k(   51) = (  -0.2500000   0.0000000  -0.5000000), wk =   0.0156250
        k(   52) = (  -0.2500000   0.0000000  -0.2500000), wk =   0.0156250
        k(   53) = (  -0.2500000   0.2500000   0.0000000), wk =   0.0156250
        k(   54) = (  -0.2500000   0.2500000   0.2500000), wk =   0.0156250
        k(   55) = (  -0.2500000   0.2500000  -0.5000000), wk =   0.0156250
        k(   56) = (  -0.2500000   0.2500000  -0.2500000), wk =   0.0156250
        k(   57) = (  -0.2500000  -0.5000000   0.0000000), wk =   0.0156250
        k(   58) = (  -0.2500000  -0.5000000   0.2500000), wk =   0.0156250
        k(   59) = (  -0.2500000  -0.5000000  -0.5000000), wk =   0.0156250
        k(   60) = (  -0.2500000  -0.5000000  -0.2500000), wk =   0.0156250
        k(   61) = (  -0.2500000  -0.2500000   0.0000000), wk =   0.0156250
        k(   62) = (  -0.2500000  -0.2500000   0.2500000), wk =   0.0156250
        k(   63) = (  -0.2500000  -0.2500000  -0.5000000), wk =   0.0156250
        k(   64) = (  -0.2500000  -0.2500000  -0.2500000), wk =   0.0156250

                       cryst. coord.
        k(    1) = (   0.0000000   0.0000000   0.0000000), wk =   0.0156250
        k(    2) = (   0.0000000   0.0000000   0.2500000), wk =   0.0156250
        k(    3) = (   0.0000000   0.0000000  -0.5000000), wk =   0.0156250
        k(    4) = (   0.0000000   0.0000000  -0.2500000), wk =   0.0156250
        k(    5) = (   0.0000000   0.2500000   0.0000000), wk =   0.0156250
        k(    6) = (   0.0000000   0.2500000   0.2500000), wk =   0.0156250
        k(    7) = (   0.0000000   0.2500000  -0.5000000), wk =   0.0156250
        k(    8) = (   0.0000000   0.2500000  -0.2500000), wk =   0.0156250
        k(    9) = (   0.0000000  -0.5000000   0.0000000), wk =   0.0156250
        k(   10) = (   0.0000000  -0.5000000   0.2500000), wk =   0.0156250
        k(   11) = (   0.0000000  -0.5000000  -0.5000000), wk =   0.0156250
        k(   12) = (   0.0000000  -0.5000000  -0.2500000), wk =   0.0156250
        k(   13) = (   0.0000000  -0.2500000   0.0000000), wk =   0.0156250
        k(   14) = (   0.0000000  -0.2500000   0.2500000), wk =   0.0156250
        k(   15) = (   0.0000000  -0.2500000  -0.5000000), wk =   0.0156250
        k(   16) = (   0.0000000  -0.2500000  -0.2500000), wk =   0.0156250
        k(   17) = (   0.2500000   0.0000000   0.0000000), wk =   0.0156250
        k(   18) = (   0.2500000   0.0000000   0.2500000), wk =   0.0156250
        k(   19) = (   0.2500000   0.0000000  -0.5000000), wk =   0.0156250
        k(   20) = (   0.2500000   0.0000000  -0.2500000), wk =   0.0156250
        k(   21) = (   0.2500000   0.2500000   0.0000000), wk =   0.0156250
        k(   22) = (   0.2500000   0.2500000   0.2500000), wk =   0.0156250
        k(   23) = (   0.2500000   0.2500000  -0.5000000), wk =   0.0156250
        k(   24) = (   0.2500000   0.2500000  -0.2500000), wk =   0.0156250
        k(   25) = (   0.2500000  -0.5000000   0.0000000), wk =   0.0156250
        k(   26) = (   0.2500000  -0.5000000   0.2500000), wk =   0.0156250
        k(   27) = (   0.2500000  -0.5000000  -0.5000000), wk =   0.0156250
        k(   28) = (   0.2500000  -0.5000000  -0.2500000), wk =   0.0156250
        k(   29) = (   0.2500000  -0.2500000   0.0000000), wk =   0.0156250
        k(   30) = (   0.2500000  -0.2500000   0.2500000), wk =   0.0156250
        k(   31) = (   0.2500000  -0.2500000  -0.5000000), wk =   0.0156250
        k(   32) = (   0.2500000  -0.2500000  -0.2500000), wk =   0.0156250
        k(   33) = (  -0.5000000   0.0000000   0.0000000), wk =   0.0156250
        k(   34) = (  -0.5000000   0.0000000   0.2500000), wk =   0.0156250
        k(   35) = (  -0.5000000   0.0000000  -0.5000000), wk =   0.0156250
        k(   36) = (  -0.5000000   0.0000000  -0.2500000), wk =   0.0156250
        k(   37) = (  -0.5000000   0.2500000   0.0000000), wk =   0.0156250
        k(   38) = (  -0.5000000   0.2500000   0.2500000), wk =   0.0156250
        k(   39) = (  -0.5000000   0.2500000  -0.5000000), wk =   0.0156250
        k(   40) = (  -0.5000000   0.2500000  -0.2500000), wk =   0.0156250
        k(   41) = (  -0.5000000  -0.5000000   0.0000000), wk =   0.0156250
        k(   42) = (  -0.5000000  -0.5000000   0.2500000), wk =   0.0156250
        k(   43) = (  -0.5000000  -0.5000000  -0.5000000), wk =   0.0156250
        k(   44) = (  -0.5000000  -0.5000000  -0.2500000), wk =   0.0156250
        k(   45) = (  -0.5000000  -0.2500000   0.0000000), wk =   0.0156250
        k(   46) = (  -0.5000000  -0.2500000   0.2500000), wk =   0.0156250
        k(   47) = (  -0.5000000  -0.2500000  -0.5000000), wk =   0.0156250
        k(   48) = (  -0.5000000  -0.2500000  -0.2500000), wk =   0.0156250
        k(   49) = (  -0.2500000   0.0000000   0.0000000), wk =   0.0156250
        k(   50) = (  -0.2500000   0.0000000   0.2500000), wk =   0.0156250
        k(   51) = (  -0.2500000   0.0000000  -0.5000000), wk =   0.0156250
        k(   52) = (  -0.2500000   0.0000000  -0.2500000), wk =   0.0156250
        k(   53) = (  -0.2500000   0.2500000   0.0000000), wk =   0.0156250
        k(   54) = (  -0.2500000   0.2500000   0.2500000), wk =   0.0156250
        k(   55) = (  -0.2500000   0.2500000  -0.5000000), wk =   0.0156250
        k(   56) = (  -0.2500000   0.2500000  -0.2500000), wk =   0.0156250
        k(   57) = (  -0.2500000  -0.5000000   0.0000000), wk =   0.0156250
        k(   58) = (  -0.2500000  -0.5000000   0.2500000), wk =   0.0156250
        k(   59) = (  -0.2500000  -0.5000000  -0.5000000), wk =   0.0156250
        k(   60) = (  -0.2500000  -0.5000000  -0.2500000), wk =   0.0156250
        k(   61) = (  -0.2500000  -0.2500000   0.0000000), wk =   0.0156250
        k(   62) = (  -0.2500000  -0.2500000   0.2500000), wk =   0.0156250
        k(   63) = (  -0.2500000  -0.2500000  -0.5000000), wk =   0.0156250
        k(   64) = (  -0.2500000  -0.2500000  -0.2500000), wk =   0.0156250

     Dense  grid:   145165 G-vectors     FFT dimensions: (  72,  72,  72)

     Dynamical RAM for                 wfc:      53.10 MB

     Dynamical RAM for     wfc (w. buffer):      53.10 MB

     Dynamical RAM for           str. fact:       6.65 MB

     Dynamical RAM for           local pot:       0.00 MB

     Dynamical RAM for          nlocal pot:      47.02 MB

     Dynamical RAM for                qrad:      10.56 MB

     Dynamical RAM for          rho,v,vnew:      60.75 MB

     Dynamical RAM for               rhoin:      20.25 MB

     Dynamical RAM for           G-vectors:       9.41 MB

     Dynamical RAM for          h,s,v(r/c):       1.69 MB

     Dynamical RAM for          <psi|beta>:       0.50 MB

     Dynamical RAM for                 psi:     106.21 MB

     Dynamical RAM for                hpsi:     106.21 MB

     Dynamical RAM for      wfcinit/wfcrot:      79.87 MB

     Estimated static dynamical RAM per process >     239.38 MB

     Estimated max dynamical RAM per process >     453.98 MB

     Estimated total dynamical RAM >       3.55 GB

     Initial potential from superposition of free atoms

     starting charge      59.9486, renormalised to      60.0000
     Starting wfcs are   66 randomized atomic wfcs +   30 random wfcs

     total cpu time spent up to now is       19.1 secs

     Self-consistent Calculation

     iteration #  1     ecut=    70.00 Ry     beta= 0.30
     Davidson diagonalization with overlap

---- Real-time Memory Report at c_bands before calling an iterative solver
             0 MiB given to the printing process from OS
             0 MiB allocation reported by mallinfo(arena+hblkhd)
             0 MiB available memory on the node where the printing process lives
------------------
     ethr =  1.00E-02,  avg # of iterations =  8.2

     Threshold (ethr) on eigenvalues was too large:
     Diagonalizing with lowered threshold

     Davidson diagonalization with overlap

---- Real-time Memory Report at c_bands before calling an iterative solver
             0 MiB given to the printing process from OS
             0 MiB allocation reported by mallinfo(arena+hblkhd)
             0 MiB available memory on the node where the printing process lives
------------------
     ethr =  4.39E-04,  avg # of iterations =  4.9

     total cpu time spent up to now is      166.2 secs

     total energy              =    -514.49937650 Ry
     estimated scf accuracy    <       0.26076026 Ry

     iteration #  2     ecut=    70.00 Ry     beta= 0.30
     Davidson diagonalization with overlap

---- Real-time Memory Report at c_bands before calling an iterative solver
             0 MiB given to the printing process from OS
             0 MiB allocation reported by mallinfo(arena+hblkhd)
             0 MiB available memory on the node where the printing process lives
------------------
     ethr =  4.35E-04,  avg # of iterations =  3.5
     Minimization algorithm failed to find Fermi energy: reverting to bisection
     Possible cause: smearing is larger than the electronic band-gap.

     total cpu time spent up to now is      216.3 secs

     total energy              =    -514.50685672 Ry
     estimated scf accuracy    <       0.04533190 Ry

     iteration #  3     ecut=    70.00 Ry     beta= 0.30
     Davidson diagonalization with overlap

---- Real-time Memory Report at c_bands before calling an iterative solver
             0 MiB given to the printing process from OS
             0 MiB allocation reported by mallinfo(arena+hblkhd)
             0 MiB available memory on the node where the printing process lives
------------------
     ethr =  7.56E-05,  avg # of iterations =  9.2

     total cpu time spent up to now is      280.4 secs

     total energy              =    -514.51246594 Ry
     estimated scf accuracy    <       0.00542981 Ry

     iteration #  4     ecut=    70.00 Ry     beta= 0.30
     Davidson diagonalization with overlap

---- Real-time Memory Report at c_bands before calling an iterative solver
             0 MiB given to the printing process from OS
             0 MiB allocation reported by mallinfo(arena+hblkhd)
             0 MiB available memory on the node where the printing process lives
------------------
     ethr =  9.05E-06,  avg # of iterations =  6.0

     total cpu time spent up to now is      344.5 secs

     total energy              =    -514.51327164 Ry
     estimated scf accuracy    <       0.00089286 Ry

     iteration #  5     ecut=    70.00 Ry     beta= 0.30
     Davidson diagonalization with overlap

---- Real-time Memory Report at c_bands before calling an iterative solver
             0 MiB given to the printing process from OS
             0 MiB allocation reported by mallinfo(arena+hblkhd)
             0 MiB available memory on the node where the printing process lives
------------------
     ethr =  1.49E-06,  avg # of iterations =  7.5

     total cpu time spent up to now is      411.4 secs

     total energy              =    -514.51337835 Ry
     estimated scf accuracy    <       0.00013416 Ry

     iteration #  6     ecut=    70.00 Ry     beta= 0.30
     Davidson diagonalization with overlap

---- Real-time Memory Report at c_bands before calling an iterative solver
             0 MiB given to the printing process from OS
             0 MiB allocation reported by mallinfo(arena+hblkhd)
             0 MiB available memory on the node where the printing process lives
------------------
     ethr =  2.24E-07,  avg # of iterations =  2.5

     total cpu time spent up to now is      468.1 secs

     total energy              =    -514.51337491 Ry
     estimated scf accuracy    <       0.00004998 Ry

     iteration #  7     ecut=    70.00 Ry     beta= 0.30
     Davidson diagonalization with overlap

---- Real-time Memory Report at c_bands before calling an iterative solver
             0 MiB given to the printing process from OS
             0 MiB allocation reported by mallinfo(arena+hblkhd)
             0 MiB available memory on the node where the printing process lives
------------------
     ethr =  8.33E-08,  avg # of iterations =  2.1

     total cpu time spent up to now is      519.5 secs

     total energy              =    -514.51339081 Ry
     estimated scf accuracy    <       0.00001811 Ry

     iteration #  8     ecut=    70.00 Ry     beta= 0.30
     Davidson diagonalization with overlap

---- Real-time Memory Report at c_bands before calling an iterative solver
             0 MiB given to the printing process from OS
             0 MiB allocation reported by mallinfo(arena+hblkhd)
             0 MiB available memory on the node where the printing process lives
------------------
     ethr =  3.02E-08,  avg # of iterations =  2.0

     total cpu time spent up to now is      575.0 secs

     total energy              =    -514.51339412 Ry
     estimated scf accuracy    <       0.00000023 Ry

     iteration #  9     ecut=    70.00 Ry     beta= 0.30
     Davidson diagonalization with overlap

---- Real-time Memory Report at c_bands before calling an iterative solver
             0 MiB given to the printing process from OS
             0 MiB allocation reported by mallinfo(arena+hblkhd)
             0 MiB available memory on the node where the printing process lives
------------------
     ethr =  3.82E-10,  avg # of iterations =  4.8

     total cpu time spent up to now is      632.8 secs

     total energy              =    -514.51339408 Ry
     estimated scf accuracy    <       0.00000040 Ry

     iteration # 10     ecut=    70.00 Ry     beta= 0.30
     Davidson diagonalization with overlap

---- Real-time Memory Report at c_bands before calling an iterative solver
             0 MiB given to the printing process from OS
             0 MiB allocation reported by mallinfo(arena+hblkhd)
             0 MiB available memory on the node where the printing process lives
------------------
     ethr =  3.82E-10,  avg # of iterations =  2.1

     total cpu time spent up to now is      682.9 secs

     End of self-consistent calculation

          k = 0.0000 0.0000 0.0000 ( 18037 PWs)   bands (ev):

   -22.7584 -22.7584 -22.7584 -22.7584 -22.7068 -22.7068 -22.6012 -22.6012
   -22.6012 -22.6012 -21.4380 -21.4380 -21.4380 -21.4380 -21.4275 -21.4275
   -17.2036 -17.2036 -17.2036 -17.2036 -14.2110 -14.2110 -14.2104 -14.2104
   -14.2104 -14.2104  -9.3788  -9.3788  -9.3788  -9.3788  -9.2471  -9.2471
    -7.4886  -7.4886  -7.3845  -7.3845  -7.3845  -7.3845  -7.2803  -7.2803
    -7.1806  -7.1806  -7.1806  -7.1806  -3.2572  -3.2572  -2.9207  -2.9207
     4.5106   4.5106   5.2287   5.2287   5.3223   5.3223   5.3223   5.3223
     5.6504   5.6504   6.3513   6.3513   6.3513   6.3513   6.3864   6.3864
     6.3864   6.3864   6.3951   6.3951   6.4026   6.4026   6.4026   6.4026
     8.7204   8.7204   8.7204   8.7204   8.7845   8.7845   9.0627   9.0627
     9.0627   9.0627  10.5038  10.5038  10.7389  10.7389  10.8182  10.8182
    10.8182  10.8182  11.2263  11.2263  11.3835  11.3835  11.5962  11.5962

     occupation numbers 
     1.0000   1.0000   1.0000   1.0000   1.0000   1.0000   1.0000   1.0000
     1.0000   1.0000   1.0000   1.0000   1.0000   1.0000   1.0000   1.0000
     1.0000   1.0000   1.0000   1.0000   1.0000   1.0000   1.0000   1.0000
     1.0000   1.0000   1.0000   1.0000   1.0000   1.0000   1.0000   1.0000
     1.0000   1.0000   1.0000   1.0000   1.0000   1.0000   1.0000   1.0000
     1.0000   1.0000   1.0000   1.0000   1.0000   1.0000   1.0000   1.0000
     1.0000   1.0000   1.0000   1.0000   1.0000   1.0000   1.0000   1.0000
     1.0000   1.0000   0.2304   0.2304   0.2304   0.2304   0.0814   0.0814
     0.0814   0.0814   0.0546   0.0546   0.0347   0.0347   0.0347   0.0347
    -0.0000  -0.0000  -0.0000  -0.0000  -0.0000  -0.0000  -0.0000  -0.0000
    -0.0000  -0.0000  -0.0000  -0.0000  -0.0000  -0.0000  -0.0000  -0.0000
    -0.0000  -0.0000  -0.0000  -0.0000  -0.0000  -0.0000  -0.0000  -0.0000

          k = 0.0000 0.0000 0.2500 ( 18145 PWs)   bands (ev):

   -22.7586 -22.7586 -22.7463 -22.7463 -22.7010 -22.7010 -22.6173 -22.6173
   -22.6014 -22.6014 -21.4417 -21.4417 -21.4383 -21.4383 -21.4279 -21.4279
   -17.2036 -17.2036 -17.2036 -17.2036 -14.2110 -14.2110 -14.2104 -14.2104
   -14.2104 -14.2104  -9.3783  -9.3783  -9.3651  -9.3651  -9.2653  -9.2653
    -7.4707  -7.4707  -7.3873  -7.3873  -7.3656  -7.3656  -7.2867  -7.2867
    -7.2349  -7.2349  -7.1957  -7.1957  -3.2342  -3.2342  -2.7108  -2.7108
     4.2456   4.2456   4.4259   4.4259   5.0302   5.0302   5.2040   5.2040
     5.3052   5.3052   5.8083   5.8083   6.3869   6.3869   6.4822   6.4822
     6.7130   6.7130   6.9647   6.9647   7.2939   7.2939   7.4119   7.4119
     8.4270   8.4270   8.9511   8.9511   9.0677   9.0677   9.1094   9.1094
     9.3517   9.3517   9.6164   9.6164   9.9803   9.9803  10.1511  10.1511
    10.5052  10.5052  10.8069  10.8069  11.1947  11.1947  11.3125  11.3125

     occupation numbers 
     1.0000   1.0000   1.0000   1.0000   1.0000   1.0000   1.0000   1.0000
     1.0000   1.0000   1.0000   1.0000   1.0000   1.0000   1.0000   1.0000
     1.0000   1.0000   1.0000   1.0000   1.0000   1.0000   1.0000   1.0000
     1.0000   1.0000   1.0000   1.0000   1.0000   1.0000   1.0000   1.0000
     1.0000   1.0000   1.0000   1.0000   1.0000   1.0000   1.0000   1.0000
     1.0000   1.0000   1.0000   1.0000   1.0000   1.0000   1.0000   1.0000
     1.0000   1.0000   1.0000   1.0000   1.0000   1.0000   1.0000   1.0000
     1.0000   1.0000   1.0000   1.0000   0.0795   0.0795  -0.0346  -0.0346
    -0.0001  -0.0001  -0.0000  -0.0000  -0.0000  -0.0000  -0.0000  -0.0000
    -0.0000  -0.0000  -0.0000  -0.0000  -0.0000  -0.0000  -0.0000  -0.0000
    -0.0000  -0.0000  -0.0000  -0.0000  -0.0000  -0.0000  -0.0000  -0.0000
    -0.0000  -0.0000  -0.0000  -0.0000  -0.0000  -0.0000  -0.0000  -0.0000

          k = 0.0000 0.0000-0.5000 ( 18184 PWs)   bands (ev):

   -22.7586 -22.7586 -22.7353 -22.7353 -22.6843 -22.6843 -22.6430 -22.6430
   -22.6014 -22.6014 -21.4454 -21.4454 -21.4384 -21.4384 -21.4281 -21.4281
   -17.2037 -17.2037 -17.2036 -17.2036 -14.2110 -14.2110 -14.2104 -14.2104
   -14.2103 -14.2103  -9.3779  -9.3779  -9.3427  -9.3427  -9.2923  -9.2923
    -7.4382  -7.4382  -7.3941  -7.3941  -7.3343  -7.3343  -7.3045  -7.3045
    -7.2979  -7.2979  -7.2119  -7.2119  -3.2155  -3.2155  -2.4766  -2.4766
     3.6675   3.6675   4.0933   4.0933   4.9324   4.9324   5.0570   5.0570
     5.0945   5.0945   5.6378   5.6378   6.5968   6.5968   6.7748   6.7748
     7.2350   7.2350   7.5745   7.5745   7.8979   7.8979   7.9797   7.9797
     8.1305   8.1305   8.6467   8.6467   9.0139   9.0139   9.1231   9.1231
     9.2734   9.2734   9.4657   9.4657   9.6499   9.6499   9.6926   9.6926
    10.5751  10.5751  10.5975  10.5975  10.6150  10.6150  10.8206  10.8206

     occupation numbers 
     1.0000   1.0000   1.0000   1.0000   1.0000   1.0000   1.0000   1.0000
     1.0000   1.0000   1.0000   1.0000   1.0000   1.0000   1.0000   1.0000
     1.0000   1.0000   1.0000   1.0000   1.0000   1.0000   1.0000   1.0000
     1.0000   1.0000   1.0000   1.0000   1.0000   1.0000   1.0000   1.0000
     1.0000   1.0000   1.0000   1.0000   1.0000   1.0000   1.0000   1.0000
     1.0000   1.0000   1.0000   1.0000   1.0000   1.0000   1.0000   1.0000
     1.0000   1.0000   1.0000   1.0000   1.0000   1.0000   1.0000   1.0000
     1.0000   1.0000   1.0000   1.0000  -0.0049  -0.0049  -0.0000  -0.0000
    -0.0000  -0.0000  -0.0000  -0.0000  -0.0000  -0.0000  -0.0000  -0.0000
    -0.0000  -0.0000  -0.0000  -0.0000  -0.0000  -0.0000  -0.0000  -0.0000
    -0.0000  -0.0000  -0.0000  -0.0000  -0.0000  -0.0000  -0.0000  -0.0000
    -0.0000  -0.0000  -0.0000  -0.0000  -0.0000  -0.0000  -0.0000  -0.0000

          k = 0.0000 0.0000-0.2500 ( 18145 PWs)   bands (ev):

   -22.7586 -22.7586 -22.7463 -22.7463 -22.7010 -22.7010 -22.6173 -22.6173
   -22.6014 -22.6014 -21.4417 -21.4417 -21.4383 -21.4383 -21.4279 -21.4279
   -17.2036 -17.2036 -17.2036 -17.2036 -14.2110 -14.2110 -14.2104 -14.2104
   -14.2104 -14.2104  -9.3783  -9.3783  -9.3651  -9.3651  -9.2653  -9.2653
    -7.4707  -7.4707  -7.3873  -7.3873  -7.3656  -7.3656  -7.2867  -7.2867
    -7.2349  -7.2349  -7.1957  -7.1957  -3.2342  -3.2342  -2.7108  -2.7108
     4.2456   4.2456   4.4259   4.4259   5.0302   5.0302   5.2040   5.2040
     5.3052   5.3052   5.8083   5.8083   6.3869   6.3869   6.4822   6.4822
     6.7130   6.7130   6.9647   6.9647   7.2939   7.2939   7.4119   7.4119
     8.4270   8.4270   8.9511   8.9511   9.0677   9.0677   9.1094   9.1094
     9.3517   9.3517   9.6164   9.6164   9.9803   9.9803  10.1511  10.1511
    10.5052  10.5052  10.8069  10.8069  11.1947  11.1947  11.3136  11.3136

     occupation numbers 
     1.0000   1.0000   1.0000   1.0000   1.0000   1.0000   1.0000   1.0000
     1.0000   1.0000   1.0000   1.0000   1.0000   1.0000   1.0000   1.0000
     1.0000   1.0000   1.0000   1.0000   1.0000   1.0000   1.0000   1.0000
     1.0000   1.0000   1.0000   1.0000   1.0000   1.0000   1.0000   1.0000
     1.0000   1.0000   1.0000   1.0000   1.0000   1.0000   1.0000   1.0000
     1.0000   1.0000   1.0000   1.0000   1.0000   1.0000   1.0000   1.0000
     1.0000   1.0000   1.0000   1.0000   1.0000   1.0000   1.0000   1.0000
     1.0000   1.0000   1.0000   1.0000   0.0795   0.0795  -0.0346  -0.0346
    -0.0001  -0.0001  -0.0000  -0.0000  -0.0000  -0.0000  -0.0000  -0.0000
    -0.0000  -0.0000  -0.0000  -0.0000  -0.0000  -0.0000  -0.0000  -0.0000
    -0.0000  -0.0000  -0.0000  -0.0000  -0.0000  -0.0000  -0.0000  -0.0000
    -0.0000  -0.0000  -0.0000  -0.0000  -0.0000  -0.0000  -0.0000  -0.0000

          k = 0.0000 0.2500 0.0000 ( 18145 PWs)   bands (ev):

   -22.7586 -22.7586 -22.7463 -22.7463 -22.7010 -22.7010 -22.6173 -22.6173
   -22.6014 -22.6014 -21.4417 -21.4417 -21.4383 -21.4383 -21.4279 -21.4279
   -17.2036 -17.2036 -17.2036 -17.2036 -14.2110 -14.2110 -14.2104 -14.2104
   -14.2104 -14.2104  -9.3783  -9.3783  -9.3651  -9.3651  -9.2653  -9.2653
    -7.4707  -7.4707  -7.3873  -7.3873  -7.3656  -7.3656  -7.2867  -7.2867
    -7.2349  -7.2349  -7.1957  -7.1957  -3.2342  -3.2342  -2.7108  -2.7108
     4.2456   4.2456   4.4259   4.4259   5.0302   5.0302   5.2040   5.2040
     5.3052   5.3052   5.8083   5.8083   6.3869   6.3869   6.4822   6.4822
     6.7130   6.7130   6.9647   6.9647   7.2939   7.2939   7.4119   7.4119
     8.4270   8.4270   8.9511   8.9511   9.0677   9.0677   9.1094   9.1094
     9.3517   9.3517   9.6164   9.6164   9.9803   9.9803  10.1511  10.1511
    10.5052  10.5052  10.8069  10.8069  11.1947  11.1947  11.3136  11.3136

     occupation numbers 
     1.0000   1.0000   1.0000   1.0000   1.0000   1.0000   1.0000   1.0000
     1.0000   1.0000   1.0000   1.0000   1.0000   1.0000   1.0000   1.0000
     1.0000   1.0000   1.0000   1.0000   1.0000   1.0000   1.0000   1.0000
     1.0000   1.0000   1.0000   1.0000   1.0000   1.0000   1.0000   1.0000
     1.0000   1.0000   1.0000   1.0000   1.0000   1.0000   1.0000   1.0000
     1.0000   1.0000   1.0000   1.0000   1.0000   1.0000   1.0000   1.0000
     1.0000   1.0000   1.0000   1.0000   1.0000   1.0000   1.0000   1.0000
     1.0000   1.0000   1.0000   1.0000   0.0795   0.0795  -0.0346  -0.0346
    -0.0001  -0.0001  -0.0000  -0.0000  -0.0000  -0.0000  -0.0000  -0.0000
    -0.0000  -0.0000  -0.0000  -0.0000  -0.0000  -0.0000  -0.0000  -0.0000
    -0.0000  -0.0000  -0.0000  -0.0000  -0.0000  -0.0000  -0.0000  -0.0000
    -0.0000  -0.0000  -0.0000  -0.0000  -0.0000  -0.0000  -0.0000  -0.0000

          k = 0.0000 0.2500 0.2500 ( 18095 PWs)   bands (ev):

   -22.7530 -22.7530 -22.7368 -22.7368 -22.6977 -22.6977 -22.6255 -22.6255
   -22.6092 -22.6092 -21.4433 -21.4433 -21.4399 -21.4399 -21.4279 -21.4279
   -17.2036 -17.2036 -17.2036 -17.2036 -14.2110 -14.2110 -14.2104 -14.2104
   -14.2104 -14.2104  -9.3784  -9.3784  -9.3565  -9.3565  -9.2809  -9.2809
    -7.4911  -7.4911  -7.3805  -7.3805  -7.3455  -7.3455  -7.2895  -7.2895
    -7.2673  -7.2673  -7.1935  -7.1935  -3.2222  -3.2222  -2.5019  -2.5019
     4.0457   4.0457   4.1460   4.1460   4.5342   4.5342   4.9763   4.9763
     5.2368   5.2368   5.6124   5.6124   6.7059   6.7059   6.7890   6.7890
     6.9556   6.9556   7.2131   7.2131   7.4539   7.4539   7.9445   7.9445
     8.6384   8.6384   8.7963   8.7963   8.8804   8.8804   9.0231   9.0231
     9.3501   9.3501   9.5940   9.5940   9.8047   9.8047   9.9132   9.9132
    10.1420  10.1420  10.7293  10.7293  10.8975  10.8976  11.8283  11.8284

     occupation numbers 
     1.0000   1.0000   1.0000   1.0000   1.0000   1.0000   1.0000   1.0000
     1.0000   1.0000   1.0000   1.0000   1.0000   1.0000   1.0000   1.0000
     1.0000   1.0000   1.0000   1.0000   1.0000   1.0000   1.0000   1.0000
     1.0000   1.0000   1.0000   1.0000   1.0000   1.0000   1.0000   1.0000
     1.0000   1.0000   1.0000   1.0000   1.0000   1.0000   1.0000   1.0000
     1.0000   1.0000   1.0000   1.0000   1.0000   1.0000   1.0000   1.0000
     1.0000   1.0000   1.0000   1.0000   1.0000   1.0000   1.0000   1.0000
     1.0000   1.0000   1.0000   1.0000  -0.0001  -0.0001  -0.0000  -0.0000
    -0.0000  -0.0000  -0.0000  -0.0000  -0.0000  -0.0000  -0.0000  -0.0000
    -0.0000  -0.0000  -0.0000  -0.0000  -0.0000  -0.0000  -0.0000  -0.0000
    -0.0000  -0.0000  -0.0000  -0.0000  -0.0000  -0.0000  -0.0000  -0.0000
    -0.0000  -0.0000  -0.0000  -0.0000  -0.0000  -0.0000  -0.0000  -0.0000

          k = 0.0000 0.2500-0.5000 ( 18136 PWs)   bands (ev):

   -22.7517 -22.7517 -22.7228 -22.7228 -22.6843 -22.6843 -22.6498 -22.6498
   -22.6116 -22.6116 -21.4465 -21.4465 -21.4405 -21.4405 -21.4280 -21.4280
   -17.2036 -17.2036 -17.2036 -17.2036 -14.2110 -14.2110 -14.2104 -14.2104
   -14.2103 -14.2103  -9.3786  -9.3786  -9.3413  -9.3413  -9.3029  -9.3029
    -7.5069  -7.5069  -7.3672  -7.3672  -7.3386  -7.3386  -7.3147  -7.3147
    -7.2580  -7.2580  -7.2074  -7.2074  -3.2111  -3.2111  -2.2696  -2.2696
     3.5043   3.5043   3.9338   3.9338   4.4259   4.4259   4.8382   4.8382
     5.1572   5.1572   5.5038   5.5038   6.9702   6.9702   7.1490   7.1490
     7.4287   7.4287   7.4906   7.4906   7.7803   7.7803   8.1103   8.1103
     8.2971   8.2971   8.6723   8.6723   8.8819   8.8819   9.1057   9.1057
     9.3461   9.3461   9.3834   9.3834   9.5655   9.5655   9.8018   9.8018
     9.9531   9.9531  10.1620  10.1620  11.2411  11.2411  11.5456  11.5458

     occupation numbers 
     1.0000   1.0000   1.0000   1.0000   1.0000   1.0000   1.0000   1.0000
     1.0000   1.0000   1.0000   1.0000   1.0000   1.0000   1.0000   1.0000
     1.0000   1.0000   1.0000   1.0000   1.0000   1.0000   1.0000   1.0000
     1.0000   1.0000   1.0000   1.0000   1.0000   1.0000   1.0000   1.0000
     1.0000   1.0000   1.0000   1.0000   1.0000   1.0000   1.0000   1.0000
     1.0000   1.0000   1.0000   1.0000   1.0000   1.0000   1.0000   1.0000
     1.0000   1.0000   1.0000   1.0000   1.0000   1.0000   1.0000   1.0000
     1.0000   1.0000   1.0000   1.0000  -0.0000  -0.0000  -0.0000  -0.0000
    -0.0000  -0.0000  -0.0000  -0.0000  -0.0000  -0.0000  -0.0000  -0.0000
    -0.0000  -0.0000  -0.0000  -0.0000  -0.0000  -0.0000  -0.0000  -0.0000
    -0.0000  -0.0000  -0.0000  -0.0000  -0.0000  -0.0000  -0.0000  -0.0000
    -0.0000  -0.0000  -0.0000  -0.0000  -0.0000  -0.0000  -0.0000  -0.0000

          k = 0.0000 0.2500-0.2500 ( 18095 PWs)   bands (ev):

   -22.7530 -22.7530 -22.7368 -22.7368 -22.6977 -22.6977 -22.6255 -22.6255
   -22.6092 -22.6092 -21.4433 -21.4433 -21.4399 -21.4399 -21.4279 -21.4279
   -17.2036 -17.2036 -17.2036 -17.2036 -14.2110 -14.2110 -14.2104 -14.2104
   -14.2104 -14.2104  -9.3784  -9.3784  -9.3565  -9.3565  -9.2809  -9.2809
    -7.4911  -7.4911  -7.3805  -7.3805  -7.3455  -7.3455  -7.2895  -7.2895
    -7.2673  -7.2673  -7.1935  -7.1935  -3.2222  -3.2222  -2.5019  -2.5019
     4.0457   4.0457   4.1460   4.1460   4.5342   4.5342   4.9763   4.9763
     5.2368   5.2368   5.6124   5.6124   6.7059   6.7059   6.7890   6.7890
     6.9556   6.9556   7.2131   7.2131   7.4539   7.4539   7.9445   7.9445
     8.6384   8.6384   8.7963   8.7963   8.8804   8.8804   9.0231   9.0231
     9.3501   9.3501   9.5940   9.5940   9.8047   9.8047   9.9132   9.9132
    10.1420  10.1420  10.7293  10.7293  10.8975  10.8975  11.8283  11.8284

     occupation numbers 
     1.0000   1.0000   1.0000   1.0000   1.0000   1.0000   1.0000   1.0000
     1.0000   1.0000   1.0000   1.0000   1.0000   1.0000   1.0000   1.0000
     1.0000   1.0000   1.0000   1.0000   1.0000   1.0000   1.0000   1.0000
     1.0000   1.0000   1.0000   1.0000   1.0000   1.0000   1.0000   1.0000
     1.0000   1.0000   1.0000   1.0000   1.0000   1.0000   1.0000   1.0000
     1.0000   1.0000   1.0000   1.0000   1.0000   1.0000   1.0000   1.0000
     1.0000   1.0000   1.0000   1.0000   1.0000   1.0000   1.0000   1.0000
     1.0000   1.0000   1.0000   1.0000  -0.0001  -0.0001  -0.0000  -0.0000
    -0.0000  -0.0000  -0.0000  -0.0000  -0.0000  -0.0000  -0.0000  -0.0000
    -0.0000  -0.0000  -0.0000  -0.0000  -0.0000  -0.0000  -0.0000  -0.0000
    -0.0000  -0.0000  -0.0000  -0.0000  -0.0000  -0.0000  -0.0000  -0.0000
    -0.0000  -0.0000  -0.0000  -0.0000  -0.0000  -0.0000  -0.0000  -0.0000

          k = 0.0000-0.5000 0.0000 ( 18184 PWs)   bands (ev):

   -22.7586 -22.7586 -22.7353 -22.7353 -22.6843 -22.6843 -22.6430 -22.6430
   -22.6014 -22.6014 -21.4454 -21.4454 -21.4384 -21.4384 -21.4281 -21.4281
   -17.2037 -17.2037 -17.2036 -17.2036 -14.2110 -14.2110 -14.2104 -14.2104
   -14.2103 -14.2103  -9.3779  -9.3779  -9.3427  -9.3427  -9.2923  -9.2923
    -7.4382  -7.4382  -7.3941  -7.3941  -7.3343  -7.3343  -7.3045  -7.3045
    -7.2979  -7.2979  -7.2119  -7.2119  -3.2155  -3.2155  -2.4766  -2.4766
     3.6675   3.6675   4.0933   4.0933   4.9324   4.9324   5.0570   5.0570
     5.0945   5.0945   5.6378   5.6378   6.5968   6.5968   6.7748   6.7748
     7.2350   7.2350   7.5745   7.5745   7.8979   7.8979   7.9797   7.9797
     8.1305   8.1305   8.6467   8.6467   9.0139   9.0139   9.1231   9.1231
     9.2734   9.2734   9.4657   9.4657   9.6499   9.6499   9.6926   9.6926
    10.5751  10.5751  10.5975  10.5975  10.6150  10.6150  10.8206  10.8207

     occupation numbers 
     1.0000   1.0000   1.0000   1.0000   1.0000   1.0000   1.0000   1.0000
     1.0000   1.0000   1.0000   1.0000   1.0000   1.0000   1.0000   1.0000
     1.0000   1.0000   1.0000   1.0000   1.0000   1.0000   1.0000   1.0000
     1.0000   1.0000   1.0000   1.0000   1.0000   1.0000   1.0000   1.0000
     1.0000   1.0000   1.0000   1.0000   1.0000   1.0000   1.0000   1.0000
     1.0000   1.0000   1.0000   1.0000   1.0000   1.0000   1.0000   1.0000
     1.0000   1.0000   1.0000   1.0000   1.0000   1.0000   1.0000   1.0000
     1.0000   1.0000   1.0000   1.0000  -0.0049  -0.0049  -0.0000  -0.0000
    -0.0000  -0.0000  -0.0000  -0.0000  -0.0000  -0.0000  -0.0000  -0.0000
    -0.0000  -0.0000  -0.0000  -0.0000  -0.0000  -0.0000  -0.0000  -0.0000
    -0.0000  -0.0000  -0.0000  -0.0000  -0.0000  -0.0000  -0.0000  -0.0000
    -0.0000  -0.0000  -0.0000  -0.0000  -0.0000  -0.0000  -0.0000  -0.0000

          k = 0.0000-0.5000 0.2500 ( 18136 PWs)   bands (ev):

   -22.7517 -22.7517 -22.7228 -22.7228 -22.6843 -22.6843 -22.6498 -22.6498
   -22.6116 -22.6116 -21.4465 -21.4465 -21.4405 -21.4405 -21.4280 -21.4280
   -17.2036 -17.2036 -17.2036 -17.2036 -14.2110 -14.2110 -14.2104 -14.2104
   -14.2103 -14.2103  -9.3786  -9.3786  -9.3413  -9.3413  -9.3029  -9.3029
    -7.5069  -7.5069  -7.3672  -7.3672  -7.3386  -7.3386  -7.3147  -7.3147
    -7.2580  -7.2580  -7.2074  -7.2074  -3.2111  -3.2111  -2.2696  -2.2696
     3.5043   3.5043   3.9338   3.9338   4.4259   4.4259   4.8382   4.8382
     5.1572   5.1572   5.5038   5.5038   6.9702   6.9702   7.1490   7.1490
     7.4287   7.4287   7.4906   7.4906   7.7803   7.7803   8.1103   8.1103
     8.2971   8.2971   8.6723   8.6723   8.8819   8.8819   9.1057   9.1057
     9.3461   9.3461   9.3834   9.3834   9.5655   9.5655   9.8018   9.8018
     9.9531   9.9531  10.1620  10.1620  11.2411  11.2411  11.5457  11.5457

     occupation numbers 
     1.0000   1.0000   1.0000   1.0000   1.0000   1.0000   1.0000   1.0000
     1.0000   1.0000   1.0000   1.0000   1.0000   1.0000   1.0000   1.0000
     1.0000   1.0000   1.0000   1.0000   1.0000   1.0000   1.0000   1.0000
     1.0000   1.0000   1.0000   1.0000   1.0000   1.0000   1.0000   1.0000
     1.0000   1.0000   1.0000   1.0000   1.0000   1.0000   1.0000   1.0000
     1.0000   1.0000   1.0000   1.0000   1.0000   1.0000   1.0000   1.0000
     1.0000   1.0000   1.0000   1.0000   1.0000   1.0000   1.0000   1.0000
     1.0000   1.0000   1.0000   1.0000  -0.0000  -0.0000  -0.0000  -0.0000
    -0.0000  -0.0000  -0.0000  -0.0000  -0.0000  -0.0000  -0.0000  -0.0000
    -0.0000  -0.0000  -0.0000  -0.0000  -0.0000  -0.0000  -0.0000  -0.0000
    -0.0000  -0.0000  -0.0000  -0.0000  -0.0000  -0.0000  -0.0000  -0.0000
    -0.0000  -0.0000  -0.0000  -0.0000  -0.0000  -0.0000  -0.0000  -0.0000

          k = 0.0000-0.5000-0.5000 ( 18176 PWs)   bands (ev):

   -22.7489 -22.7489 -22.6843 -22.6843 -22.6842 -22.6842 -22.6807 -22.6807
   -22.6203 -22.6203 -21.4488 -21.4488 -21.4419 -21.4419 -21.4281 -21.4281
   -17.2036 -17.2036 -17.2036 -17.2036 -14.2110 -14.2110 -14.2104 -14.2104
   -14.2103 -14.2103  -9.3804  -9.3804  -9.3352  -9.3352  -9.3173  -9.3173
    -7.5462  -7.5462  -7.3710  -7.3710  -7.3361  -7.3361  -7.3117  -7.3117
    -7.2426  -7.2426  -7.1966  -7.1966  -3.2067  -3.2067  -2.0375  -2.0375
     3.2901   3.2901   3.4812   3.4812   4.3422   4.3422   4.7119   4.7119
     5.2254   5.2254   5.4335   5.4335   7.3668   7.3668   7.3949   7.3949
     7.5516   7.5516   7.5825   7.5825   7.7737   7.7737   7.8632   7.8633
     8.5683   8.5683   8.5927   8.5927   8.7097   8.7097   9.0450   9.0450
     9.3673   9.3674   9.4414   9.4414   9.6386   9.6386   9.7454   9.7454
     9.8753   9.8753  10.6718  10.6718  10.7803  10.7803  11.7537  11.7538

     occupation numbers 
     1.0000   1.0000   1.0000   1.0000   1.0000   1.0000   1.0000   1.0000
     1.0000   1.0000   1.0000   1.0000   1.0000   1.0000   1.0000   1.0000
     1.0000   1.0000   1.0000   1.0000   1.0000   1.0000   1.0000   1.0000
     1.0000   1.0000   1.0000   1.0000   1.0000   1.0000   1.0000   1.0000
     1.0000   1.0000   1.0000   1.0000   1.0000   1.0000   1.0000   1.0000
     1.0000   1.0000   1.0000   1.0000   1.0000   1.0000   1.0000   1.0000
     1.0000   1.0000   1.0000   1.0000   1.0000   1.0000   1.0000   1.0000
     1.0000   1.0000   1.0000   1.0000  -0.0000  -0.0000  -0.0000  -0.0000
    -0.0000  -0.0000  -0.0000  -0.0000  -0.0000  -0.0000  -0.0000  -0.0000
    -0.0000  -0.0000  -0.0000  -0.0000  -0.0000  -0.0000  -0.0000  -0.0000
    -0.0000  -0.0000  -0.0000  -0.0000  -0.0000  -0.0000  -0.0000  -0.0000
    -0.0000  -0.0000  -0.0000  -0.0000  -0.0000  -0.0000  -0.0000  -0.0000

          k = 0.0000-0.5000-0.2500 ( 18136 PWs)   bands (ev):

   -22.7517 -22.7517 -22.7228 -22.7228 -22.6843 -22.6843 -22.6498 -22.6498
   -22.6116 -22.6116 -21.4465 -21.4465 -21.4405 -21.4405 -21.4280 -21.4280
   -17.2036 -17.2036 -17.2036 -17.2036 -14.2110 -14.2110 -14.2104 -14.2104
   -14.2103 -14.2103  -9.3786  -9.3786  -9.3413  -9.3413  -9.3029  -9.3029
    -7.5069  -7.5069  -7.3672  -7.3672  -7.3386  -7.3386  -7.3147  -7.3147
    -7.2580  -7.2580  -7.2074  -7.2074  -3.2111  -3.2111  -2.2696  -2.2696
     3.5043   3.5043   3.9338   3.9338   4.4259   4.4259   4.8382   4.8382
     5.1572   5.1572   5.5038   5.5038   6.9702   6.9702   7.1490   7.1490
     7.4287   7.4287   7.4906   7.4906   7.7803   7.7803   8.1103   8.1103
     8.2971   8.2971   8.6723   8.6723   8.8819   8.8819   9.1057   9.1057
     9.3461   9.3461   9.3834   9.3834   9.5655   9.5655   9.8018   9.8018
     9.9531   9.9531  10.1620  10.1620  11.2411  11.2411  11.5457  11.5457

     occupation numbers 
     1.0000   1.0000   1.0000   1.0000   1.0000   1.0000   1.0000   1.0000
     1.0000   1.0000   1.0000   1.0000   1.0000   1.0000   1.0000   1.0000
     1.0000   1.0000   1.0000   1.0000   1.0000   1.0000   1.0000   1.0000
     1.0000   1.0000   1.0000   1.0000   1.0000   1.0000   1.0000   1.0000
     1.0000   1.0000   1.0000   1.0000   1.0000   1.0000   1.0000   1.0000
     1.0000   1.0000   1.0000   1.0000   1.0000   1.0000   1.0000   1.0000
     1.0000   1.0000   1.0000   1.0000   1.0000   1.0000   1.0000   1.0000
     1.0000   1.0000   1.0000   1.0000  -0.0000  -0.0000  -0.0000  -0.0000
    -0.0000  -0.0000  -0.0000  -0.0000  -0.0000  -0.0000  -0.0000  -0.0000
    -0.0000  -0.0000  -0.0000  -0.0000  -0.0000  -0.0000  -0.0000  -0.0000
    -0.0000  -0.0000  -0.0000  -0.0000  -0.0000  -0.0000  -0.0000  -0.0000
    -0.0000  -0.0000  -0.0000  -0.0000  -0.0000  -0.0000  -0.0000  -0.0000

          k = 0.0000-0.2500 0.0000 ( 18145 PWs)   bands (ev):

   -22.7586 -22.7586 -22.7463 -22.7463 -22.7010 -22.7010 -22.6173 -22.6173
   -22.6014 -22.6014 -21.4417 -21.4417 -21.4383 -21.4383 -21.4279 -21.4279
   -17.2036 -17.2036 -17.2036 -17.2036 -14.2110 -14.2110 -14.2104 -14.2104
   -14.2104 -14.2104  -9.3783  -9.3783  -9.3651  -9.3651  -9.2653  -9.2653
    -7.4707  -7.4707  -7.3873  -7.3873  -7.3656  -7.3656  -7.2867  -7.2867
    -7.2349  -7.2349  -7.1957  -7.1957  -3.2342  -3.2342  -2.7108  -2.7108
     4.2456   4.2456   4.4259   4.4259   5.0302   5.0302   5.2040   5.2040
     5.3052   5.3052   5.8083   5.8083   6.3869   6.3869   6.4822   6.4822
     6.7130   6.7130   6.9647   6.9647   7.2939   7.2939   7.4119   7.4119
     8.4270   8.4270   8.9511   8.9511   9.0677   9.0677   9.1094   9.1094
     9.3517   9.3517   9.6164   9.6164   9.9803   9.9803  10.1511  10.1511
    10.5052  10.5052  10.8069  10.8069  11.1947  11.1947  11.3125  11.3138

     occupation numbers 
     1.0000   1.0000   1.0000   1.0000   1.0000   1.0000   1.0000   1.0000
     1.0000   1.0000   1.0000   1.0000   1.0000   1.0000   1.0000   1.0000
     1.0000   1.0000   1.0000   1.0000   1.0000   1.0000   1.0000   1.0000
     1.0000   1.0000   1.0000   1.0000   1.0000   1.0000   1.0000   1.0000
     1.0000   1.0000   1.0000   1.0000   1.0000   1.0000   1.0000   1.0000
     1.0000   1.0000   1.0000   1.0000   1.0000   1.0000   1.0000   1.0000
     1.0000   1.0000   1.0000   1.0000   1.0000   1.0000   1.0000   1.0000
     1.0000   1.0000   1.0000   1.0000   0.0795   0.0795  -0.0346  -0.0346
    -0.0001  -0.0001  -0.0000  -0.0000  -0.0000  -0.0000  -0.0000  -0.0000
    -0.0000  -0.0000  -0.0000  -0.0000  -0.0000  -0.0000  -0.0000  -0.0000
    -0.0000  -0.0000  -0.0000  -0.0000  -0.0000  -0.0000  -0.0000  -0.0000
    -0.0000  -0.0000  -0.0000  -0.0000  -0.0000  -0.0000  -0.0000  -0.0000

          k = 0.0000-0.2500 0.2500 ( 18095 PWs)   bands (ev):

   -22.7530 -22.7530 -22.7368 -22.7368 -22.6977 -22.6977 -22.6255 -22.6255
   -22.6092 -22.6092 -21.4433 -21.4433 -21.4399 -21.4399 -21.4279 -21.4279
   -17.2036 -17.2036 -17.2036 -17.2036 -14.2110 -14.2110 -14.2104 -14.2104
   -14.2104 -14.2104  -9.3784  -9.3784  -9.3565  -9.3565  -9.2809  -9.2809
    -7.4911  -7.4911  -7.3805  -7.3805  -7.3455  -7.3455  -7.2895  -7.2895
    -7.2673  -7.2673  -7.1935  -7.1935  -3.2222  -3.2222  -2.5019  -2.5019
     4.0457   4.0457   4.1460   4.1460   4.5342   4.5342   4.9763   4.9763
     5.2368   5.2368   5.6124   5.6124   6.7059   6.7059   6.7890   6.7890
     6.9556   6.9556   7.2131   7.2131   7.4539   7.4539   7.9445   7.9445
     8.6384   8.6384   8.7963   8.7963   8.8804   8.8804   9.0231   9.0231
     9.3501   9.3501   9.5940   9.5940   9.8047   9.8047   9.9132   9.9132
    10.1420  10.1420  10.7293  10.7293  10.8975  10.8976  11.8289  11.8289

     occupation numbers 
     1.0000   1.0000   1.0000   1.0000   1.0000   1.0000   1.0000   1.0000
     1.0000   1.0000   1.0000   1.0000   1.0000   1.0000   1.0000   1.0000
     1.0000   1.0000   1.0000   1.0000   1.0000   1.0000   1.0000   1.0000
     1.0000   1.0000   1.0000   1.0000   1.0000   1.0000   1.0000   1.0000
     1.0000   1.0000   1.0000   1.0000   1.0000   1.0000   1.0000   1.0000
     1.0000   1.0000   1.0000   1.0000   1.0000   1.0000   1.0000   1.0000
     1.0000   1.0000   1.0000   1.0000   1.0000   1.0000   1.0000   1.0000
     1.0000   1.0000   1.0000   1.0000  -0.0001  -0.0001  -0.0000  -0.0000
    -0.0000  -0.0000  -0.0000  -0.0000  -0.0000  -0.0000  -0.0000  -0.0000
    -0.0000  -0.0000  -0.0000  -0.0000  -0.0000  -0.0000  -0.0000  -0.0000
    -0.0000  -0.0000  -0.0000  -0.0000  -0.0000  -0.0000  -0.0000  -0.0000
    -0.0000  -0.0000  -0.0000  -0.0000  -0.0000  -0.0000  -0.0000  -0.0000

          k = 0.0000-0.2500-0.5000 ( 18136 PWs)   bands (ev):

   -22.7517 -22.7517 -22.7228 -22.7228 -22.6843 -22.6843 -22.6498 -22.6498
   -22.6116 -22.6116 -21.4465 -21.4465 -21.4405 -21.4405 -21.4280 -21.4280
   -17.2036 -17.2036 -17.2036 -17.2036 -14.2110 -14.2110 -14.2104 -14.2104
   -14.2103 -14.2103  -9.3786  -9.3786  -9.3413  -9.3413  -9.3029  -9.3029
    -7.5069  -7.5069  -7.3672  -7.3672  -7.3386  -7.3386  -7.3147  -7.3147
    -7.2580  -7.2580  -7.2074  -7.2074  -3.2111  -3.2111  -2.2696  -2.2696
     3.5043   3.5043   3.9338   3.9338   4.4259   4.4259   4.8382   4.8382
     5.1572   5.1572   5.5038   5.5038   6.9702   6.9702   7.1490   7.1490
     7.4287   7.4287   7.4906   7.4906   7.7803   7.7803   8.1103   8.1103
     8.2971   8.2971   8.6723   8.6723   8.8819   8.8819   9.1057   9.1057
     9.3461   9.3461   9.3834   9.3834   9.5655   9.5655   9.8018   9.8018
     9.9531   9.9531  10.1620  10.1620  11.2411  11.2411  11.5456  11.5457

     occupation numbers 
     1.0000   1.0000   1.0000   1.0000   1.0000   1.0000   1.0000   1.0000
     1.0000   1.0000   1.0000   1.0000   1.0000   1.0000   1.0000   1.0000
     1.0000   1.0000   1.0000   1.0000   1.0000   1.0000   1.0000   1.0000
     1.0000   1.0000   1.0000   1.0000   1.0000   1.0000   1.0000   1.0000
     1.0000   1.0000   1.0000   1.0000   1.0000   1.0000   1.0000   1.0000
     1.0000   1.0000   1.0000   1.0000   1.0000   1.0000   1.0000   1.0000
     1.0000   1.0000   1.0000   1.0000   1.0000   1.0000   1.0000   1.0000
     1.0000   1.0000   1.0000   1.0000  -0.0000  -0.0000  -0.0000  -0.0000
    -0.0000  -0.0000  -0.0000  -0.0000  -0.0000  -0.0000  -0.0000  -0.0000
    -0.0000  -0.0000  -0.0000  -0.0000  -0.0000  -0.0000  -0.0000  -0.0000
    -0.0000  -0.0000  -0.0000  -0.0000  -0.0000  -0.0000  -0.0000  -0.0000
    -0.0000  -0.0000  -0.0000  -0.0000  -0.0000  -0.0000  -0.0000  -0.0000

          k = 0.0000-0.2500-0.2500 ( 18095 PWs)   bands (ev):

   -22.7530 -22.7530 -22.7368 -22.7368 -22.6977 -22.6977 -22.6255 -22.6255
   -22.6092 -22.6092 -21.4433 -21.4433 -21.4399 -21.4399 -21.4279 -21.4279
   -17.2036 -17.2036 -17.2036 -17.2036 -14.2110 -14.2110 -14.2104 -14.2104
   -14.2104 -14.2104  -9.3784  -9.3784  -9.3565  -9.3565  -9.2809  -9.2809
    -7.4911  -7.4911  -7.3805  -7.3805  -7.3455  -7.3455  -7.2895  -7.2895
    -7.2673  -7.2673  -7.1935  -7.1935  -3.2222  -3.2222  -2.5019  -2.5019
     4.0457   4.0457   4.1460   4.1460   4.5342   4.5342   4.9763   4.9763
     5.2368   5.2368   5.6124   5.6124   6.7059   6.7059   6.7890   6.7890
     6.9556   6.9556   7.2131   7.2131   7.4539   7.4539   7.9445   7.9445
     8.6384   8.6384   8.7963   8.7963   8.8804   8.8804   9.0231   9.0231
     9.3501   9.3501   9.5940   9.5940   9.8047   9.8047   9.9132   9.9132
    10.1420  10.1420  10.7293  10.7293  10.8975  10.8975  11.8283  11.8285

     occupation numbers 
     1.0000   1.0000   1.0000   1.0000   1.0000   1.0000   1.0000   1.0000
     1.0000   1.0000   1.0000   1.0000   1.0000   1.0000   1.0000   1.0000
     1.0000   1.0000   1.0000   1.0000   1.0000   1.0000   1.0000   1.0000
     1.0000   1.0000   1.0000   1.0000   1.0000   1.0000   1.0000   1.0000
     1.0000   1.0000   1.0000   1.0000   1.0000   1.0000   1.0000   1.0000
     1.0000   1.0000   1.0000   1.0000   1.0000   1.0000   1.0000   1.0000
     1.0000   1.0000   1.0000   1.0000   1.0000   1.0000   1.0000   1.0000
     1.0000   1.0000   1.0000   1.0000  -0.0001  -0.0001  -0.0000  -0.0000
    -0.0000  -0.0000  -0.0000  -0.0000  -0.0000  -0.0000  -0.0000  -0.0000
    -0.0000  -0.0000  -0.0000  -0.0000  -0.0000  -0.0000  -0.0000  -0.0000
    -0.0000  -0.0000  -0.0000  -0.0000  -0.0000  -0.0000  -0.0000  -0.0000
    -0.0000  -0.0000  -0.0000  -0.0000  -0.0000  -0.0000  -0.0000  -0.0000

          k = 0.2500 0.0000 0.0000 ( 18145 PWs)   bands (ev):

   -22.7586 -22.7586 -22.7463 -22.7463 -22.7010 -22.7010 -22.6173 -22.6173
   -22.6014 -22.6014 -21.4417 -21.4417 -21.4383 -21.4383 -21.4279 -21.4279
   -17.2036 -17.2036 -17.2036 -17.2036 -14.2110 -14.2110 -14.2104 -14.2104
   -14.2104 -14.2104  -9.3783  -9.3783  -9.3651  -9.3651  -9.2653  -9.2653
    -7.4707  -7.4707  -7.3873  -7.3873  -7.3656  -7.3656  -7.2867  -7.2867
    -7.2349  -7.2349  -7.1957  -7.1957  -3.2342  -3.2342  -2.7108  -2.7108
     4.2456   4.2456   4.4259   4.4259   5.0302   5.0302   5.2040   5.2040
     5.3052   5.3052   5.8083   5.8083   6.3869   6.3869   6.4822   6.4822
     6.7130   6.7130   6.9647   6.9647   7.2939   7.2939   7.4119   7.4119
     8.4270   8.4270   8.9511   8.9511   9.0677   9.0677   9.1094   9.1094
     9.3517   9.3517   9.6164   9.6164   9.9803   9.9803  10.1511  10.1511
    10.5052  10.5052  10.8069  10.8069  11.1947  11.1948  11.3137  11.3138

     occupation numbers 
     1.0000   1.0000   1.0000   1.0000   1.0000   1.0000   1.0000   1.0000
     1.0000   1.0000   1.0000   1.0000   1.0000   1.0000   1.0000   1.0000
     1.0000   1.0000   1.0000   1.0000   1.0000   1.0000   1.0000   1.0000
     1.0000   1.0000   1.0000   1.0000   1.0000   1.0000   1.0000   1.0000
     1.0000   1.0000   1.0000   1.0000   1.0000   1.0000   1.0000   1.0000
     1.0000   1.0000   1.0000   1.0000   1.0000   1.0000   1.0000   1.0000
     1.0000   1.0000   1.0000   1.0000   1.0000   1.0000   1.0000   1.0000
     1.0000   1.0000   1.0000   1.0000   0.0795   0.0795  -0.0346  -0.0346
    -0.0001  -0.0001  -0.0000  -0.0000  -0.0000  -0.0000  -0.0000  -0.0000
    -0.0000  -0.0000  -0.0000  -0.0000  -0.0000  -0.0000  -0.0000  -0.0000
    -0.0000  -0.0000  -0.0000  -0.0000  -0.0000  -0.0000  -0.0000  -0.0000
    -0.0000  -0.0000  -0.0000  -0.0000  -0.0000  -0.0000  -0.0000  -0.0000

          k = 0.2500 0.0000 0.2500 ( 18095 PWs)   bands (ev):

   -22.7530 -22.7530 -22.7368 -22.7368 -22.6977 -22.6977 -22.6255 -22.6255
   -22.6092 -22.6092 -21.4433 -21.4433 -21.4399 -21.4399 -21.4279 -21.4279
   -17.2036 -17.2036 -17.2036 -17.2036 -14.2110 -14.2110 -14.2104 -14.2104
   -14.2104 -14.2104  -9.3784  -9.3784  -9.3565  -9.3565  -9.2809  -9.2809
    -7.4911  -7.4911  -7.3805  -7.3805  -7.3455  -7.3455  -7.2895  -7.2895
    -7.2673  -7.2673  -7.1935  -7.1935  -3.2222  -3.2222  -2.5019  -2.5019
     4.0457   4.0457   4.1460   4.1460   4.5342   4.5342   4.9763   4.9763
     5.2368   5.2368   5.6124   5.6124   6.7059   6.7059   6.7890   6.7890
     6.9556   6.9556   7.2131   7.2131   7.4539   7.4539   7.9445   7.9445
     8.6384   8.6384   8.7963   8.7963   8.8804   8.8804   9.0231   9.0231
     9.3501   9.3501   9.5940   9.5940   9.8047   9.8047   9.9132   9.9132
    10.1420  10.1420  10.7293  10.7293  10.8975  10.8975  11.8282  11.8283

     occupation numbers 
     1.0000   1.0000   1.0000   1.0000   1.0000   1.0000   1.0000   1.0000
     1.0000   1.0000   1.0000   1.0000   1.0000   1.0000   1.0000   1.0000
     1.0000   1.0000   1.0000   1.0000   1.0000   1.0000   1.0000   1.0000
     1.0000   1.0000   1.0000   1.0000   1.0000   1.0000   1.0000   1.0000
     1.0000   1.0000   1.0000   1.0000   1.0000   1.0000   1.0000   1.0000
     1.0000   1.0000   1.0000   1.0000   1.0000   1.0000   1.0000   1.0000
     1.0000   1.0000   1.0000   1.0000   1.0000   1.0000   1.0000   1.0000
     1.0000   1.0000   1.0000   1.0000  -0.0001  -0.0001  -0.0000  -0.0000
    -0.0000  -0.0000  -0.0000  -0.0000  -0.0000  -0.0000  -0.0000  -0.0000
    -0.0000  -0.0000  -0.0000  -0.0000  -0.0000  -0.0000  -0.0000  -0.0000
    -0.0000  -0.0000  -0.0000  -0.0000  -0.0000  -0.0000  -0.0000  -0.0000
    -0.0000  -0.0000  -0.0000  -0.0000  -0.0000  -0.0000  -0.0000  -0.0000

          k = 0.2500 0.0000-0.5000 ( 18136 PWs)   bands (ev):

   -22.7517 -22.7517 -22.7228 -22.7228 -22.6843 -22.6843 -22.6498 -22.6498
   -22.6116 -22.6116 -21.4465 -21.4465 -21.4405 -21.4405 -21.4280 -21.4280
   -17.2036 -17.2036 -17.2036 -17.2036 -14.2110 -14.2110 -14.2104 -14.2104
   -14.2103 -14.2103  -9.3786  -9.3786  -9.3413  -9.3413  -9.3029  -9.3029
    -7.5069  -7.5069  -7.3672  -7.3672  -7.3386  -7.3386  -7.3147  -7.3147
    -7.2580  -7.2580  -7.2074  -7.2074  -3.2111  -3.2111  -2.2696  -2.2696
     3.5043   3.5043   3.9338   3.9338   4.4259   4.4259   4.8382   4.8382
     5.1572   5.1572   5.5038   5.5038   6.9702   6.9702   7.1490   7.1490
     7.4287   7.4287   7.4906   7.4906   7.7803   7.7803   8.1103   8.1103
     8.2971   8.2971   8.6723   8.6723   8.8819   8.8819   9.1057   9.1057
     9.3461   9.3461   9.3834   9.3834   9.5655   9.5655   9.8018   9.8018
     9.9531   9.9531  10.1620  10.1620  11.2411  11.2411  11.5456  11.5456

     occupation numbers 
     1.0000   1.0000   1.0000   1.0000   1.0000   1.0000   1.0000   1.0000
     1.0000   1.0000   1.0000   1.0000   1.0000   1.0000   1.0000   1.0000
     1.0000   1.0000   1.0000   1.0000   1.0000   1.0000   1.0000   1.0000
     1.0000   1.0000   1.0000   1.0000   1.0000   1.0000   1.0000   1.0000
     1.0000   1.0000   1.0000   1.0000   1.0000   1.0000   1.0000   1.0000
     1.0000   1.0000   1.0000   1.0000   1.0000   1.0000   1.0000   1.0000
     1.0000   1.0000   1.0000   1.0000   1.0000   1.0000   1.0000   1.0000
     1.0000   1.0000   1.0000   1.0000  -0.0000  -0.0000  -0.0000  -0.0000
    -0.0000  -0.0000  -0.0000  -0.0000  -0.0000  -0.0000  -0.0000  -0.0000
    -0.0000  -0.0000  -0.0000  -0.0000  -0.0000  -0.0000  -0.0000  -0.0000
    -0.0000  -0.0000  -0.0000  -0.0000  -0.0000  -0.0000  -0.0000  -0.0000
    -0.0000  -0.0000  -0.0000  -0.0000  -0.0000  -0.0000  -0.0000  -0.0000

          k = 0.2500 0.0000-0.2500 ( 18095 PWs)   bands (ev):

   -22.7530 -22.7530 -22.7368 -22.7368 -22.6977 -22.6977 -22.6255 -22.6255
   -22.6092 -22.6092 -21.4433 -21.4433 -21.4399 -21.4399 -21.4279 -21.4279
   -17.2036 -17.2036 -17.2036 -17.2036 -14.2110 -14.2110 -14.2104 -14.2104
   -14.2104 -14.2104  -9.3784  -9.3784  -9.3565  -9.3565  -9.2809  -9.2809
    -7.4911  -7.4911  -7.3805  -7.3805  -7.3455  -7.3455  -7.2895  -7.2895
    -7.2673  -7.2673  -7.1935  -7.1935  -3.2222  -3.2222  -2.5019  -2.5019
     4.0457   4.0457   4.1460   4.1460   4.5342   4.5342   4.9763   4.9763
     5.2368   5.2368   5.6124   5.6124   6.7059   6.7059   6.7890   6.7890
     6.9556   6.9556   7.2131   7.2131   7.4539   7.4539   7.9445   7.9445
     8.6384   8.6384   8.7963   8.7963   8.8804   8.8804   9.0231   9.0231
     9.3501   9.3501   9.5940   9.5940   9.8047   9.8047   9.9132   9.9132
    10.1420  10.1420  10.7293  10.7293  10.8975  10.8976  11.8284  11.8286

     occupation numbers 
     1.0000   1.0000   1.0000   1.0000   1.0000   1.0000   1.0000   1.0000
     1.0000   1.0000   1.0000   1.0000   1.0000   1.0000   1.0000   1.0000
     1.0000   1.0000   1.0000   1.0000   1.0000   1.0000   1.0000   1.0000
     1.0000   1.0000   1.0000   1.0000   1.0000   1.0000   1.0000   1.0000
     1.0000   1.0000   1.0000   1.0000   1.0000   1.0000   1.0000   1.0000
     1.0000   1.0000   1.0000   1.0000   1.0000   1.0000   1.0000   1.0000
     1.0000   1.0000   1.0000   1.0000   1.0000   1.0000   1.0000   1.0000
     1.0000   1.0000   1.0000   1.0000  -0.0001  -0.0001  -0.0000  -0.0000
    -0.0000  -0.0000  -0.0000  -0.0000  -0.0000  -0.0000  -0.0000  -0.0000
    -0.0000  -0.0000  -0.0000  -0.0000  -0.0000  -0.0000  -0.0000  -0.0000
    -0.0000  -0.0000  -0.0000  -0.0000  -0.0000  -0.0000  -0.0000  -0.0000
    -0.0000  -0.0000  -0.0000  -0.0000  -0.0000  -0.0000  -0.0000  -0.0000

          k = 0.2500 0.2500 0.0000 ( 18095 PWs)   bands (ev):

   -22.7530 -22.7530 -22.7368 -22.7368 -22.6977 -22.6977 -22.6255 -22.6255
   -22.6092 -22.6092 -21.4433 -21.4433 -21.4399 -21.4399 -21.4279 -21.4279
   -17.2036 -17.2036 -17.2036 -17.2036 -14.2110 -14.2110 -14.2104 -14.2104
   -14.2104 -14.2104  -9.3784  -9.3784  -9.3565  -9.3565  -9.2809  -9.2809
    -7.4911  -7.4911  -7.3805  -7.3805  -7.3455  -7.3455  -7.2895  -7.2895
    -7.2673  -7.2673  -7.1935  -7.1935  -3.2222  -3.2222  -2.5019  -2.5019
     4.0457   4.0457   4.1460   4.1460   4.5342   4.5342   4.9763   4.9763
     5.2368   5.2368   5.6124   5.6124   6.7059   6.7059   6.7890   6.7890
     6.9556   6.9556   7.2131   7.2131   7.4539   7.4539   7.9445   7.9445
     8.6384   8.6384   8.7963   8.7963   8.8804   8.8804   9.0231   9.0231
     9.3501   9.3501   9.5940   9.5940   9.8047   9.8047   9.9132   9.9132
    10.1420  10.1420  10.7293  10.7293  10.8975  10.8975  11.8287  11.8288

     occupation numbers 
     1.0000   1.0000   1.0000   1.0000   1.0000   1.0000   1.0000   1.0000
     1.0000   1.0000   1.0000   1.0000   1.0000   1.0000   1.0000   1.0000
     1.0000   1.0000   1.0000   1.0000   1.0000   1.0000   1.0000   1.0000
     1.0000   1.0000   1.0000   1.0000   1.0000   1.0000   1.0000   1.0000
     1.0000   1.0000   1.0000   1.0000   1.0000   1.0000   1.0000   1.0000
     1.0000   1.0000   1.0000   1.0000   1.0000   1.0000   1.0000   1.0000
     1.0000   1.0000   1.0000   1.0000   1.0000   1.0000   1.0000   1.0000
     1.0000   1.0000   1.0000   1.0000  -0.0001  -0.0001  -0.0000  -0.0000
    -0.0000  -0.0000  -0.0000  -0.0000  -0.0000  -0.0000  -0.0000  -0.0000
    -0.0000  -0.0000  -0.0000  -0.0000  -0.0000  -0.0000  -0.0000  -0.0000
    -0.0000  -0.0000  -0.0000  -0.0000  -0.0000  -0.0000  -0.0000  -0.0000
    -0.0000  -0.0000  -0.0000  -0.0000  -0.0000  -0.0000  -0.0000  -0.0000

          k = 0.2500 0.2500 0.2500 ( 18079 PWs)   bands (ev):

   -22.7368 -22.7368 -22.7367 -22.7367 -22.6955 -22.6955 -22.6255 -22.6255
   -22.6254 -22.6254 -21.4434 -21.4434 -21.4432 -21.4432 -21.4278 -21.4278
   -17.2036 -17.2036 -17.2036 -17.2036 -14.2110 -14.2110 -14.2104 -14.2104
   -14.2104 -14.2104  -9.3870  -9.3870  -9.3462  -9.3462  -9.2926  -9.2926
    -7.5377  -7.5377  -7.3735  -7.3735  -7.3280  -7.3280  -7.2897  -7.2897
    -7.2652  -7.2652  -7.1857  -7.1857  -3.2168  -3.2168  -2.2968  -2.2968
     3.9044   3.9044   4.0211   4.0211   4.1941   4.1941   4.5307   4.5307
     5.2630   5.2630   5.5427   5.5427   6.8699   6.8699   7.0496   7.0496
     7.0680   7.0680   7.5330   7.5330   7.8058   7.8058   7.9001   7.9001
     8.4564   8.4564   8.5629   8.5629   8.7799   8.7799   9.1307   9.1307
     9.3955   9.3955   9.4444   9.4444   9.6038   9.6038  10.5373  10.5373
    10.7703  10.7703  10.8061  10.8061  11.0077  11.0077  11.0375  11.0375

     occupation numbers 
     1.0000   1.0000   1.0000   1.0000   1.0000   1.0000   1.0000   1.0000
     1.0000   1.0000   1.0000   1.0000   1.0000   1.0000   1.0000   1.0000
     1.0000   1.0000   1.0000   1.0000   1.0000   1.0000   1.0000   1.0000
     1.0000   1.0000   1.0000   1.0000   1.0000   1.0000   1.0000   1.0000
     1.0000   1.0000   1.0000   1.0000   1.0000   1.0000   1.0000   1.0000
     1.0000   1.0000   1.0000   1.0000   1.0000   1.0000   1.0000   1.0000
     1.0000   1.0000   1.0000   1.0000   1.0000   1.0000   1.0000   1.0000
     1.0000   1.0000   1.0000   1.0000  -0.0000  -0.0000  -0.0000  -0.0000
    -0.0000  -0.0000  -0.0000  -0.0000  -0.0000  -0.0000  -0.0000  -0.0000
    -0.0000  -0.0000  -0.0000  -0.0000  -0.0000  -0.0000  -0.0000  -0.0000
    -0.0000  -0.0000  -0.0000  -0.0000  -0.0000  -0.0000  -0.0000  -0.0000
    -0.0000  -0.0000  -0.0000  -0.0000  -0.0000  -0.0000  -0.0000  -0.0000

          k = 0.2500 0.2500-0.5000 ( 18128 PWs)   bands (ev):

   -22.7368 -22.7368 -22.7183 -22.7183 -22.6843 -22.6843 -22.6532 -22.6532
   -22.6255 -22.6255 -21.4469 -21.4469 -21.4434 -21.4434 -21.4280 -21.4280
   -17.2036 -17.2036 -17.2036 -17.2036 -14.2110 -14.2110 -14.2104 -14.2104
   -14.2103 -14.2103  -9.3936  -9.3936  -9.3338  -9.3338  -9.3085  -9.3085
    -7.5703  -7.5703  -7.3829  -7.3829  -7.3148  -7.3148  -7.2958  -7.2958
    -7.2346  -7.2346  -7.1937  -7.1937  -3.2118  -3.2118  -2.0666  -2.0666
     3.3945   3.3945   3.8886   3.8886   4.0683   4.0683   4.4120   4.4120
     5.2424   5.2424   5.4812   5.4812   7.1903   7.1903   7.2264   7.2264
     7.5382   7.5382   7.6052   7.6052   7.8740   7.8740   7.9154   7.9154
     8.3670   8.3670   8.5154   8.5154   8.7235   8.7235   9.1870   9.1870
     9.2696   9.2696   9.4786   9.4786   9.5495   9.5495   9.9066   9.9066
    10.8124  10.8124  10.8828  10.8828  11.2057  11.2058  11.4774  11.5665

     occupation numbers 
     1.0000   1.0000   1.0000   1.0000   1.0000   1.0000   1.0000   1.0000
     1.0000   1.0000   1.0000   1.0000   1.0000   1.0000   1.0000   1.0000
     1.0000   1.0000   1.0000   1.0000   1.0000   1.0000   1.0000   1.0000
     1.0000   1.0000   1.0000   1.0000   1.0000   1.0000   1.0000   1.0000
     1.0000   1.0000   1.0000   1.0000   1.0000   1.0000   1.0000   1.0000
     1.0000   1.0000   1.0000   1.0000   1.0000   1.0000   1.0000   1.0000
     1.0000   1.0000   1.0000   1.0000   1.0000   1.0000   1.0000   1.0000
     1.0000   1.0000   1.0000   1.0000  -0.0000  -0.0000  -0.0000  -0.0000
    -0.0000  -0.0000  -0.0000  -0.0000  -0.0000  -0.0000  -0.0000  -0.0000
    -0.0000  -0.0000  -0.0000  -0.0000  -0.0000  -0.0000  -0.0000  -0.0000
    -0.0000  -0.0000  -0.0000  -0.0000  -0.0000  -0.0000  -0.0000  -0.0000
    -0.0000  -0.0000  -0.0000  -0.0000  -0.0000  -0.0000  -0.0000  -0.0000

          k = 0.2500 0.2500-0.2500 ( 18079 PWs)   bands (ev):

   -22.7368 -22.7368 -22.7367 -22.7367 -22.6955 -22.6955 -22.6255 -22.6255
   -22.6254 -22.6254 -21.4434 -21.4434 -21.4432 -21.4432 -21.4278 -21.4278
   -17.2036 -17.2036 -17.2036 -17.2036 -14.2110 -14.2110 -14.2104 -14.2104
   -14.2104 -14.2104  -9.3870  -9.3870  -9.3462  -9.3462  -9.2926  -9.2926
    -7.5377  -7.5377  -7.3735  -7.3735  -7.3280  -7.3280  -7.2897  -7.2897
    -7.2652  -7.2652  -7.1857  -7.1857  -3.2168  -3.2168  -2.2968  -2.2968
     3.9044   3.9044   4.0211   4.0211   4.1941   4.1941   4.5307   4.5307
     5.2630   5.2630   5.5427   5.5427   6.8699   6.8699   7.0496   7.0496
     7.0680   7.0680   7.5330   7.5330   7.8058   7.8058   7.9001   7.9001
     8.4564   8.4564   8.5629   8.5629   8.7799   8.7799   9.1307   9.1307
     9.3955   9.3955   9.4444   9.4444   9.6038   9.6038  10.5373  10.5373
    10.7703  10.7703  10.8061  10.8061  11.0077  11.0077  11.0375  11.0375

     occupation numbers 
     1.0000   1.0000   1.0000   1.0000   1.0000   1.0000   1.0000   1.0000
     1.0000   1.0000   1.0000   1.0000   1.0000   1.0000   1.0000   1.0000
     1.0000   1.0000   1.0000   1.0000   1.0000   1.0000   1.0000   1.0000
     1.0000   1.0000   1.0000   1.0000   1.0000   1.0000   1.0000   1.0000
     1.0000   1.0000   1.0000   1.0000   1.0000   1.0000   1.0000   1.0000
     1.0000   1.0000   1.0000   1.0000   1.0000   1.0000   1.0000   1.0000
     1.0000   1.0000   1.0000   1.0000   1.0000   1.0000   1.0000   1.0000
     1.0000   1.0000   1.0000   1.0000  -0.0000  -0.0000  -0.0000  -0.0000
    -0.0000  -0.0000  -0.0000  -0.0000  -0.0000  -0.0000  -0.0000  -0.0000
    -0.0000  -0.0000  -0.0000  -0.0000  -0.0000  -0.0000  -0.0000  -0.0000
    -0.0000  -0.0000  -0.0000  -0.0000  -0.0000  -0.0000  -0.0000  -0.0000
    -0.0000  -0.0000  -0.0000  -0.0000  -0.0000  -0.0000  -0.0000  -0.0000

          k = 0.2500-0.5000 0.0000 ( 18136 PWs)   bands (ev):

   -22.7517 -22.7517 -22.7228 -22.7228 -22.6843 -22.6843 -22.6498 -22.6498
   -22.6116 -22.6116 -21.4465 -21.4465 -21.4405 -21.4405 -21.4280 -21.4280
   -17.2036 -17.2036 -17.2036 -17.2036 -14.2110 -14.2110 -14.2104 -14.2104
   -14.2103 -14.2103  -9.3786  -9.3786  -9.3413  -9.3413  -9.3029  -9.3029
    -7.5069  -7.5069  -7.3672  -7.3672  -7.3386  -7.3386  -7.3147  -7.3147
    -7.2580  -7.2580  -7.2074  -7.2074  -3.2111  -3.2111  -2.2696  -2.2696
     3.5043   3.5043   3.9338   3.9338   4.4259   4.4259   4.8382   4.8382
     5.1572   5.1572   5.5038   5.5038   6.9702   6.9702   7.1490   7.1490
     7.4287   7.4287   7.4906   7.4906   7.7803   7.7803   8.1103   8.1103
     8.2971   8.2971   8.6723   8.6723   8.8819   8.8819   9.1057   9.1057
     9.3461   9.3461   9.3834   9.3834   9.5655   9.5655   9.8018   9.8018
     9.9531   9.9531  10.1620  10.1620  11.2411  11.2411  11.5456  11.5456

     occupation numbers 
     1.0000   1.0000   1.0000   1.0000   1.0000   1.0000   1.0000   1.0000
     1.0000   1.0000   1.0000   1.0000   1.0000   1.0000   1.0000   1.0000
     1.0000   1.0000   1.0000   1.0000   1.0000   1.0000   1.0000   1.0000
     1.0000   1.0000   1.0000   1.0000   1.0000   1.0000   1.0000   1.0000
     1.0000   1.0000   1.0000   1.0000   1.0000   1.0000   1.0000   1.0000
     1.0000   1.0000   1.0000   1.0000   1.0000   1.0000   1.0000   1.0000
     1.0000   1.0000   1.0000   1.0000   1.0000   1.0000   1.0000   1.0000
     1.0000   1.0000   1.0000   1.0000  -0.0000  -0.0000  -0.0000  -0.0000
    -0.0000  -0.0000  -0.0000  -0.0000  -0.0000  -0.0000  -0.0000  -0.0000
    -0.0000  -0.0000  -0.0000  -0.0000  -0.0000  -0.0000  -0.0000  -0.0000
    -0.0000  -0.0000  -0.0000  -0.0000  -0.0000  -0.0000  -0.0000  -0.0000
    -0.0000  -0.0000  -0.0000  -0.0000  -0.0000  -0.0000  -0.0000  -0.0000

          k = 0.2500-0.5000 0.2500 ( 18128 PWs)   bands (ev):

   -22.7368 -22.7368 -22.7183 -22.7183 -22.6843 -22.6843 -22.6532 -22.6532
   -22.6255 -22.6255 -21.4469 -21.4469 -21.4434 -21.4434 -21.4280 -21.4280
   -17.2036 -17.2036 -17.2036 -17.2036 -14.2110 -14.2110 -14.2104 -14.2104
   -14.2103 -14.2103  -9.3936  -9.3936  -9.3338  -9.3338  -9.3085  -9.3085
    -7.5703  -7.5703  -7.3829  -7.3829  -7.3148  -7.3148  -7.2958  -7.2958
    -7.2346  -7.2346  -7.1937  -7.1937  -3.2118  -3.2118  -2.0666  -2.0666
     3.3945   3.3945   3.8886   3.8886   4.0683   4.0683   4.4120   4.4120
     5.2424   5.2424   5.4812   5.4812   7.1903   7.1903   7.2264   7.2264
     7.5382   7.5382   7.6052   7.6052   7.8740   7.8740   7.9154   7.9154
     8.3670   8.3670   8.5154   8.5154   8.7235   8.7235   9.1870   9.1870
     9.2696   9.2696   9.4786   9.4786   9.5495   9.5495   9.9066   9.9066
    10.8124  10.8124  10.8828  10.8828  11.2057  11.2057  11.4773  11.5661

     occupation numbers 
     1.0000   1.0000   1.0000   1.0000   1.0000   1.0000   1.0000   1.0000
     1.0000   1.0000   1.0000   1.0000   1.0000   1.0000   1.0000   1.0000
     1.0000   1.0000   1.0000   1.0000   1.0000   1.0000   1.0000   1.0000
     1.0000   1.0000   1.0000   1.0000   1.0000   1.0000   1.0000   1.0000
     1.0000   1.0000   1.0000   1.0000   1.0000   1.0000   1.0000   1.0000
     1.0000   1.0000   1.0000   1.0000   1.0000   1.0000   1.0000   1.0000
     1.0000   1.0000   1.0000   1.0000   1.0000   1.0000   1.0000   1.0000
     1.0000   1.0000   1.0000   1.0000  -0.0000  -0.0000  -0.0000  -0.0000
    -0.0000  -0.0000  -0.0000  -0.0000  -0.0000  -0.0000  -0.0000  -0.0000
    -0.0000  -0.0000  -0.0000  -0.0000  -0.0000  -0.0000  -0.0000  -0.0000
    -0.0000  -0.0000  -0.0000  -0.0000  -0.0000  -0.0000  -0.0000  -0.0000
    -0.0000  -0.0000  -0.0000  -0.0000  -0.0000  -0.0000  -0.0000  -0.0000

          k = 0.2500-0.5000-0.5000 ( 18112 PWs)   bands (ev):

   -22.7290 -22.7290 -22.6843 -22.6843 -22.6842 -22.6842 -22.6805 -22.6805
   -22.6379 -22.6379 -21.4486 -21.4486 -21.4451 -21.4451 -21.4280 -21.4280
   -17.2036 -17.2036 -17.2036 -17.2036 -14.2110 -14.2110 -14.2103 -14.2103
   -14.2103 -14.2103  -9.4067  -9.4067  -9.3242  -9.3242  -9.3180  -9.3180
    -7.6123  -7.6123  -7.4019  -7.4019  -7.2960  -7.2960  -7.2930  -7.2930
    -7.2072  -7.2072  -7.1809  -7.1809  -3.2125  -3.2125  -1.8363  -1.8363
     3.2094   3.2094   3.4457   3.4457   3.9725   3.9725   4.3343   4.3343
     5.3326   5.3326   5.4594   5.4594   7.3365   7.3365   7.4486   7.4486
     7.5096   7.5096   7.5762   7.5762   7.7677   7.7677   7.8423   7.8423
     8.1310   8.1310   8.8744   8.8744   8.9278   8.9278   9.3128   9.3128
     9.4397   9.4397   9.4853   9.4853   9.8040   9.8040   9.8929   9.8929
    10.6383  10.6383  10.7128  10.7128  11.5300  11.5301  11.6620  11.6621

     occupation numbers 
     1.0000   1.0000   1.0000   1.0000   1.0000   1.0000   1.0000   1.0000
     1.0000   1.0000   1.0000   1.0000   1.0000   1.0000   1.0000   1.0000
     1.0000   1.0000   1.0000   1.0000   1.0000   1.0000   1.0000   1.0000
     1.0000   1.0000   1.0000   1.0000   1.0000   1.0000   1.0000   1.0000
     1.0000   1.0000   1.0000   1.0000   1.0000   1.0000   1.0000   1.0000
     1.0000   1.0000   1.0000   1.0000   1.0000   1.0000   1.0000   1.0000
     1.0000   1.0000   1.0000   1.0000   1.0000   1.0000   1.0000   1.0000
     1.0000   1.0000   1.0000   1.0000  -0.0000  -0.0000  -0.0000  -0.0000
    -0.0000  -0.0000  -0.0000  -0.0000  -0.0000  -0.0000  -0.0000  -0.0000
    -0.0000  -0.0000  -0.0000  -0.0000  -0.0000  -0.0000  -0.0000  -0.0000
    -0.0000  -0.0000  -0.0000  -0.0000  -0.0000  -0.0000  -0.0000  -0.0000
    -0.0000  -0.0000  -0.0000  -0.0000  -0.0000  -0.0000  -0.0000  -0.0000

          k = 0.2500-0.5000-0.2500 ( 18128 PWs)   bands (ev):

   -22.7368 -22.7368 -22.7183 -22.7183 -22.6843 -22.6843 -22.6532 -22.6532
   -22.6255 -22.6255 -21.4469 -21.4469 -21.4434 -21.4434 -21.4280 -21.4280
   -17.2036 -17.2036 -17.2036 -17.2036 -14.2110 -14.2110 -14.2104 -14.2104
   -14.2103 -14.2103  -9.3936  -9.3936  -9.3338  -9.3338  -9.3085  -9.3085
    -7.5703  -7.5703  -7.3829  -7.3829  -7.3148  -7.3148  -7.2958  -7.2958
    -7.2346  -7.2346  -7.1937  -7.1937  -3.2118  -3.2118  -2.0666  -2.0666
     3.3945   3.3945   3.8886   3.8886   4.0683   4.0683   4.4120   4.4120
     5.2424   5.2424   5.4812   5.4812   7.1903   7.1903   7.2264   7.2264
     7.5382   7.5382   7.6052   7.6052   7.8740   7.8740   7.9154   7.9154
     8.3670   8.3670   8.5154   8.5154   8.7235   8.7235   9.1870   9.1870
     9.2696   9.2696   9.4786   9.4786   9.5495   9.5495   9.9066   9.9066
    10.8124  10.8124  10.8828  10.8828  11.2057  11.2058  11.5657  11.5667

     occupation numbers 
     1.0000   1.0000   1.0000   1.0000   1.0000   1.0000   1.0000   1.0000
     1.0000   1.0000   1.0000   1.0000   1.0000   1.0000   1.0000   1.0000
     1.0000   1.0000   1.0000   1.0000   1.0000   1.0000   1.0000   1.0000
     1.0000   1.0000   1.0000   1.0000   1.0000   1.0000   1.0000   1.0000
     1.0000   1.0000   1.0000   1.0000   1.0000   1.0000   1.0000   1.0000
     1.0000   1.0000   1.0000   1.0000   1.0000   1.0000   1.0000   1.0000
     1.0000   1.0000   1.0000   1.0000   1.0000   1.0000   1.0000   1.0000
     1.0000   1.0000   1.0000   1.0000  -0.0000  -0.0000  -0.0000  -0.0000
    -0.0000  -0.0000  -0.0000  -0.0000  -0.0000  -0.0000  -0.0000  -0.0000
    -0.0000  -0.0000  -0.0000  -0.0000  -0.0000  -0.0000  -0.0000  -0.0000
    -0.0000  -0.0000  -0.0000  -0.0000  -0.0000  -0.0000  -0.0000  -0.0000
    -0.0000  -0.0000  -0.0000  -0.0000  -0.0000  -0.0000  -0.0000  -0.0000

          k = 0.2500-0.2500 0.0000 ( 18095 PWs)   bands (ev):

   -22.7530 -22.7530 -22.7368 -22.7368 -22.6977 -22.6977 -22.6255 -22.6255
   -22.6092 -22.6092 -21.4433 -21.4433 -21.4399 -21.4399 -21.4279 -21.4279
   -17.2036 -17.2036 -17.2036 -17.2036 -14.2110 -14.2110 -14.2104 -14.2104
   -14.2104 -14.2104  -9.3784  -9.3784  -9.3565  -9.3565  -9.2809  -9.2809
    -7.4911  -7.4911  -7.3805  -7.3805  -7.3455  -7.3455  -7.2895  -7.2895
    -7.2673  -7.2673  -7.1935  -7.1935  -3.2222  -3.2222  -2.5019  -2.5019
     4.0457   4.0457   4.1460   4.1460   4.5342   4.5342   4.9763   4.9763
     5.2368   5.2368   5.6124   5.6124   6.7059   6.7059   6.7890   6.7890
     6.9556   6.9556   7.2131   7.2131   7.4539   7.4539   7.9445   7.9445
     8.6384   8.6384   8.7963   8.7963   8.8804   8.8804   9.0231   9.0231
     9.3501   9.3501   9.5940   9.5940   9.8047   9.8047   9.9132   9.9132
    10.1420  10.1420  10.7293  10.7293  10.8975  10.8975  11.8286  11.8289

     occupation numbers 
     1.0000   1.0000   1.0000   1.0000   1.0000   1.0000   1.0000   1.0000
     1.0000   1.0000   1.0000   1.0000   1.0000   1.0000   1.0000   1.0000
     1.0000   1.0000   1.0000   1.0000   1.0000   1.0000   1.0000   1.0000
     1.0000   1.0000   1.0000   1.0000   1.0000   1.0000   1.0000   1.0000
     1.0000   1.0000   1.0000   1.0000   1.0000   1.0000   1.0000   1.0000
     1.0000   1.0000   1.0000   1.0000   1.0000   1.0000   1.0000   1.0000
     1.0000   1.0000   1.0000   1.0000   1.0000   1.0000   1.0000   1.0000
     1.0000   1.0000   1.0000   1.0000  -0.0001  -0.0001  -0.0000  -0.0000
    -0.0000  -0.0000  -0.0000  -0.0000  -0.0000  -0.0000  -0.0000  -0.0000
    -0.0000  -0.0000  -0.0000  -0.0000  -0.0000  -0.0000  -0.0000  -0.0000
    -0.0000  -0.0000  -0.0000  -0.0000  -0.0000  -0.0000  -0.0000  -0.0000
    -0.0000  -0.0000  -0.0000  -0.0000  -0.0000  -0.0000  -0.0000  -0.0000

          k = 0.2500-0.2500 0.2500 ( 18079 PWs)   bands (ev):

   -22.7368 -22.7368 -22.7367 -22.7367 -22.6955 -22.6955 -22.6255 -22.6255
   -22.6254 -22.6254 -21.4434 -21.4434 -21.4432 -21.4432 -21.4278 -21.4278
   -17.2036 -17.2036 -17.2036 -17.2036 -14.2110 -14.2110 -14.2104 -14.2104
   -14.2104 -14.2104  -9.3870  -9.3870  -9.3462  -9.3462  -9.2926  -9.2926
    -7.5377  -7.5377  -7.3735  -7.3735  -7.3280  -7.3280  -7.2897  -7.2897
    -7.2652  -7.2652  -7.1857  -7.1857  -3.2168  -3.2168  -2.2968  -2.2968
     3.9044   3.9044   4.0211   4.0211   4.1941   4.1941   4.5307   4.5307
     5.2630   5.2630   5.5427   5.5427   6.8699   6.8699   7.0496   7.0496
     7.0680   7.0680   7.5330   7.5330   7.8058   7.8058   7.9001   7.9001
     8.4564   8.4564   8.5629   8.5629   8.7799   8.7799   9.1307   9.1307
     9.3955   9.3955   9.4444   9.4444   9.6038   9.6038  10.5373  10.5373
    10.7703  10.7703  10.8061  10.8061  11.0077  11.0077  11.0375  11.0375

     occupation numbers 
     1.0000   1.0000   1.0000   1.0000   1.0000   1.0000   1.0000   1.0000
     1.0000   1.0000   1.0000   1.0000   1.0000   1.0000   1.0000   1.0000
     1.0000   1.0000   1.0000   1.0000   1.0000   1.0000   1.0000   1.0000
     1.0000   1.0000   1.0000   1.0000   1.0000   1.0000   1.0000   1.0000
     1.0000   1.0000   1.0000   1.0000   1.0000   1.0000   1.0000   1.0000
     1.0000   1.0000   1.0000   1.0000   1.0000   1.0000   1.0000   1.0000
     1.0000   1.0000   1.0000   1.0000   1.0000   1.0000   1.0000   1.0000
     1.0000   1.0000   1.0000   1.0000  -0.0000  -0.0000  -0.0000  -0.0000
    -0.0000  -0.0000  -0.0000  -0.0000  -0.0000  -0.0000  -0.0000  -0.0000
    -0.0000  -0.0000  -0.0000  -0.0000  -0.0000  -0.0000  -0.0000  -0.0000
    -0.0000  -0.0000  -0.0000  -0.0000  -0.0000  -0.0000  -0.0000  -0.0000
    -0.0000  -0.0000  -0.0000  -0.0000  -0.0000  -0.0000  -0.0000  -0.0000

          k = 0.2500-0.2500-0.5000 ( 18128 PWs)   bands (ev):

   -22.7368 -22.7368 -22.7183 -22.7183 -22.6843 -22.6843 -22.6532 -22.6532
   -22.6255 -22.6255 -21.4469 -21.4469 -21.4434 -21.4434 -21.4280 -21.4280
   -17.2036 -17.2036 -17.2036 -17.2036 -14.2110 -14.2110 -14.2104 -14.2104
   -14.2103 -14.2103  -9.3936  -9.3936  -9.3338  -9.3338  -9.3085  -9.3085
    -7.5703  -7.5703  -7.3829  -7.3829  -7.3148  -7.3148  -7.2958  -7.2958
    -7.2346  -7.2346  -7.1937  -7.1937  -3.2118  -3.2118  -2.0666  -2.0666
     3.3945   3.3945   3.8886   3.8886   4.0683   4.0683   4.4120   4.4120
     5.2424   5.2424   5.4812   5.4812   7.1903   7.1903   7.2264   7.2264
     7.5382   7.5382   7.6052   7.6052   7.8740   7.8740   7.9154   7.9154
     8.3670   8.3670   8.5154   8.5154   8.7235   8.7235   9.1870   9.1870
     9.2696   9.2696   9.4786   9.4786   9.5495   9.5495   9.9066   9.9066
    10.8124  10.8125  10.8828  10.8828  11.2057  11.2060  11.5656  11.5662

     occupation numbers 
     1.0000   1.0000   1.0000   1.0000   1.0000   1.0000   1.0000   1.0000
     1.0000   1.0000   1.0000   1.0000   1.0000   1.0000   1.0000   1.0000
     1.0000   1.0000   1.0000   1.0000   1.0000   1.0000   1.0000   1.0000
     1.0000   1.0000   1.0000   1.0000   1.0000   1.0000   1.0000   1.0000
     1.0000   1.0000   1.0000   1.0000   1.0000   1.0000   1.0000   1.0000
     1.0000   1.0000   1.0000   1.0000   1.0000   1.0000   1.0000   1.0000
     1.0000   1.0000   1.0000   1.0000   1.0000   1.0000   1.0000   1.0000
     1.0000   1.0000   1.0000   1.0000  -0.0000  -0.0000  -0.0000  -0.0000
    -0.0000  -0.0000  -0.0000  -0.0000  -0.0000  -0.0000  -0.0000  -0.0000
    -0.0000  -0.0000  -0.0000  -0.0000  -0.0000  -0.0000  -0.0000  -0.0000
    -0.0000  -0.0000  -0.0000  -0.0000  -0.0000  -0.0000  -0.0000  -0.0000
    -0.0000  -0.0000  -0.0000  -0.0000  -0.0000  -0.0000  -0.0000  -0.0000

          k = 0.2500-0.2500-0.2500 ( 18079 PWs)   bands (ev):

   -22.7368 -22.7368 -22.7367 -22.7367 -22.6955 -22.6955 -22.6255 -22.6255
   -22.6254 -22.6254 -21.4434 -21.4434 -21.4432 -21.4432 -21.4278 -21.4278
   -17.2036 -17.2036 -17.2036 -17.2036 -14.2110 -14.2110 -14.2104 -14.2104
   -14.2104 -14.2104  -9.3870  -9.3870  -9.3462  -9.3462  -9.2926  -9.2926
    -7.5377  -7.5377  -7.3735  -7.3735  -7.3280  -7.3280  -7.2897  -7.2897
    -7.2652  -7.2652  -7.1857  -7.1857  -3.2168  -3.2168  -2.2968  -2.2968
     3.9044   3.9044   4.0211   4.0211   4.1941   4.1941   4.5307   4.5307
     5.2630   5.2630   5.5427   5.5427   6.8699   6.8699   7.0496   7.0496
     7.0680   7.0680   7.5330   7.5330   7.8058   7.8058   7.9001   7.9001
     8.4564   8.4564   8.5629   8.5629   8.7799   8.7799   9.1307   9.1307
     9.3955   9.3955   9.4444   9.4444   9.6038   9.6038  10.5373  10.5373
    10.7703  10.7703  10.8061  10.8061  11.0077  11.0077  11.0375  11.0375

     occupation numbers 
     1.0000   1.0000   1.0000   1.0000   1.0000   1.0000   1.0000   1.0000
     1.0000   1.0000   1.0000   1.0000   1.0000   1.0000   1.0000   1.0000
     1.0000   1.0000   1.0000   1.0000   1.0000   1.0000   1.0000   1.0000
     1.0000   1.0000   1.0000   1.0000   1.0000   1.0000   1.0000   1.0000
     1.0000   1.0000   1.0000   1.0000   1.0000   1.0000   1.0000   1.0000
     1.0000   1.0000   1.0000   1.0000   1.0000   1.0000   1.0000   1.0000
     1.0000   1.0000   1.0000   1.0000   1.0000   1.0000   1.0000   1.0000
     1.0000   1.0000   1.0000   1.0000  -0.0000  -0.0000  -0.0000  -0.0000
    -0.0000  -0.0000  -0.0000  -0.0000  -0.0000  -0.0000  -0.0000  -0.0000
    -0.0000  -0.0000  -0.0000  -0.0000  -0.0000  -0.0000  -0.0000  -0.0000
    -0.0000  -0.0000  -0.0000  -0.0000  -0.0000  -0.0000  -0.0000  -0.0000
    -0.0000  -0.0000  -0.0000  -0.0000  -0.0000  -0.0000  -0.0000  -0.0000

          k =-0.5000 0.0000 0.0000 ( 18184 PWs)   bands (ev):

   -22.7586 -22.7586 -22.7353 -22.7353 -22.6843 -22.6843 -22.6430 -22.6430
   -22.6014 -22.6014 -21.4454 -21.4454 -21.4384 -21.4384 -21.4281 -21.4281
   -17.2037 -17.2037 -17.2036 -17.2036 -14.2110 -14.2110 -14.2104 -14.2104
   -14.2103 -14.2103  -9.3779  -9.3779  -9.3427  -9.3427  -9.2923  -9.2923
    -7.4382  -7.4382  -7.3941  -7.3941  -7.3343  -7.3343  -7.3045  -7.3045
    -7.2979  -7.2979  -7.2119  -7.2119  -3.2155  -3.2155  -2.4766  -2.4766
     3.6675   3.6675   4.0933   4.0933   4.9324   4.9324   5.0570   5.0570
     5.0945   5.0945   5.6378   5.6378   6.5968   6.5968   6.7748   6.7748
     7.2350   7.2350   7.5745   7.5745   7.8979   7.8979   7.9797   7.9797
     8.1305   8.1305   8.6467   8.6467   9.0139   9.0139   9.1231   9.1231
     9.2734   9.2734   9.4657   9.4657   9.6499   9.6499   9.6926   9.6926
    10.5751  10.5751  10.5975  10.5975  10.6150  10.6150  10.8206  10.8206

     occupation numbers 
     1.0000   1.0000   1.0000   1.0000   1.0000   1.0000   1.0000   1.0000
     1.0000   1.0000   1.0000   1.0000   1.0000   1.0000   1.0000   1.0000
     1.0000   1.0000   1.0000   1.0000   1.0000   1.0000   1.0000   1.0000
     1.0000   1.0000   1.0000   1.0000   1.0000   1.0000   1.0000   1.0000
     1.0000   1.0000   1.0000   1.0000   1.0000   1.0000   1.0000   1.0000
     1.0000   1.0000   1.0000   1.0000   1.0000   1.0000   1.0000   1.0000
     1.0000   1.0000   1.0000   1.0000   1.0000   1.0000   1.0000   1.0000
     1.0000   1.0000   1.0000   1.0000  -0.0049  -0.0049  -0.0000  -0.0000
    -0.0000  -0.0000  -0.0000  -0.0000  -0.0000  -0.0000  -0.0000  -0.0000
    -0.0000  -0.0000  -0.0000  -0.0000  -0.0000  -0.0000  -0.0000  -0.0000
    -0.0000  -0.0000  -0.0000  -0.0000  -0.0000  -0.0000  -0.0000  -0.0000
    -0.0000  -0.0000  -0.0000  -0.0000  -0.0000  -0.0000  -0.0000  -0.0000

          k =-0.5000 0.0000 0.2500 ( 18136 PWs)   bands (ev):

   -22.7517 -22.7517 -22.7228 -22.7228 -22.6843 -22.6843 -22.6498 -22.6498
   -22.6116 -22.6116 -21.4465 -21.4465 -21.4405 -21.4405 -21.4280 -21.4280
   -17.2036 -17.2036 -17.2036 -17.2036 -14.2110 -14.2110 -14.2104 -14.2104
   -14.2103 -14.2103  -9.3786  -9.3786  -9.3413  -9.3413  -9.3029  -9.3029
    -7.5069  -7.5069  -7.3672  -7.3672  -7.3386  -7.3386  -7.3147  -7.3147
    -7.2580  -7.2580  -7.2074  -7.2074  -3.2111  -3.2111  -2.2696  -2.2696
     3.5043   3.5043   3.9338   3.9338   4.4259   4.4259   4.8382   4.8382
     5.1572   5.1572   5.5038   5.5038   6.9702   6.9702   7.1490   7.1490
     7.4287   7.4287   7.4906   7.4906   7.7803   7.7803   8.1103   8.1103
     8.2971   8.2971   8.6723   8.6723   8.8819   8.8819   9.1057   9.1057
     9.3461   9.3461   9.3834   9.3834   9.5655   9.5655   9.8018   9.8018
     9.9531   9.9531  10.1620  10.1620  11.2411  11.2411  11.5457  11.5457

     occupation numbers 
     1.0000   1.0000   1.0000   1.0000   1.0000   1.0000   1.0000   1.0000
     1.0000   1.0000   1.0000   1.0000   1.0000   1.0000   1.0000   1.0000
     1.0000   1.0000   1.0000   1.0000   1.0000   1.0000   1.0000   1.0000
     1.0000   1.0000   1.0000   1.0000   1.0000   1.0000   1.0000   1.0000
     1.0000   1.0000   1.0000   1.0000   1.0000   1.0000   1.0000   1.0000
     1.0000   1.0000   1.0000   1.0000   1.0000   1.0000   1.0000   1.0000
     1.0000   1.0000   1.0000   1.0000   1.0000   1.0000   1.0000   1.0000
     1.0000   1.0000   1.0000   1.0000  -0.0000  -0.0000  -0.0000  -0.0000
    -0.0000  -0.0000  -0.0000  -0.0000  -0.0000  -0.0000  -0.0000  -0.0000
    -0.0000  -0.0000  -0.0000  -0.0000  -0.0000  -0.0000  -0.0000  -0.0000
    -0.0000  -0.0000  -0.0000  -0.0000  -0.0000  -0.0000  -0.0000  -0.0000
    -0.0000  -0.0000  -0.0000  -0.0000  -0.0000  -0.0000  -0.0000  -0.0000

          k =-0.5000 0.0000-0.5000 ( 18176 PWs)   bands (ev):

   -22.7489 -22.7489 -22.6843 -22.6843 -22.6842 -22.6842 -22.6807 -22.6807
   -22.6203 -22.6203 -21.4488 -21.4488 -21.4419 -21.4419 -21.4281 -21.4281
   -17.2036 -17.2036 -17.2036 -17.2036 -14.2110 -14.2110 -14.2104 -14.2104
   -14.2103 -14.2103  -9.3804  -9.3804  -9.3352  -9.3352  -9.3173  -9.3173
    -7.5462  -7.5462  -7.3710  -7.3710  -7.3361  -7.3361  -7.3117  -7.3117
    -7.2426  -7.2426  -7.1966  -7.1966  -3.2067  -3.2067  -2.0375  -2.0375
     3.2901   3.2901   3.4812   3.4812   4.3422   4.3422   4.7119   4.7119
     5.2254   5.2254   5.4335   5.4335   7.3668   7.3668   7.3949   7.3949
     7.5516   7.5516   7.5825   7.5825   7.7737   7.7737   7.8632   7.8632
     8.5683   8.5683   8.5927   8.5927   8.7097   8.7097   9.0450   9.0450
     9.3673   9.3673   9.4414   9.4414   9.6386   9.6386   9.7454   9.7454
     9.8753   9.8753  10.6718  10.6718  10.7803  10.7803  11.7611  11.7664

     occupation numbers 
     1.0000   1.0000   1.0000   1.0000   1.0000   1.0000   1.0000   1.0000
     1.0000   1.0000   1.0000   1.0000   1.0000   1.0000   1.0000   1.0000
     1.0000   1.0000   1.0000   1.0000   1.0000   1.0000   1.0000   1.0000
     1.0000   1.0000   1.0000   1.0000   1.0000   1.0000   1.0000   1.0000
     1.0000   1.0000   1.0000   1.0000   1.0000   1.0000   1.0000   1.0000
     1.0000   1.0000   1.0000   1.0000   1.0000   1.0000   1.0000   1.0000
     1.0000   1.0000   1.0000   1.0000   1.0000   1.0000   1.0000   1.0000
     1.0000   1.0000   1.0000   1.0000  -0.0000  -0.0000  -0.0000  -0.0000
    -0.0000  -0.0000  -0.0000  -0.0000  -0.0000  -0.0000  -0.0000  -0.0000
    -0.0000  -0.0000  -0.0000  -0.0000  -0.0000  -0.0000  -0.0000  -0.0000
    -0.0000  -0.0000  -0.0000  -0.0000  -0.0000  -0.0000  -0.0000  -0.0000
    -0.0000  -0.0000  -0.0000  -0.0000  -0.0000  -0.0000  -0.0000  -0.0000

          k =-0.5000 0.0000-0.2500 ( 18136 PWs)   bands (ev):

   -22.7517 -22.7517 -22.7228 -22.7228 -22.6843 -22.6843 -22.6498 -22.6498
   -22.6116 -22.6116 -21.4465 -21.4465 -21.4405 -21.4405 -21.4280 -21.4280
   -17.2036 -17.2036 -17.2036 -17.2036 -14.2110 -14.2110 -14.2104 -14.2104
   -14.2103 -14.2103  -9.3786  -9.3786  -9.3413  -9.3413  -9.3029  -9.3029
    -7.5069  -7.5069  -7.3672  -7.3672  -7.3386  -7.3386  -7.3147  -7.3147
    -7.2580  -7.2580  -7.2074  -7.2074  -3.2111  -3.2111  -2.2696  -2.2696
     3.5043   3.5043   3.9338   3.9338   4.4259   4.4259   4.8382   4.8382
     5.1572   5.1572   5.5038   5.5038   6.9702   6.9702   7.1490   7.1490
     7.4287   7.4287   7.4906   7.4906   7.7803   7.7803   8.1103   8.1103
     8.2971   8.2971   8.6723   8.6723   8.8819   8.8819   9.1057   9.1057
     9.3461   9.3461   9.3834   9.3834   9.5655   9.5655   9.8018   9.8018
     9.9531   9.9531  10.1620  10.1620  11.2411  11.2411  11.5456  11.5456

     occupation numbers 
     1.0000   1.0000   1.0000   1.0000   1.0000   1.0000   1.0000   1.0000
     1.0000   1.0000   1.0000   1.0000   1.0000   1.0000   1.0000   1.0000
     1.0000   1.0000   1.0000   1.0000   1.0000   1.0000   1.0000   1.0000
     1.0000   1.0000   1.0000   1.0000   1.0000   1.0000   1.0000   1.0000
     1.0000   1.0000   1.0000   1.0000   1.0000   1.0000   1.0000   1.0000
     1.0000   1.0000   1.0000   1.0000   1.0000   1.0000   1.0000   1.0000
     1.0000   1.0000   1.0000   1.0000   1.0000   1.0000   1.0000   1.0000
     1.0000   1.0000   1.0000   1.0000  -0.0000  -0.0000  -0.0000  -0.0000
    -0.0000  -0.0000  -0.0000  -0.0000  -0.0000  -0.0000  -0.0000  -0.0000
    -0.0000  -0.0000  -0.0000  -0.0000  -0.0000  -0.0000  -0.0000  -0.0000
    -0.0000  -0.0000  -0.0000  -0.0000  -0.0000  -0.0000  -0.0000  -0.0000
    -0.0000  -0.0000  -0.0000  -0.0000  -0.0000  -0.0000  -0.0000  -0.0000

          k =-0.5000 0.2500 0.0000 ( 18136 PWs)   bands (ev):

   -22.7517 -22.7517 -22.7228 -22.7228 -22.6843 -22.6843 -22.6498 -22.6498
   -22.6116 -22.6116 -21.4465 -21.4465 -21.4405 -21.4405 -21.4280 -21.4280
   -17.2036 -17.2036 -17.2036 -17.2036 -14.2110 -14.2110 -14.2104 -14.2104
   -14.2103 -14.2103  -9.3786  -9.3786  -9.3413  -9.3413  -9.3029  -9.3029
    -7.5069  -7.5069  -7.3672  -7.3672  -7.3386  -7.3386  -7.3147  -7.3147
    -7.2580  -7.2580  -7.2074  -7.2074  -3.2111  -3.2111  -2.2696  -2.2696
     3.5043   3.5043   3.9338   3.9338   4.4259   4.4259   4.8382   4.8382
     5.1572   5.1572   5.5038   5.5038   6.9702   6.9702   7.1490   7.1490
     7.4287   7.4287   7.4906   7.4906   7.7803   7.7803   8.1103   8.1103
     8.2971   8.2971   8.6723   8.6723   8.8819   8.8819   9.1057   9.1057
     9.3461   9.3461   9.3834   9.3834   9.5655   9.5655   9.8018   9.8018
     9.9531   9.9531  10.1620  10.1620  11.2411  11.2411  11.5456  11.5456

     occupation numbers 
     1.0000   1.0000   1.0000   1.0000   1.0000   1.0000   1.0000   1.0000
     1.0000   1.0000   1.0000   1.0000   1.0000   1.0000   1.0000   1.0000
     1.0000   1.0000   1.0000   1.0000   1.0000   1.0000   1.0000   1.0000
     1.0000   1.0000   1.0000   1.0000   1.0000   1.0000   1.0000   1.0000
     1.0000   1.0000   1.0000   1.0000   1.0000   1.0000   1.0000   1.0000
     1.0000   1.0000   1.0000   1.0000   1.0000   1.0000   1.0000   1.0000
     1.0000   1.0000   1.0000   1.0000   1.0000   1.0000   1.0000   1.0000
     1.0000   1.0000   1.0000   1.0000  -0.0000  -0.0000  -0.0000  -0.0000
    -0.0000  -0.0000  -0.0000  -0.0000  -0.0000  -0.0000  -0.0000  -0.0000
    -0.0000  -0.0000  -0.0000  -0.0000  -0.0000  -0.0000  -0.0000  -0.0000
    -0.0000  -0.0000  -0.0000  -0.0000  -0.0000  -0.0000  -0.0000  -0.0000
    -0.0000  -0.0000  -0.0000  -0.0000  -0.0000  -0.0000  -0.0000  -0.0000

          k =-0.5000 0.2500 0.2500 ( 18128 PWs)   bands (ev):

   -22.7368 -22.7368 -22.7183 -22.7183 -22.6843 -22.6843 -22.6532 -22.6532
   -22.6255 -22.6255 -21.4469 -21.4469 -21.4434 -21.4434 -21.4280 -21.4280
   -17.2036 -17.2036 -17.2036 -17.2036 -14.2110 -14.2110 -14.2104 -14.2104
   -14.2103 -14.2103  -9.3936  -9.3936  -9.3338  -9.3338  -9.3085  -9.3085
    -7.5703  -7.5703  -7.3829  -7.3829  -7.3148  -7.3148  -7.2958  -7.2958
    -7.2346  -7.2346  -7.1937  -7.1937  -3.2118  -3.2118  -2.0666  -2.0666
     3.3945   3.3945   3.8886   3.8886   4.0683   4.0683   4.4120   4.4120
     5.2424   5.2424   5.4812   5.4812   7.1903   7.1903   7.2264   7.2264
     7.5382   7.5382   7.6052   7.6052   7.8740   7.8740   7.9154   7.9154
     8.3670   8.3670   8.5154   8.5154   8.7235   8.7235   9.1870   9.1870
     9.2696   9.2696   9.4786   9.4786   9.5495   9.5495   9.9066   9.9066
    10.8124  10.8124  10.8828  10.8828  11.2057  11.2057  11.4773  11.4774

     occupation numbers 
     1.0000   1.0000   1.0000   1.0000   1.0000   1.0000   1.0000   1.0000
     1.0000   1.0000   1.0000   1.0000   1.0000   1.0000   1.0000   1.0000
     1.0000   1.0000   1.0000   1.0000   1.0000   1.0000   1.0000   1.0000
     1.0000   1.0000   1.0000   1.0000   1.0000   1.0000   1.0000   1.0000
     1.0000   1.0000   1.0000   1.0000   1.0000   1.0000   1.0000   1.0000
     1.0000   1.0000   1.0000   1.0000   1.0000   1.0000   1.0000   1.0000
     1.0000   1.0000   1.0000   1.0000   1.0000   1.0000   1.0000   1.0000
     1.0000   1.0000   1.0000   1.0000  -0.0000  -0.0000  -0.0000  -0.0000
    -0.0000  -0.0000  -0.0000  -0.0000  -0.0000  -0.0000  -0.0000  -0.0000
    -0.0000  -0.0000  -0.0000  -0.0000  -0.0000  -0.0000  -0.0000  -0.0000
    -0.0000  -0.0000  -0.0000  -0.0000  -0.0000  -0.0000  -0.0000  -0.0000
    -0.0000  -0.0000  -0.0000  -0.0000  -0.0000  -0.0000  -0.0000  -0.0000

          k =-0.5000 0.2500-0.5000 ( 18112 PWs)   bands (ev):

   -22.7290 -22.7290 -22.6843 -22.6843 -22.6842 -22.6842 -22.6805 -22.6805
   -22.6379 -22.6379 -21.4486 -21.4486 -21.4451 -21.4451 -21.4280 -21.4280
   -17.2036 -17.2036 -17.2036 -17.2036 -14.2110 -14.2110 -14.2103 -14.2103
   -14.2103 -14.2103  -9.4067  -9.4067  -9.3242  -9.3242  -9.3180  -9.3180
    -7.6123  -7.6123  -7.4019  -7.4019  -7.2960  -7.2960  -7.2930  -7.2930
    -7.2072  -7.2072  -7.1809  -7.1809  -3.2125  -3.2125  -1.8363  -1.8363
     3.2094   3.2094   3.4457   3.4457   3.9725   3.9725   4.3343   4.3343
     5.3326   5.3326   5.4594   5.4594   7.3365   7.3365   7.4486   7.4486
     7.5096   7.5096   7.5762   7.5762   7.7677   7.7677   7.8423   7.8423
     8.1310   8.1310   8.8744   8.8744   8.9278   8.9278   9.3128   9.3128
     9.4397   9.4397   9.4853   9.4853   9.8040   9.8040   9.8929   9.8929
    10.6383  10.6383  10.7128  10.7128  11.5300  11.5301  11.6620  11.6621

     occupation numbers 
     1.0000   1.0000   1.0000   1.0000   1.0000   1.0000   1.0000   1.0000
     1.0000   1.0000   1.0000   1.0000   1.0000   1.0000   1.0000   1.0000
     1.0000   1.0000   1.0000   1.0000   1.0000   1.0000   1.0000   1.0000
     1.0000   1.0000   1.0000   1.0000   1.0000   1.0000   1.0000   1.0000
     1.0000   1.0000   1.0000   1.0000   1.0000   1.0000   1.0000   1.0000
     1.0000   1.0000   1.0000   1.0000   1.0000   1.0000   1.0000   1.0000
     1.0000   1.0000   1.0000   1.0000   1.0000   1.0000   1.0000   1.0000
     1.0000   1.0000   1.0000   1.0000  -0.0000  -0.0000  -0.0000  -0.0000
    -0.0000  -0.0000  -0.0000  -0.0000  -0.0000  -0.0000  -0.0000  -0.0000
    -0.0000  -0.0000  -0.0000  -0.0000  -0.0000  -0.0000  -0.0000  -0.0000
    -0.0000  -0.0000  -0.0000  -0.0000  -0.0000  -0.0000  -0.0000  -0.0000
    -0.0000  -0.0000  -0.0000  -0.0000  -0.0000  -0.0000  -0.0000  -0.0000

          k =-0.5000 0.2500-0.2500 ( 18128 PWs)   bands (ev):

   -22.7368 -22.7368 -22.7183 -22.7183 -22.6843 -22.6843 -22.6532 -22.6532
   -22.6255 -22.6255 -21.4469 -21.4469 -21.4434 -21.4434 -21.4280 -21.4280
   -17.2036 -17.2036 -17.2036 -17.2036 -14.2110 -14.2110 -14.2104 -14.2104
   -14.2103 -14.2103  -9.3936  -9.3936  -9.3338  -9.3338  -9.3085  -9.3085
    -7.5703  -7.5703  -7.3829  -7.3829  -7.3148  -7.3148  -7.2958  -7.2958
    -7.2346  -7.2346  -7.1937  -7.1937  -3.2118  -3.2118  -2.0666  -2.0666
     3.3945   3.3945   3.8886   3.8886   4.0683   4.0683   4.4120   4.4120
     5.2424   5.2424   5.4812   5.4812   7.1903   7.1903   7.2264   7.2264
     7.5382   7.5382   7.6052   7.6052   7.8740   7.8740   7.9154   7.9154
     8.3670   8.3670   8.5154   8.5154   8.7235   8.7235   9.1870   9.1870
     9.2696   9.2696   9.4786   9.4786   9.5495   9.5495   9.9066   9.9066
    10.8125  10.8126  10.8828  10.8828  11.2057  11.2059  11.5646  11.5664

     occupation numbers 
     1.0000   1.0000   1.0000   1.0000   1.0000   1.0000   1.0000   1.0000
     1.0000   1.0000   1.0000   1.0000   1.0000   1.0000   1.0000   1.0000
     1.0000   1.0000   1.0000   1.0000   1.0000   1.0000   1.0000   1.0000
     1.0000   1.0000   1.0000   1.0000   1.0000   1.0000   1.0000   1.0000
     1.0000   1.0000   1.0000   1.0000   1.0000   1.0000   1.0000   1.0000
     1.0000   1.0000   1.0000   1.0000   1.0000   1.0000   1.0000   1.0000
     1.0000   1.0000   1.0000   1.0000   1.0000   1.0000   1.0000   1.0000
     1.0000   1.0000   1.0000   1.0000  -0.0000  -0.0000  -0.0000  -0.0000
    -0.0000  -0.0000  -0.0000  -0.0000  -0.0000  -0.0000  -0.0000  -0.0000
    -0.0000  -0.0000  -0.0000  -0.0000  -0.0000  -0.0000  -0.0000  -0.0000
    -0.0000  -0.0000  -0.0000  -0.0000  -0.0000  -0.0000  -0.0000  -0.0000
    -0.0000  -0.0000  -0.0000  -0.0000  -0.0000  -0.0000  -0.0000  -0.0000

          k =-0.5000-0.5000 0.0000 ( 18176 PWs)   bands (ev):

   -22.7489 -22.7489 -22.6843 -22.6843 -22.6842 -22.6842 -22.6807 -22.6807
   -22.6203 -22.6203 -21.4488 -21.4488 -21.4419 -21.4419 -21.4281 -21.4281
   -17.2036 -17.2036 -17.2036 -17.2036 -14.2110 -14.2110 -14.2104 -14.2104
   -14.2103 -14.2103  -9.3804  -9.3804  -9.3352  -9.3352  -9.3173  -9.3173
    -7.5462  -7.5462  -7.3710  -7.3710  -7.3361  -7.3361  -7.3117  -7.3117
    -7.2426  -7.2426  -7.1966  -7.1966  -3.2067  -3.2067  -2.0375  -2.0375
     3.2901   3.2901   3.4812   3.4812   4.3422   4.3422   4.7119   4.7119
     5.2254   5.2254   5.4335   5.4335   7.3668   7.3668   7.3949   7.3949
     7.5516   7.5516   7.5825   7.5825   7.7737   7.7737   7.8633   7.8633
     8.5683   8.5683   8.5927   8.5927   8.7097   8.7097   9.0450   9.0450
     9.3673   9.3674   9.4414   9.4414   9.6386   9.6386   9.7454   9.7454
     9.8753   9.8753  10.6718  10.6718  10.7803  10.7803  11.7538  11.7663

     occupation numbers 
     1.0000   1.0000   1.0000   1.0000   1.0000   1.0000   1.0000   1.0000
     1.0000   1.0000   1.0000   1.0000   1.0000   1.0000   1.0000   1.0000
     1.0000   1.0000   1.0000   1.0000   1.0000   1.0000   1.0000   1.0000
     1.0000   1.0000   1.0000   1.0000   1.0000   1.0000   1.0000   1.0000
     1.0000   1.0000   1.0000   1.0000   1.0000   1.0000   1.0000   1.0000
     1.0000   1.0000   1.0000   1.0000   1.0000   1.0000   1.0000   1.0000
     1.0000   1.0000   1.0000   1.0000   1.0000   1.0000   1.0000   1.0000
     1.0000   1.0000   1.0000   1.0000  -0.0000  -0.0000  -0.0000  -0.0000
    -0.0000  -0.0000  -0.0000  -0.0000  -0.0000  -0.0000  -0.0000  -0.0000
    -0.0000  -0.0000  -0.0000  -0.0000  -0.0000  -0.0000  -0.0000  -0.0000
    -0.0000  -0.0000  -0.0000  -0.0000  -0.0000  -0.0000  -0.0000  -0.0000
    -0.0000  -0.0000  -0.0000  -0.0000  -0.0000  -0.0000  -0.0000  -0.0000

          k =-0.5000-0.5000 0.2500 ( 18112 PWs)   bands (ev):

   -22.7290 -22.7290 -22.6843 -22.6843 -22.6842 -22.6842 -22.6805 -22.6805
   -22.6379 -22.6379 -21.4486 -21.4486 -21.4451 -21.4451 -21.4280 -21.4280
   -17.2036 -17.2036 -17.2036 -17.2036 -14.2110 -14.2110 -14.2103 -14.2103
   -14.2103 -14.2103  -9.4067  -9.4067  -9.3242  -9.3242  -9.3180  -9.3180
    -7.6123  -7.6123  -7.4019  -7.4019  -7.2960  -7.2960  -7.2930  -7.2930
    -7.2072  -7.2072  -7.1809  -7.1809  -3.2125  -3.2125  -1.8363  -1.8363
     3.2094   3.2094   3.4457   3.4457   3.9725   3.9725   4.3343   4.3343
     5.3326   5.3326   5.4594   5.4594   7.3365   7.3365   7.4486   7.4486
     7.5096   7.5096   7.5762   7.5762   7.7677   7.7677   7.8423   7.8423
     8.1310   8.1310   8.8744   8.8744   8.9278   8.9278   9.3128   9.3128
     9.4397   9.4397   9.4853   9.4853   9.8040   9.8040   9.8929   9.8929
    10.6383  10.6383  10.7128  10.7128  11.5300  11.5301  11.6620  11.6621

     occupation numbers 
     1.0000   1.0000   1.0000   1.0000   1.0000   1.0000   1.0000   1.0000
     1.0000   1.0000   1.0000   1.0000   1.0000   1.0000   1.0000   1.0000
     1.0000   1.0000   1.0000   1.0000   1.0000   1.0000   1.0000   1.0000
     1.0000   1.0000   1.0000   1.0000   1.0000   1.0000   1.0000   1.0000
     1.0000   1.0000   1.0000   1.0000   1.0000   1.0000   1.0000   1.0000
     1.0000   1.0000   1.0000   1.0000   1.0000   1.0000   1.0000   1.0000
     1.0000   1.0000   1.0000   1.0000   1.0000   1.0000   1.0000   1.0000
     1.0000   1.0000   1.0000   1.0000  -0.0000  -0.0000  -0.0000  -0.0000
    -0.0000  -0.0000  -0.0000  -0.0000  -0.0000  -0.0000  -0.0000  -0.0000
    -0.0000  -0.0000  -0.0000  -0.0000  -0.0000  -0.0000  -0.0000  -0.0000
    -0.0000  -0.0000  -0.0000  -0.0000  -0.0000  -0.0000  -0.0000  -0.0000
    -0.0000  -0.0000  -0.0000  -0.0000  -0.0000  -0.0000  -0.0000  -0.0000

          k =-0.5000-0.5000-0.5000 ( 18048 PWs)   bands (ev):

   -22.6843 -22.6843 -22.6842 -22.6842 -22.6842 -22.6842 -22.6804 -22.6804
   -22.6804 -22.6804 -21.4485 -21.4485 -21.4485 -21.4485 -21.4278 -21.4278
   -17.2036 -17.2036 -17.2036 -17.2036 -14.2110 -14.2110 -14.2103 -14.2103
   -14.2103 -14.2103  -9.4273  -9.4273  -9.3188  -9.3188  -9.3188  -9.3188
    -7.6569  -7.6569  -7.4227  -7.4227  -7.2840  -7.2840  -7.2840  -7.2840
    -7.1655  -7.1655  -7.1655  -7.1655  -3.2182  -3.2182  -1.6048  -1.6048
     3.0619   3.0619   3.4008   3.4008   3.4008   3.4008   4.3489   4.3489
     5.5027   5.5027   5.5027   5.5027   7.1466   7.1466   7.2830   7.2830
     7.4009   7.4009   7.4009   7.4009   7.8763   7.8763   7.8763   7.8763
     7.9453   7.9453   9.2204   9.2204   9.2204   9.2204   9.5690   9.5690
    10.3072  10.3072  10.3072  10.3072  10.3895  10.3895  10.4346  10.4346
    10.4346  10.4346  10.6116  10.6116  10.7921  10.7921  10.8615  10.8615

     occupation numbers 
     1.0000   1.0000   1.0000   1.0000   1.0000   1.0000   1.0000   1.0000
     1.0000   1.0000   1.0000   1.0000   1.0000   1.0000   1.0000   1.0000
     1.0000   1.0000   1.0000   1.0000   1.0000   1.0000   1.0000   1.0000
     1.0000   1.0000   1.0000   1.0000   1.0000   1.0000   1.0000   1.0000
     1.0000   1.0000   1.0000   1.0000   1.0000   1.0000   1.0000   1.0000
     1.0000   1.0000   1.0000   1.0000   1.0000   1.0000   1.0000   1.0000
     1.0000   1.0000   1.0000   1.0000   1.0000   1.0000   1.0000   1.0000
     1.0000   1.0000   1.0000   1.0000  -0.0000  -0.0000  -0.0000  -0.0000
    -0.0000  -0.0000  -0.0000  -0.0000  -0.0000  -0.0000  -0.0000  -0.0000
    -0.0000  -0.0000  -0.0000  -0.0000  -0.0000  -0.0000  -0.0000  -0.0000
    -0.0000  -0.0000  -0.0000  -0.0000  -0.0000  -0.0000  -0.0000  -0.0000
    -0.0000  -0.0000  -0.0000  -0.0000  -0.0000  -0.0000  -0.0000  -0.0000

          k =-0.5000-0.5000-0.2500 ( 18112 PWs)   bands (ev):

   -22.7290 -22.7290 -22.6843 -22.6843 -22.6842 -22.6842 -22.6805 -22.6805
   -22.6379 -22.6379 -21.4486 -21.4486 -21.4451 -21.4451 -21.4280 -21.4280
   -17.2036 -17.2036 -17.2036 -17.2036 -14.2110 -14.2110 -14.2103 -14.2103
   -14.2103 -14.2103  -9.4067  -9.4067  -9.3242  -9.3242  -9.3180  -9.3180
    -7.6123  -7.6123  -7.4019  -7.4019  -7.2960  -7.2960  -7.2930  -7.2930
    -7.2072  -7.2072  -7.1809  -7.1809  -3.2125  -3.2125  -1.8363  -1.8363
     3.2094   3.2094   3.4457   3.4457   3.9725   3.9725   4.3343   4.3343
     5.3326   5.3326   5.4594   5.4594   7.3365   7.3365   7.4486   7.4486
     7.5096   7.5096   7.5762   7.5762   7.7677   7.7677   7.8423   7.8423
     8.1310   8.1310   8.8744   8.8744   8.9278   8.9278   9.3128   9.3128
     9.4397   9.4397   9.4853   9.4853   9.8040   9.8040   9.8929   9.8929
    10.6383  10.6383  10.7128  10.7128  11.5300  11.5300  11.6620  11.6620

     occupation numbers 
     1.0000   1.0000   1.0000   1.0000   1.0000   1.0000   1.0000   1.0000
     1.0000   1.0000   1.0000   1.0000   1.0000   1.0000   1.0000   1.0000
     1.0000   1.0000   1.0000   1.0000   1.0000   1.0000   1.0000   1.0000
     1.0000   1.0000   1.0000   1.0000   1.0000   1.0000   1.0000   1.0000
     1.0000   1.0000   1.0000   1.0000   1.0000   1.0000   1.0000   1.0000
     1.0000   1.0000   1.0000   1.0000   1.0000   1.0000   1.0000   1.0000
     1.0000   1.0000   1.0000   1.0000   1.0000   1.0000   1.0000   1.0000
     1.0000   1.0000   1.0000   1.0000  -0.0000  -0.0000  -0.0000  -0.0000
    -0.0000  -0.0000  -0.0000  -0.0000  -0.0000  -0.0000  -0.0000  -0.0000
    -0.0000  -0.0000  -0.0000  -0.0000  -0.0000  -0.0000  -0.0000  -0.0000
    -0.0000  -0.0000  -0.0000  -0.0000  -0.0000  -0.0000  -0.0000  -0.0000
    -0.0000  -0.0000  -0.0000  -0.0000  -0.0000  -0.0000  -0.0000  -0.0000

          k =-0.5000-0.2500 0.0000 ( 18136 PWs)   bands (ev):

   -22.7517 -22.7517 -22.7228 -22.7228 -22.6843 -22.6843 -22.6498 -22.6498
   -22.6116 -22.6116 -21.4465 -21.4465 -21.4405 -21.4405 -21.4280 -21.4280
   -17.2036 -17.2036 -17.2036 -17.2036 -14.2110 -14.2110 -14.2104 -14.2104
   -14.2103 -14.2103  -9.3786  -9.3786  -9.3413  -9.3413  -9.3029  -9.3029
    -7.5069  -7.5069  -7.3672  -7.3672  -7.3386  -7.3386  -7.3147  -7.3147
    -7.2580  -7.2580  -7.2074  -7.2074  -3.2111  -3.2111  -2.2696  -2.2696
     3.5043   3.5043   3.9338   3.9338   4.4259   4.4259   4.8382   4.8382
     5.1572   5.1572   5.5038   5.5038   6.9702   6.9702   7.1490   7.1490
     7.4287   7.4287   7.4906   7.4906   7.7803   7.7803   8.1103   8.1103
     8.2971   8.2971   8.6723   8.6723   8.8819   8.8819   9.1057   9.1057
     9.3461   9.3461   9.3834   9.3834   9.5655   9.5655   9.8018   9.8018
     9.9531   9.9531  10.1620  10.1620  11.2411  11.2411  11.5457  11.5458

     occupation numbers 
     1.0000   1.0000   1.0000   1.0000   1.0000   1.0000   1.0000   1.0000
     1.0000   1.0000   1.0000   1.0000   1.0000   1.0000   1.0000   1.0000
     1.0000   1.0000   1.0000   1.0000   1.0000   1.0000   1.0000   1.0000
     1.0000   1.0000   1.0000   1.0000   1.0000   1.0000   1.0000   1.0000
     1.0000   1.0000   1.0000   1.0000   1.0000   1.0000   1.0000   1.0000
     1.0000   1.0000   1.0000   1.0000   1.0000   1.0000   1.0000   1.0000
     1.0000   1.0000   1.0000   1.0000   1.0000   1.0000   1.0000   1.0000
     1.0000   1.0000   1.0000   1.0000  -0.0000  -0.0000  -0.0000  -0.0000
    -0.0000  -0.0000  -0.0000  -0.0000  -0.0000  -0.0000  -0.0000  -0.0000
    -0.0000  -0.0000  -0.0000  -0.0000  -0.0000  -0.0000  -0.0000  -0.0000
    -0.0000  -0.0000  -0.0000  -0.0000  -0.0000  -0.0000  -0.0000  -0.0000
    -0.0000  -0.0000  -0.0000  -0.0000  -0.0000  -0.0000  -0.0000  -0.0000

          k =-0.5000-0.2500 0.2500 ( 18128 PWs)   bands (ev):

   -22.7368 -22.7368 -22.7183 -22.7183 -22.6843 -22.6843 -22.6532 -22.6532
   -22.6255 -22.6255 -21.4469 -21.4469 -21.4434 -21.4434 -21.4280 -21.4280
   -17.2036 -17.2036 -17.2036 -17.2036 -14.2110 -14.2110 -14.2104 -14.2104
   -14.2103 -14.2103  -9.3936  -9.3936  -9.3338  -9.3338  -9.3085  -9.3085
    -7.5703  -7.5703  -7.3829  -7.3829  -7.3148  -7.3148  -7.2958  -7.2958
    -7.2346  -7.2346  -7.1937  -7.1937  -3.2118  -3.2118  -2.0666  -2.0666
     3.3945   3.3945   3.8886   3.8886   4.0683   4.0683   4.4120   4.4120
     5.2424   5.2424   5.4812   5.4812   7.1903   7.1903   7.2264   7.2264
     7.5382   7.5382   7.6052   7.6052   7.8740   7.8740   7.9154   7.9154
     8.3670   8.3670   8.5154   8.5154   8.7235   8.7235   9.1870   9.1870
     9.2696   9.2696   9.4786   9.4786   9.5495   9.5495   9.9066   9.9066
    10.8124  10.8124  10.8828  10.8828  11.2057  11.2059  11.4774  11.5665

     occupation numbers 
     1.0000   1.0000   1.0000   1.0000   1.0000   1.0000   1.0000   1.0000
     1.0000   1.0000   1.0000   1.0000   1.0000   1.0000   1.0000   1.0000
     1.0000   1.0000   1.0000   1.0000   1.0000   1.0000   1.0000   1.0000
     1.0000   1.0000   1.0000   1.0000   1.0000   1.0000   1.0000   1.0000
     1.0000   1.0000   1.0000   1.0000   1.0000   1.0000   1.0000   1.0000
     1.0000   1.0000   1.0000   1.0000   1.0000   1.0000   1.0000   1.0000
     1.0000   1.0000   1.0000   1.0000   1.0000   1.0000   1.0000   1.0000
     1.0000   1.0000   1.0000   1.0000  -0.0000  -0.0000  -0.0000  -0.0000
    -0.0000  -0.0000  -0.0000  -0.0000  -0.0000  -0.0000  -0.0000  -0.0000
    -0.0000  -0.0000  -0.0000  -0.0000  -0.0000  -0.0000  -0.0000  -0.0000
    -0.0000  -0.0000  -0.0000  -0.0000  -0.0000  -0.0000  -0.0000  -0.0000
    -0.0000  -0.0000  -0.0000  -0.0000  -0.0000  -0.0000  -0.0000  -0.0000

          k =-0.5000-0.2500-0.5000 ( 18112 PWs)   bands (ev):

   -22.7290 -22.7290 -22.6843 -22.6843 -22.6842 -22.6842 -22.6805 -22.6805
   -22.6379 -22.6379 -21.4486 -21.4486 -21.4451 -21.4451 -21.4280 -21.4280
   -17.2036 -17.2036 -17.2036 -17.2036 -14.2110 -14.2110 -14.2103 -14.2103
   -14.2103 -14.2103  -9.4067  -9.4067  -9.3242  -9.3242  -9.3180  -9.3180
    -7.6123  -7.6123  -7.4019  -7.4019  -7.2960  -7.2960  -7.2930  -7.2930
    -7.2072  -7.2072  -7.1809  -7.1809  -3.2125  -3.2125  -1.8363  -1.8363
     3.2094   3.2094   3.4457   3.4457   3.9725   3.9725   4.3343   4.3343
     5.3326   5.3326   5.4594   5.4594   7.3365   7.3365   7.4486   7.4486
     7.5096   7.5096   7.5762   7.5762   7.7677   7.7677   7.8423   7.8423
     8.1310   8.1310   8.8744   8.8744   8.9278   8.9278   9.3128   9.3128
     9.4397   9.4397   9.4853   9.4853   9.8040   9.8040   9.8929   9.8929
    10.6383  10.6383  10.7128  10.7128  11.5300  11.5300  11.6620  11.6621

     occupation numbers 
     1.0000   1.0000   1.0000   1.0000   1.0000   1.0000   1.0000   1.0000
     1.0000   1.0000   1.0000   1.0000   1.0000   1.0000   1.0000   1.0000
     1.0000   1.0000   1.0000   1.0000   1.0000   1.0000   1.0000   1.0000
     1.0000   1.0000   1.0000   1.0000   1.0000   1.0000   1.0000   1.0000
     1.0000   1.0000   1.0000   1.0000   1.0000   1.0000   1.0000   1.0000
     1.0000   1.0000   1.0000   1.0000   1.0000   1.0000   1.0000   1.0000
     1.0000   1.0000   1.0000   1.0000   1.0000   1.0000   1.0000   1.0000
     1.0000   1.0000   1.0000   1.0000  -0.0000  -0.0000  -0.0000  -0.0000
    -0.0000  -0.0000  -0.0000  -0.0000  -0.0000  -0.0000  -0.0000  -0.0000
    -0.0000  -0.0000  -0.0000  -0.0000  -0.0000  -0.0000  -0.0000  -0.0000
    -0.0000  -0.0000  -0.0000  -0.0000  -0.0000  -0.0000  -0.0000  -0.0000
    -0.0000  -0.0000  -0.0000  -0.0000  -0.0000  -0.0000  -0.0000  -0.0000

          k =-0.5000-0.2500-0.2500 ( 18128 PWs)   bands (ev):

   -22.7368 -22.7368 -22.7183 -22.7183 -22.6843 -22.6843 -22.6532 -22.6532
   -22.6255 -22.6255 -21.4469 -21.4469 -21.4434 -21.4434 -21.4280 -21.4280
   -17.2036 -17.2036 -17.2036 -17.2036 -14.2110 -14.2110 -14.2104 -14.2104
   -14.2103 -14.2103  -9.3936  -9.3936  -9.3338  -9.3338  -9.3085  -9.3085
    -7.5703  -7.5703  -7.3829  -7.3829  -7.3148  -7.3148  -7.2958  -7.2958
    -7.2346  -7.2346  -7.1937  -7.1937  -3.2118  -3.2118  -2.0666  -2.0666
     3.3945   3.3945   3.8886   3.8886   4.0683   4.0683   4.4120   4.4120
     5.2424   5.2424   5.4812   5.4812   7.1903   7.1903   7.2264   7.2264
     7.5382   7.5382   7.6052   7.6052   7.8740   7.8740   7.9154   7.9154
     8.3670   8.3670   8.5154   8.5154   8.7235   8.7235   9.1870   9.1870
     9.2696   9.2696   9.4786   9.4786   9.5495   9.5495   9.9066   9.9066
    10.8124  10.8124  10.8828  10.8828  11.2057  11.2058  11.4774  11.5668

     occupation numbers 
     1.0000   1.0000   1.0000   1.0000   1.0000   1.0000   1.0000   1.0000
     1.0000   1.0000   1.0000   1.0000   1.0000   1.0000   1.0000   1.0000
     1.0000   1.0000   1.0000   1.0000   1.0000   1.0000   1.0000   1.0000
     1.0000   1.0000   1.0000   1.0000   1.0000   1.0000   1.0000   1.0000
     1.0000   1.0000   1.0000   1.0000   1.0000   1.0000   1.0000   1.0000
     1.0000   1.0000   1.0000   1.0000   1.0000   1.0000   1.0000   1.0000
     1.0000   1.0000   1.0000   1.0000   1.0000   1.0000   1.0000   1.0000
     1.0000   1.0000   1.0000   1.0000  -0.0000  -0.0000  -0.0000  -0.0000
    -0.0000  -0.0000  -0.0000  -0.0000  -0.0000  -0.0000  -0.0000  -0.0000
    -0.0000  -0.0000  -0.0000  -0.0000  -0.0000  -0.0000  -0.0000  -0.0000
    -0.0000  -0.0000  -0.0000  -0.0000  -0.0000  -0.0000  -0.0000  -0.0000
    -0.0000  -0.0000  -0.0000  -0.0000  -0.0000  -0.0000  -0.0000  -0.0000

          k =-0.2500 0.0000 0.0000 ( 18145 PWs)   bands (ev):

   -22.7586 -22.7586 -22.7463 -22.7463 -22.7010 -22.7010 -22.6173 -22.6173
   -22.6014 -22.6014 -21.4417 -21.4417 -21.4383 -21.4383 -21.4279 -21.4279
   -17.2036 -17.2036 -17.2036 -17.2036 -14.2110 -14.2110 -14.2104 -14.2104
   -14.2104 -14.2104  -9.3783  -9.3783  -9.3651  -9.3651  -9.2653  -9.2653
    -7.4707  -7.4707  -7.3873  -7.3873  -7.3656  -7.3656  -7.2867  -7.2867
    -7.2349  -7.2349  -7.1957  -7.1957  -3.2342  -3.2342  -2.7108  -2.7108
     4.2456   4.2456   4.4259   4.4259   5.0302   5.0302   5.2040   5.2040
     5.3052   5.3052   5.8083   5.8083   6.3869   6.3869   6.4822   6.4822
     6.7130   6.7130   6.9647   6.9647   7.2939   7.2939   7.4119   7.4119
     8.4270   8.4270   8.9511   8.9511   9.0677   9.0677   9.1094   9.1094
     9.3517   9.3517   9.6164   9.6164   9.9803   9.9803  10.1511  10.1511
    10.5052  10.5052  10.8069  10.8069  11.1947  11.1948  11.3136  11.3138

     occupation numbers 
     1.0000   1.0000   1.0000   1.0000   1.0000   1.0000   1.0000   1.0000
     1.0000   1.0000   1.0000   1.0000   1.0000   1.0000   1.0000   1.0000
     1.0000   1.0000   1.0000   1.0000   1.0000   1.0000   1.0000   1.0000
     1.0000   1.0000   1.0000   1.0000   1.0000   1.0000   1.0000   1.0000
     1.0000   1.0000   1.0000   1.0000   1.0000   1.0000   1.0000   1.0000
     1.0000   1.0000   1.0000   1.0000   1.0000   1.0000   1.0000   1.0000
     1.0000   1.0000   1.0000   1.0000   1.0000   1.0000   1.0000   1.0000
     1.0000   1.0000   1.0000   1.0000   0.0795   0.0795  -0.0346  -0.0346
    -0.0001  -0.0001  -0.0000  -0.0000  -0.0000  -0.0000  -0.0000  -0.0000
    -0.0000  -0.0000  -0.0000  -0.0000  -0.0000  -0.0000  -0.0000  -0.0000
    -0.0000  -0.0000  -0.0000  -0.0000  -0.0000  -0.0000  -0.0000  -0.0000
    -0.0000  -0.0000  -0.0000  -0.0000  -0.0000  -0.0000  -0.0000  -0.0000

          k =-0.2500 0.0000 0.2500 ( 18095 PWs)   bands (ev):

   -22.7530 -22.7530 -22.7368 -22.7368 -22.6977 -22.6977 -22.6255 -22.6255
   -22.6092 -22.6092 -21.4433 -21.4433 -21.4399 -21.4399 -21.4279 -21.4279
   -17.2036 -17.2036 -17.2036 -17.2036 -14.2110 -14.2110 -14.2104 -14.2104
   -14.2104 -14.2104  -9.3784  -9.3784  -9.3565  -9.3565  -9.2809  -9.2809
    -7.4911  -7.4911  -7.3805  -7.3805  -7.3455  -7.3455  -7.2895  -7.2895
    -7.2673  -7.2673  -7.1935  -7.1935  -3.2222  -3.2222  -2.5019  -2.5019
     4.0457   4.0457   4.1460   4.1460   4.5342   4.5342   4.9763   4.9763
     5.2368   5.2368   5.6124   5.6124   6.7059   6.7059   6.7890   6.7890
     6.9556   6.9556   7.2131   7.2131   7.4539   7.4539   7.9445   7.9445
     8.6384   8.6384   8.7963   8.7963   8.8804   8.8804   9.0231   9.0231
     9.3501   9.3501   9.5940   9.5940   9.8047   9.8047   9.9132   9.9132
    10.1420  10.1420  10.7293  10.7293  10.8975  10.8975  11.8284  11.8286

     occupation numbers 
     1.0000   1.0000   1.0000   1.0000   1.0000   1.0000   1.0000   1.0000
     1.0000   1.0000   1.0000   1.0000   1.0000   1.0000   1.0000   1.0000
     1.0000   1.0000   1.0000   1.0000   1.0000   1.0000   1.0000   1.0000
     1.0000   1.0000   1.0000   1.0000   1.0000   1.0000   1.0000   1.0000
     1.0000   1.0000   1.0000   1.0000   1.0000   1.0000   1.0000   1.0000
     1.0000   1.0000   1.0000   1.0000   1.0000   1.0000   1.0000   1.0000
     1.0000   1.0000   1.0000   1.0000   1.0000   1.0000   1.0000   1.0000
     1.0000   1.0000   1.0000   1.0000  -0.0001  -0.0001  -0.0000  -0.0000
    -0.0000  -0.0000  -0.0000  -0.0000  -0.0000  -0.0000  -0.0000  -0.0000
    -0.0000  -0.0000  -0.0000  -0.0000  -0.0000  -0.0000  -0.0000  -0.0000
    -0.0000  -0.0000  -0.0000  -0.0000  -0.0000  -0.0000  -0.0000  -0.0000
    -0.0000  -0.0000  -0.0000  -0.0000  -0.0000  -0.0000  -0.0000  -0.0000

          k =-0.2500 0.0000-0.5000 ( 18136 PWs)   bands (ev):

   -22.7517 -22.7517 -22.7228 -22.7228 -22.6843 -22.6843 -22.6498 -22.6498
   -22.6116 -22.6116 -21.4465 -21.4465 -21.4405 -21.4405 -21.4280 -21.4280
   -17.2036 -17.2036 -17.2036 -17.2036 -14.2110 -14.2110 -14.2104 -14.2104
   -14.2103 -14.2103  -9.3786  -9.3786  -9.3413  -9.3413  -9.3029  -9.3029
    -7.5069  -7.5069  -7.3672  -7.3672  -7.3386  -7.3386  -7.3147  -7.3147
    -7.2580  -7.2580  -7.2074  -7.2074  -3.2111  -3.2111  -2.2696  -2.2696
     3.5043   3.5043   3.9338   3.9338   4.4259   4.4259   4.8382   4.8382
     5.1572   5.1572   5.5038   5.5038   6.9702   6.9702   7.1490   7.1490
     7.4287   7.4287   7.4906   7.4906   7.7803   7.7803   8.1103   8.1103
     8.2971   8.2971   8.6723   8.6723   8.8819   8.8819   9.1057   9.1057
     9.3461   9.3461   9.3834   9.3834   9.5655   9.5655   9.8018   9.8018
     9.9531   9.9531  10.1620  10.1620  11.2411  11.2411  11.5457  11.5457

     occupation numbers 
     1.0000   1.0000   1.0000   1.0000   1.0000   1.0000   1.0000   1.0000
     1.0000   1.0000   1.0000   1.0000   1.0000   1.0000   1.0000   1.0000
     1.0000   1.0000   1.0000   1.0000   1.0000   1.0000   1.0000   1.0000
     1.0000   1.0000   1.0000   1.0000   1.0000   1.0000   1.0000   1.0000
     1.0000   1.0000   1.0000   1.0000   1.0000   1.0000   1.0000   1.0000
     1.0000   1.0000   1.0000   1.0000   1.0000   1.0000   1.0000   1.0000
     1.0000   1.0000   1.0000   1.0000   1.0000   1.0000   1.0000   1.0000
     1.0000   1.0000   1.0000   1.0000  -0.0000  -0.0000  -0.0000  -0.0000
    -0.0000  -0.0000  -0.0000  -0.0000  -0.0000  -0.0000  -0.0000  -0.0000
    -0.0000  -0.0000  -0.0000  -0.0000  -0.0000  -0.0000  -0.0000  -0.0000
    -0.0000  -0.0000  -0.0000  -0.0000  -0.0000  -0.0000  -0.0000  -0.0000
    -0.0000  -0.0000  -0.0000  -0.0000  -0.0000  -0.0000  -0.0000  -0.0000

          k =-0.2500 0.0000-0.2500 ( 18095 PWs)   bands (ev):

   -22.7530 -22.7530 -22.7368 -22.7368 -22.6977 -22.6977 -22.6255 -22.6255
   -22.6092 -22.6092 -21.4433 -21.4433 -21.4399 -21.4399 -21.4279 -21.4279
   -17.2036 -17.2036 -17.2036 -17.2036 -14.2110 -14.2110 -14.2104 -14.2104
   -14.2104 -14.2104  -9.3784  -9.3784  -9.3565  -9.3565  -9.2809  -9.2809
    -7.4911  -7.4911  -7.3805  -7.3805  -7.3455  -7.3455  -7.2895  -7.2895
    -7.2673  -7.2673  -7.1935  -7.1935  -3.2222  -3.2222  -2.5019  -2.5019
     4.0457   4.0457   4.1460   4.1460   4.5342   4.5342   4.9763   4.9763
     5.2368   5.2368   5.6124   5.6124   6.7059   6.7059   6.7890   6.7890
     6.9556   6.9556   7.2131   7.2131   7.4539   7.4539   7.9445   7.9445
     8.6384   8.6384   8.7963   8.7963   8.8804   8.8804   9.0231   9.0231
     9.3501   9.3501   9.5940   9.5940   9.8047   9.8047   9.9132   9.9132
    10.1420  10.1420  10.7293  10.7293  10.8975  10.8976  11.8283  11.8291

     occupation numbers 
     1.0000   1.0000   1.0000   1.0000   1.0000   1.0000   1.0000   1.0000
     1.0000   1.0000   1.0000   1.0000   1.0000   1.0000   1.0000   1.0000
     1.0000   1.0000   1.0000   1.0000   1.0000   1.0000   1.0000   1.0000
     1.0000   1.0000   1.0000   1.0000   1.0000   1.0000   1.0000   1.0000
     1.0000   1.0000   1.0000   1.0000   1.0000   1.0000   1.0000   1.0000
     1.0000   1.0000   1.0000   1.0000   1.0000   1.0000   1.0000   1.0000
     1.0000   1.0000   1.0000   1.0000   1.0000   1.0000   1.0000   1.0000
     1.0000   1.0000   1.0000   1.0000  -0.0001  -0.0001  -0.0000  -0.0000
    -0.0000  -0.0000  -0.0000  -0.0000  -0.0000  -0.0000  -0.0000  -0.0000
    -0.0000  -0.0000  -0.0000  -0.0000  -0.0000  -0.0000  -0.0000  -0.0000
    -0.0000  -0.0000  -0.0000  -0.0000  -0.0000  -0.0000  -0.0000  -0.0000
    -0.0000  -0.0000  -0.0000  -0.0000  -0.0000  -0.0000  -0.0000  -0.0000

          k =-0.2500 0.2500 0.0000 ( 18095 PWs)   bands (ev):

   -22.7530 -22.7530 -22.7368 -22.7368 -22.6977 -22.6977 -22.6255 -22.6255
   -22.6092 -22.6092 -21.4433 -21.4433 -21.4399 -21.4399 -21.4279 -21.4279
   -17.2036 -17.2036 -17.2036 -17.2036 -14.2110 -14.2110 -14.2104 -14.2104
   -14.2104 -14.2104  -9.3784  -9.3784  -9.3565  -9.3565  -9.2809  -9.2809
    -7.4911  -7.4911  -7.3805  -7.3805  -7.3455  -7.3455  -7.2895  -7.2895
    -7.2673  -7.2673  -7.1935  -7.1935  -3.2222  -3.2222  -2.5019  -2.5019
     4.0457   4.0457   4.1460   4.1460   4.5342   4.5342   4.9763   4.9763
     5.2368   5.2368   5.6124   5.6124   6.7059   6.7059   6.7890   6.7890
     6.9556   6.9556   7.2131   7.2131   7.4539   7.4539   7.9445   7.9445
     8.6384   8.6384   8.7963   8.7963   8.8804   8.8804   9.0231   9.0231
     9.3501   9.3501   9.5940   9.5940   9.8047   9.8047   9.9132   9.9132
    10.1420  10.1420  10.7293  10.7293  10.8975  10.8976  11.8286  11.8288

     occupation numbers 
     1.0000   1.0000   1.0000   1.0000   1.0000   1.0000   1.0000   1.0000
     1.0000   1.0000   1.0000   1.0000   1.0000   1.0000   1.0000   1.0000
     1.0000   1.0000   1.0000   1.0000   1.0000   1.0000   1.0000   1.0000
     1.0000   1.0000   1.0000   1.0000   1.0000   1.0000   1.0000   1.0000
     1.0000   1.0000   1.0000   1.0000   1.0000   1.0000   1.0000   1.0000
     1.0000   1.0000   1.0000   1.0000   1.0000   1.0000   1.0000   1.0000
     1.0000   1.0000   1.0000   1.0000   1.0000   1.0000   1.0000   1.0000
     1.0000   1.0000   1.0000   1.0000  -0.0001  -0.0001  -0.0000  -0.0000
    -0.0000  -0.0000  -0.0000  -0.0000  -0.0000  -0.0000  -0.0000  -0.0000
    -0.0000  -0.0000  -0.0000  -0.0000  -0.0000  -0.0000  -0.0000  -0.0000
    -0.0000  -0.0000  -0.0000  -0.0000  -0.0000  -0.0000  -0.0000  -0.0000
    -0.0000  -0.0000  -0.0000  -0.0000  -0.0000  -0.0000  -0.0000  -0.0000

          k =-0.2500 0.2500 0.2500 ( 18079 PWs)   bands (ev):

   -22.7368 -22.7368 -22.7367 -22.7367 -22.6955 -22.6955 -22.6255 -22.6255
   -22.6254 -22.6254 -21.4434 -21.4434 -21.4432 -21.4432 -21.4278 -21.4278
   -17.2036 -17.2036 -17.2036 -17.2036 -14.2110 -14.2110 -14.2104 -14.2104
   -14.2104 -14.2104  -9.3870  -9.3870  -9.3462  -9.3462  -9.2926  -9.2926
    -7.5377  -7.5377  -7.3735  -7.3735  -7.3280  -7.3280  -7.2897  -7.2897
    -7.2652  -7.2652  -7.1857  -7.1857  -3.2168  -3.2168  -2.2968  -2.2968
     3.9044   3.9044   4.0211   4.0211   4.1941   4.1941   4.5307   4.5307
     5.2630   5.2630   5.5427   5.5427   6.8699   6.8699   7.0496   7.0496
     7.0680   7.0680   7.5330   7.5330   7.8058   7.8058   7.9001   7.9001
     8.4564   8.4564   8.5629   8.5629   8.7799   8.7799   9.1307   9.1307
     9.3955   9.3955   9.4444   9.4444   9.6038   9.6038  10.5373  10.5373
    10.7703  10.7703  10.8061  10.8061  11.0077  11.0077  11.0375  11.0375

     occupation numbers 
     1.0000   1.0000   1.0000   1.0000   1.0000   1.0000   1.0000   1.0000
     1.0000   1.0000   1.0000   1.0000   1.0000   1.0000   1.0000   1.0000
     1.0000   1.0000   1.0000   1.0000   1.0000   1.0000   1.0000   1.0000
     1.0000   1.0000   1.0000   1.0000   1.0000   1.0000   1.0000   1.0000
     1.0000   1.0000   1.0000   1.0000   1.0000   1.0000   1.0000   1.0000
     1.0000   1.0000   1.0000   1.0000   1.0000   1.0000   1.0000   1.0000
     1.0000   1.0000   1.0000   1.0000   1.0000   1.0000   1.0000   1.0000
     1.0000   1.0000   1.0000   1.0000  -0.0000  -0.0000  -0.0000  -0.0000
    -0.0000  -0.0000  -0.0000  -0.0000  -0.0000  -0.0000  -0.0000  -0.0000
    -0.0000  -0.0000  -0.0000  -0.0000  -0.0000  -0.0000  -0.0000  -0.0000
    -0.0000  -0.0000  -0.0000  -0.0000  -0.0000  -0.0000  -0.0000  -0.0000
    -0.0000  -0.0000  -0.0000  -0.0000  -0.0000  -0.0000  -0.0000  -0.0000

          k =-0.2500 0.2500-0.5000 ( 18128 PWs)   bands (ev):

   -22.7368 -22.7368 -22.7183 -22.7183 -22.6843 -22.6843 -22.6532 -22.6532
   -22.6255 -22.6255 -21.4469 -21.4469 -21.4434 -21.4434 -21.4280 -21.4280
   -17.2036 -17.2036 -17.2036 -17.2036 -14.2110 -14.2110 -14.2104 -14.2104
   -14.2103 -14.2103  -9.3936  -9.3936  -9.3338  -9.3338  -9.3085  -9.3085
    -7.5703  -7.5703  -7.3829  -7.3829  -7.3148  -7.3148  -7.2958  -7.2958
    -7.2346  -7.2346  -7.1937  -7.1937  -3.2118  -3.2118  -2.0666  -2.0666
     3.3945   3.3945   3.8886   3.8886   4.0683   4.0683   4.4120   4.4120
     5.2424   5.2424   5.4812   5.4812   7.1903   7.1903   7.2264   7.2264
     7.5382   7.5382   7.6052   7.6052   7.8740   7.8740   7.9154   7.9154
     8.3670   8.3670   8.5154   8.5154   8.7235   8.7235   9.1870   9.1870
     9.2696   9.2696   9.4786   9.4786   9.5495   9.5495   9.9066   9.9066
    10.8124  10.8125  10.8828  10.8829  11.2057  11.2058  11.4773  11.5669

     occupation numbers 
     1.0000   1.0000   1.0000   1.0000   1.0000   1.0000   1.0000   1.0000
     1.0000   1.0000   1.0000   1.0000   1.0000   1.0000   1.0000   1.0000
     1.0000   1.0000   1.0000   1.0000   1.0000   1.0000   1.0000   1.0000
     1.0000   1.0000   1.0000   1.0000   1.0000   1.0000   1.0000   1.0000
     1.0000   1.0000   1.0000   1.0000   1.0000   1.0000   1.0000   1.0000
     1.0000   1.0000   1.0000   1.0000   1.0000   1.0000   1.0000   1.0000
     1.0000   1.0000   1.0000   1.0000   1.0000   1.0000   1.0000   1.0000
     1.0000   1.0000   1.0000   1.0000  -0.0000  -0.0000  -0.0000  -0.0000
    -0.0000  -0.0000  -0.0000  -0.0000  -0.0000  -0.0000  -0.0000  -0.0000
    -0.0000  -0.0000  -0.0000  -0.0000  -0.0000  -0.0000  -0.0000  -0.0000
    -0.0000  -0.0000  -0.0000  -0.0000  -0.0000  -0.0000  -0.0000  -0.0000
    -0.0000  -0.0000  -0.0000  -0.0000  -0.0000  -0.0000  -0.0000  -0.0000

          k =-0.2500 0.2500-0.2500 ( 18079 PWs)   bands (ev):

   -22.7368 -22.7368 -22.7367 -22.7367 -22.6955 -22.6955 -22.6255 -22.6255
   -22.6254 -22.6254 -21.4434 -21.4434 -21.4432 -21.4432 -21.4278 -21.4278
   -17.2036 -17.2036 -17.2036 -17.2036 -14.2110 -14.2110 -14.2104 -14.2104
   -14.2104 -14.2104  -9.3870  -9.3870  -9.3462  -9.3462  -9.2926  -9.2926
    -7.5377  -7.5377  -7.3735  -7.3735  -7.3280  -7.3280  -7.2897  -7.2897
    -7.2652  -7.2652  -7.1857  -7.1857  -3.2168  -3.2168  -2.2968  -2.2968
     3.9044   3.9044   4.0211   4.0211   4.1941   4.1941   4.5307   4.5307
     5.2630   5.2630   5.5427   5.5427   6.8699   6.8699   7.0496   7.0496
     7.0680   7.0680   7.5330   7.5330   7.8058   7.8058   7.9001   7.9001
     8.4564   8.4564   8.5629   8.5629   8.7799   8.7799   9.1307   9.1307
     9.3955   9.3955   9.4444   9.4444   9.6038   9.6038  10.5373  10.5373
    10.7703  10.7703  10.8061  10.8061  11.0077  11.0077  11.0375  11.0375

     occupation numbers 
     1.0000   1.0000   1.0000   1.0000   1.0000   1.0000   1.0000   1.0000
     1.0000   1.0000   1.0000   1.0000   1.0000   1.0000   1.0000   1.0000
     1.0000   1.0000   1.0000   1.0000   1.0000   1.0000   1.0000   1.0000
     1.0000   1.0000   1.0000   1.0000   1.0000   1.0000   1.0000   1.0000
     1.0000   1.0000   1.0000   1.0000   1.0000   1.0000   1.0000   1.0000
     1.0000   1.0000   1.0000   1.0000   1.0000   1.0000   1.0000   1.0000
     1.0000   1.0000   1.0000   1.0000   1.0000   1.0000   1.0000   1.0000
     1.0000   1.0000   1.0000   1.0000  -0.0000  -0.0000  -0.0000  -0.0000
    -0.0000  -0.0000  -0.0000  -0.0000  -0.0000  -0.0000  -0.0000  -0.0000
    -0.0000  -0.0000  -0.0000  -0.0000  -0.0000  -0.0000  -0.0000  -0.0000
    -0.0000  -0.0000  -0.0000  -0.0000  -0.0000  -0.0000  -0.0000  -0.0000
    -0.0000  -0.0000  -0.0000  -0.0000  -0.0000  -0.0000  -0.0000  -0.0000

          k =-0.2500-0.5000 0.0000 ( 18136 PWs)   bands (ev):

   -22.7517 -22.7517 -22.7228 -22.7228 -22.6843 -22.6843 -22.6498 -22.6498
   -22.6116 -22.6116 -21.4465 -21.4465 -21.4405 -21.4405 -21.4280 -21.4280
   -17.2036 -17.2036 -17.2036 -17.2036 -14.2110 -14.2110 -14.2104 -14.2104
   -14.2103 -14.2103  -9.3786  -9.3786  -9.3413  -9.3413  -9.3029  -9.3029
    -7.5069  -7.5069  -7.3672  -7.3672  -7.3386  -7.3386  -7.3147  -7.3147
    -7.2580  -7.2580  -7.2074  -7.2074  -3.2111  -3.2111  -2.2696  -2.2696
     3.5043   3.5043   3.9338   3.9338   4.4259   4.4259   4.8382   4.8382
     5.1572   5.1572   5.5038   5.5038   6.9702   6.9702   7.1490   7.1490
     7.4287   7.4287   7.4906   7.4906   7.7803   7.7803   8.1103   8.1103
     8.2971   8.2971   8.6723   8.6723   8.8819   8.8819   9.1057   9.1057
     9.3461   9.3461   9.3834   9.3834   9.5655   9.5655   9.8018   9.8018
     9.9531   9.9531  10.1620  10.1620  11.2411  11.2411  11.5456  11.5456

     occupation numbers 
     1.0000   1.0000   1.0000   1.0000   1.0000   1.0000   1.0000   1.0000
     1.0000   1.0000   1.0000   1.0000   1.0000   1.0000   1.0000   1.0000
     1.0000   1.0000   1.0000   1.0000   1.0000   1.0000   1.0000   1.0000
     1.0000   1.0000   1.0000   1.0000   1.0000   1.0000   1.0000   1.0000
     1.0000   1.0000   1.0000   1.0000   1.0000   1.0000   1.0000   1.0000
     1.0000   1.0000   1.0000   1.0000   1.0000   1.0000   1.0000   1.0000
     1.0000   1.0000   1.0000   1.0000   1.0000   1.0000   1.0000   1.0000
     1.0000   1.0000   1.0000   1.0000  -0.0000  -0.0000  -0.0000  -0.0000
    -0.0000  -0.0000  -0.0000  -0.0000  -0.0000  -0.0000  -0.0000  -0.0000
    -0.0000  -0.0000  -0.0000  -0.0000  -0.0000  -0.0000  -0.0000  -0.0000
    -0.0000  -0.0000  -0.0000  -0.0000  -0.0000  -0.0000  -0.0000  -0.0000
    -0.0000  -0.0000  -0.0000  -0.0000  -0.0000  -0.0000  -0.0000  -0.0000

          k =-0.2500-0.5000 0.2500 ( 18128 PWs)   bands (ev):

   -22.7368 -22.7368 -22.7183 -22.7183 -22.6843 -22.6843 -22.6532 -22.6532
   -22.6255 -22.6255 -21.4469 -21.4469 -21.4434 -21.4434 -21.4280 -21.4280
   -17.2036 -17.2036 -17.2036 -17.2036 -14.2110 -14.2110 -14.2104 -14.2104
   -14.2103 -14.2103  -9.3936  -9.3936  -9.3338  -9.3338  -9.3085  -9.3085
    -7.5703  -7.5703  -7.3829  -7.3829  -7.3148  -7.3148  -7.2958  -7.2958
    -7.2346  -7.2346  -7.1937  -7.1937  -3.2118  -3.2118  -2.0666  -2.0666
     3.3945   3.3945   3.8886   3.8886   4.0683   4.0683   4.4120   4.4120
     5.2424   5.2424   5.4812   5.4812   7.1903   7.1903   7.2264   7.2264
     7.5382   7.5382   7.6052   7.6052   7.8740   7.8740   7.9154   7.9154
     8.3670   8.3670   8.5154   8.5154   8.7235   8.7235   9.1870   9.1870
     9.2696   9.2696   9.4786   9.4786   9.5495   9.5495   9.9066   9.9066
    10.8124  10.8124  10.8828  10.8828  11.2057  11.2057  11.4774  11.5659

     occupation numbers 
     1.0000   1.0000   1.0000   1.0000   1.0000   1.0000   1.0000   1.0000
     1.0000   1.0000   1.0000   1.0000   1.0000   1.0000   1.0000   1.0000
     1.0000   1.0000   1.0000   1.0000   1.0000   1.0000   1.0000   1.0000
     1.0000   1.0000   1.0000   1.0000   1.0000   1.0000   1.0000   1.0000
     1.0000   1.0000   1.0000   1.0000   1.0000   1.0000   1.0000   1.0000
     1.0000   1.0000   1.0000   1.0000   1.0000   1.0000   1.0000   1.0000
     1.0000   1.0000   1.0000   1.0000   1.0000   1.0000   1.0000   1.0000
     1.0000   1.0000   1.0000   1.0000  -0.0000  -0.0000  -0.0000  -0.0000
    -0.0000  -0.0000  -0.0000  -0.0000  -0.0000  -0.0000  -0.0000  -0.0000
    -0.0000  -0.0000  -0.0000  -0.0000  -0.0000  -0.0000  -0.0000  -0.0000
    -0.0000  -0.0000  -0.0000  -0.0000  -0.0000  -0.0000  -0.0000  -0.0000
    -0.0000  -0.0000  -0.0000  -0.0000  -0.0000  -0.0000  -0.0000  -0.0000

          k =-0.2500-0.5000-0.5000 ( 18112 PWs)   bands (ev):

   -22.7290 -22.7290 -22.6843 -22.6843 -22.6842 -22.6842 -22.6805 -22.6805
   -22.6379 -22.6379 -21.4486 -21.4486 -21.4451 -21.4451 -21.4280 -21.4280
   -17.2036 -17.2036 -17.2036 -17.2036 -14.2110 -14.2110 -14.2103 -14.2103
   -14.2103 -14.2103  -9.4067  -9.4067  -9.3242  -9.3242  -9.3180  -9.3180
    -7.6123  -7.6123  -7.4019  -7.4019  -7.2960  -7.2960  -7.2930  -7.2930
    -7.2072  -7.2072  -7.1809  -7.1809  -3.2125  -3.2125  -1.8363  -1.8363
     3.2094   3.2094   3.4457   3.4457   3.9725   3.9725   4.3343   4.3343
     5.3326   5.3326   5.4594   5.4594   7.3365   7.3365   7.4486   7.4486
     7.5096   7.5096   7.5762   7.5762   7.7677   7.7677   7.8423   7.8423
     8.1310   8.1310   8.8744   8.8744   8.9278   8.9278   9.3128   9.3128
     9.4397   9.4397   9.4853   9.4853   9.8040   9.8040   9.8929   9.8929
    10.6383  10.6383  10.7128  10.7128  11.5300  11.5301  11.6620  11.6622

     occupation numbers 
     1.0000   1.0000   1.0000   1.0000   1.0000   1.0000   1.0000   1.0000
     1.0000   1.0000   1.0000   1.0000   1.0000   1.0000   1.0000   1.0000
     1.0000   1.0000   1.0000   1.0000   1.0000   1.0000   1.0000   1.0000
     1.0000   1.0000   1.0000   1.0000   1.0000   1.0000   1.0000   1.0000
     1.0000   1.0000   1.0000   1.0000   1.0000   1.0000   1.0000   1.0000
     1.0000   1.0000   1.0000   1.0000   1.0000   1.0000   1.0000   1.0000
     1.0000   1.0000   1.0000   1.0000   1.0000   1.0000   1.0000   1.0000
     1.0000   1.0000   1.0000   1.0000  -0.0000  -0.0000  -0.0000  -0.0000
    -0.0000  -0.0000  -0.0000  -0.0000  -0.0000  -0.0000  -0.0000  -0.0000
    -0.0000  -0.0000  -0.0000  -0.0000  -0.0000  -0.0000  -0.0000  -0.0000
    -0.0000  -0.0000  -0.0000  -0.0000  -0.0000  -0.0000  -0.0000  -0.0000
    -0.0000  -0.0000  -0.0000  -0.0000  -0.0000  -0.0000  -0.0000  -0.0000

          k =-0.2500-0.5000-0.2500 ( 18128 PWs)   bands (ev):

   -22.7368 -22.7368 -22.7183 -22.7183 -22.6843 -22.6843 -22.6532 -22.6532
   -22.6255 -22.6255 -21.4469 -21.4469 -21.4434 -21.4434 -21.4280 -21.4280
   -17.2036 -17.2036 -17.2036 -17.2036 -14.2110 -14.2110 -14.2104 -14.2104
   -14.2103 -14.2103  -9.3936  -9.3936  -9.3338  -9.3338  -9.3085  -9.3085
    -7.5703  -7.5703  -7.3829  -7.3829  -7.3148  -7.3148  -7.2958  -7.2958
    -7.2346  -7.2346  -7.1937  -7.1937  -3.2118  -3.2118  -2.0666  -2.0666
     3.3945   3.3945   3.8886   3.8886   4.0683   4.0683   4.4120   4.4120
     5.2424   5.2424   5.4812   5.4812   7.1903   7.1903   7.2264   7.2264
     7.5382   7.5382   7.6052   7.6052   7.8740   7.8740   7.9154   7.9154
     8.3670   8.3670   8.5154   8.5154   8.7235   8.7235   9.1870   9.1870
     9.2696   9.2696   9.4786   9.4786   9.5495   9.5495   9.9066   9.9066
    10.8124  10.8124  10.8828  10.8828  11.2057  11.2057  11.4774  11.5666

     occupation numbers 
     1.0000   1.0000   1.0000   1.0000   1.0000   1.0000   1.0000   1.0000
     1.0000   1.0000   1.0000   1.0000   1.0000   1.0000   1.0000   1.0000
     1.0000   1.0000   1.0000   1.0000   1.0000   1.0000   1.0000   1.0000
     1.0000   1.0000   1.0000   1.0000   1.0000   1.0000   1.0000   1.0000
     1.0000   1.0000   1.0000   1.0000   1.0000   1.0000   1.0000   1.0000
     1.0000   1.0000   1.0000   1.0000   1.0000   1.0000   1.0000   1.0000
     1.0000   1.0000   1.0000   1.0000   1.0000   1.0000   1.0000   1.0000
     1.0000   1.0000   1.0000   1.0000  -0.0000  -0.0000  -0.0000  -0.0000
    -0.0000  -0.0000  -0.0000  -0.0000  -0.0000  -0.0000  -0.0000  -0.0000
    -0.0000  -0.0000  -0.0000  -0.0000  -0.0000  -0.0000  -0.0000  -0.0000
    -0.0000  -0.0000  -0.0000  -0.0000  -0.0000  -0.0000  -0.0000  -0.0000
    -0.0000  -0.0000  -0.0000  -0.0000  -0.0000  -0.0000  -0.0000  -0.0000

          k =-0.2500-0.2500 0.0000 ( 18095 PWs)   bands (ev):

   -22.7530 -22.7530 -22.7368 -22.7368 -22.6977 -22.6977 -22.6255 -22.6255
   -22.6092 -22.6092 -21.4433 -21.4433 -21.4399 -21.4399 -21.4279 -21.4279
   -17.2036 -17.2036 -17.2036 -17.2036 -14.2110 -14.2110 -14.2104 -14.2104
   -14.2104 -14.2104  -9.3784  -9.3784  -9.3565  -9.3565  -9.2809  -9.2809
    -7.4911  -7.4911  -7.3805  -7.3805  -7.3455  -7.3455  -7.2895  -7.2895
    -7.2673  -7.2673  -7.1935  -7.1935  -3.2222  -3.2222  -2.5019  -2.5019
     4.0457   4.0457   4.1460   4.1460   4.5342   4.5342   4.9763   4.9763
     5.2368   5.2368   5.6124   5.6124   6.7059   6.7059   6.7890   6.7890
     6.9556   6.9556   7.2131   7.2131   7.4539   7.4539   7.9445   7.9445
     8.6384   8.6384   8.7963   8.7963   8.8804   8.8804   9.0231   9.0231
     9.3501   9.3501   9.5940   9.5940   9.8047   9.8047   9.9132   9.9132
    10.1420  10.1420  10.7293  10.7293  10.8975  10.8976  11.8284  11.8286

     occupation numbers 
     1.0000   1.0000   1.0000   1.0000   1.0000   1.0000   1.0000   1.0000
     1.0000   1.0000   1.0000   1.0000   1.0000   1.0000   1.0000   1.0000
     1.0000   1.0000   1.0000   1.0000   1.0000   1.0000   1.0000   1.0000
     1.0000   1.0000   1.0000   1.0000   1.0000   1.0000   1.0000   1.0000
     1.0000   1.0000   1.0000   1.0000   1.0000   1.0000   1.0000   1.0000
     1.0000   1.0000   1.0000   1.0000   1.0000   1.0000   1.0000   1.0000
     1.0000   1.0000   1.0000   1.0000   1.0000   1.0000   1.0000   1.0000
     1.0000   1.0000   1.0000   1.0000  -0.0001  -0.0001  -0.0000  -0.0000
    -0.0000  -0.0000  -0.0000  -0.0000  -0.0000  -0.0000  -0.0000  -0.0000
    -0.0000  -0.0000  -0.0000  -0.0000  -0.0000  -0.0000  -0.0000  -0.0000
    -0.0000  -0.0000  -0.0000  -0.0000  -0.0000  -0.0000  -0.0000  -0.0000
    -0.0000  -0.0000  -0.0000  -0.0000  -0.0000  -0.0000  -0.0000  -0.0000

          k =-0.2500-0.2500 0.2500 ( 18079 PWs)   bands (ev):

   -22.7368 -22.7368 -22.7367 -22.7367 -22.6955 -22.6955 -22.6255 -22.6255
   -22.6254 -22.6254 -21.4434 -21.4434 -21.4432 -21.4432 -21.4278 -21.4278
   -17.2036 -17.2036 -17.2036 -17.2036 -14.2110 -14.2110 -14.2104 -14.2104
   -14.2104 -14.2104  -9.3870  -9.3870  -9.3462  -9.3462  -9.2926  -9.2926
    -7.5377  -7.5377  -7.3735  -7.3735  -7.3280  -7.3280  -7.2897  -7.2897
    -7.2652  -7.2652  -7.1857  -7.1857  -3.2168  -3.2168  -2.2968  -2.2968
     3.9044   3.9044   4.0211   4.0211   4.1941   4.1941   4.5307   4.5307
     5.2630   5.2630   5.5427   5.5427   6.8699   6.8699   7.0496   7.0496
     7.0680   7.0680   7.5330   7.5330   7.8058   7.8058   7.9001   7.9001
     8.4564   8.4564   8.5629   8.5629   8.7799   8.7799   9.1307   9.1307
     9.3955   9.3955   9.4444   9.4444   9.6038   9.6038  10.5373  10.5373
    10.7703  10.7703  10.8061  10.8061  11.0077  11.0077  11.0375  11.0375

     occupation numbers 
     1.0000   1.0000   1.0000   1.0000   1.0000   1.0000   1.0000   1.0000
     1.0000   1.0000   1.0000   1.0000   1.0000   1.0000   1.0000   1.0000
     1.0000   1.0000   1.0000   1.0000   1.0000   1.0000   1.0000   1.0000
     1.0000   1.0000   1.0000   1.0000   1.0000   1.0000   1.0000   1.0000
     1.0000   1.0000   1.0000   1.0000   1.0000   1.0000   1.0000   1.0000
     1.0000   1.0000   1.0000   1.0000   1.0000   1.0000   1.0000   1.0000
     1.0000   1.0000   1.0000   1.0000   1.0000   1.0000   1.0000   1.0000
     1.0000   1.0000   1.0000   1.0000  -0.0000  -0.0000  -0.0000  -0.0000
    -0.0000  -0.0000  -0.0000  -0.0000  -0.0000  -0.0000  -0.0000  -0.0000
    -0.0000  -0.0000  -0.0000  -0.0000  -0.0000  -0.0000  -0.0000  -0.0000
    -0.0000  -0.0000  -0.0000  -0.0000  -0.0000  -0.0000  -0.0000  -0.0000
    -0.0000  -0.0000  -0.0000  -0.0000  -0.0000  -0.0000  -0.0000  -0.0000

          k =-0.2500-0.2500-0.5000 ( 18128 PWs)   bands (ev):

   -22.7368 -22.7368 -22.7183 -22.7183 -22.6843 -22.6843 -22.6532 -22.6532
   -22.6255 -22.6255 -21.4469 -21.4469 -21.4434 -21.4434 -21.4280 -21.4280
   -17.2036 -17.2036 -17.2036 -17.2036 -14.2110 -14.2110 -14.2104 -14.2104
   -14.2103 -14.2103  -9.3936  -9.3936  -9.3338  -9.3338  -9.3085  -9.3085
    -7.5703  -7.5703  -7.3829  -7.3829  -7.3148  -7.3148  -7.2958  -7.2958
    -7.2346  -7.2346  -7.1937  -7.1937  -3.2118  -3.2118  -2.0666  -2.0666
     3.3945   3.3945   3.8886   3.8886   4.0683   4.0683   4.4120   4.4120
     5.2424   5.2424   5.4812   5.4812   7.1903   7.1903   7.2264   7.2264
     7.5382   7.5382   7.6052   7.6052   7.8740   7.8740   7.9154   7.9154
     8.3670   8.3670   8.5154   8.5154   8.7235   8.7235   9.1870   9.1870
     9.2696   9.2696   9.4786   9.4786   9.5495   9.5495   9.9066   9.9066
    10.8124  10.8124  10.8828  10.8828  11.2057  11.2057  11.4773  11.4774

     occupation numbers 
     1.0000   1.0000   1.0000   1.0000   1.0000   1.0000   1.0000   1.0000
     1.0000   1.0000   1.0000   1.0000   1.0000   1.0000   1.0000   1.0000
     1.0000   1.0000   1.0000   1.0000   1.0000   1.0000   1.0000   1.0000
     1.0000   1.0000   1.0000   1.0000   1.0000   1.0000   1.0000   1.0000
     1.0000   1.0000   1.0000   1.0000   1.0000   1.0000   1.0000   1.0000
     1.0000   1.0000   1.0000   1.0000   1.0000   1.0000   1.0000   1.0000
     1.0000   1.0000   1.0000   1.0000   1.0000   1.0000   1.0000   1.0000
     1.0000   1.0000   1.0000   1.0000  -0.0000  -0.0000  -0.0000  -0.0000
    -0.0000  -0.0000  -0.0000  -0.0000  -0.0000  -0.0000  -0.0000  -0.0000
    -0.0000  -0.0000  -0.0000  -0.0000  -0.0000  -0.0000  -0.0000  -0.0000
    -0.0000  -0.0000  -0.0000  -0.0000  -0.0000  -0.0000  -0.0000  -0.0000
    -0.0000  -0.0000  -0.0000  -0.0000  -0.0000  -0.0000  -0.0000  -0.0000

          k =-0.2500-0.2500-0.2500 ( 18079 PWs)   bands (ev):

   -22.7368 -22.7368 -22.7367 -22.7367 -22.6955 -22.6955 -22.6255 -22.6255
   -22.6254 -22.6254 -21.4434 -21.4434 -21.4432 -21.4432 -21.4278 -21.4278
   -17.2036 -17.2036 -17.2036 -17.2036 -14.2110 -14.2110 -14.2104 -14.2104
   -14.2104 -14.2104  -9.3870  -9.3870  -9.3462  -9.3462  -9.2926  -9.2926
    -7.5377  -7.5377  -7.3735  -7.3735  -7.3280  -7.3280  -7.2897  -7.2897
    -7.2652  -7.2652  -7.1857  -7.1857  -3.2168  -3.2168  -2.2968  -2.2968
     3.9044   3.9044   4.0211   4.0211   4.1941   4.1941   4.5307   4.5307
     5.2630   5.2630   5.5427   5.5427   6.8699   6.8699   7.0496   7.0496
     7.0680   7.0680   7.5330   7.5330   7.8058   7.8058   7.9001   7.9001
     8.4564   8.4564   8.5629   8.5629   8.7799   8.7799   9.1307   9.1307
     9.3955   9.3955   9.4444   9.4444   9.6038   9.6038  10.5373  10.5373
    10.7703  10.7703  10.8061  10.8061  11.0077  11.0077  11.0375  11.0375

     occupation numbers 
     1.0000   1.0000   1.0000   1.0000   1.0000   1.0000   1.0000   1.0000
     1.0000   1.0000   1.0000   1.0000   1.0000   1.0000   1.0000   1.0000
     1.0000   1.0000   1.0000   1.0000   1.0000   1.0000   1.0000   1.0000
     1.0000   1.0000   1.0000   1.0000   1.0000   1.0000   1.0000   1.0000
     1.0000   1.0000   1.0000   1.0000   1.0000   1.0000   1.0000   1.0000
     1.0000   1.0000   1.0000   1.0000   1.0000   1.0000   1.0000   1.0000
     1.0000   1.0000   1.0000   1.0000   1.0000   1.0000   1.0000   1.0000
     1.0000   1.0000   1.0000   1.0000  -0.0000  -0.0000  -0.0000  -0.0000
    -0.0000  -0.0000  -0.0000  -0.0000  -0.0000  -0.0000  -0.0000  -0.0000
    -0.0000  -0.0000  -0.0000  -0.0000  -0.0000  -0.0000  -0.0000  -0.0000
    -0.0000  -0.0000  -0.0000  -0.0000  -0.0000  -0.0000  -0.0000  -0.0000
    -0.0000  -0.0000  -0.0000  -0.0000  -0.0000  -0.0000  -0.0000  -0.0000

     the Fermi energy is     6.3052 ev

!    total energy              =    -514.51339416 Ry
     estimated scf accuracy    <          8.5E-09 Ry
     smearing contrib. (-TS)   =      -0.00000253 Ry
     internal energy E=F+TS    =    -514.51339163 Ry

     The total energy is F=E-TS. E is the sum of the following terms:
     one-electron contribution =    -247.45456131 Ry
     hartree contribution      =     143.26954366 Ry
     xc contribution           =    -128.49665443 Ry
     ewald contribution        =    -281.83171955 Ry

     convergence has been achieved in  10 iterations

     Writing all to output data dir ./out_soc_nc/Ba3BiSb_soc_nc.save/ :
     XML data file, charge density, pseudopotentials, collected wavefunctions

     init_run     :     16.36s CPU     18.65s WALL (       1 calls)
     electrons    :    609.86s CPU    663.96s WALL (       1 calls)

     Called by init_run:
     wfcinit      :     14.92s CPU     17.16s WALL (       1 calls)
     wfcinit:atom :      0.08s CPU      0.10s WALL (       8 calls)
     wfcinit:wfcr :     14.40s CPU     14.75s WALL (       8 calls)
     potinit      :      0.19s CPU      0.22s WALL (       1 calls)
     hinit0       :      1.21s CPU      1.22s WALL (       1 calls)

     Called by electrons:
     c_bands      :    562.86s CPU    606.03s WALL (      11 calls)
     sum_band     :     44.65s CPU     53.11s WALL (      11 calls)
     v_of_rho     :      1.38s CPU      2.14s WALL (      11 calls)
     v_h          :      0.06s CPU      0.16s WALL (      11 calls)
     v_xc         :      1.32s CPU      1.98s WALL (      11 calls)
     mix_rho      :      0.45s CPU      1.59s WALL (      11 calls)

     Called by c_bands:
     init_us_2    :      2.58s CPU      5.90s WALL (     184 calls)
     cegterg      :    504.70s CPU    532.58s WALL (      88 calls)

     Called by sum_band:
     sum_band:wei :      0.07s CPU      0.10s WALL (      11 calls)
     sum_band:loo :     43.26s CPU     50.47s WALL (      11 calls)
     sum_band:buf :      0.00s CPU      3.38s WALL (      88 calls)
     sum_band:ini :      1.22s CPU      2.65s WALL (      88 calls)

     Called by *egterg:
     cdiaghg      :      5.26s CPU      5.52s WALL (     497 calls)
     cegterg:over :     66.87s CPU     69.57s WALL (     417 calls)
     cegterg:upda :     40.95s CPU     43.74s WALL (     417 calls)
     cegterg:last :     71.34s CPU     76.15s WALL (     185 calls)
     h_psi        :    304.45s CPU    320.04s WALL (     513 calls)
     g_psi        :      1.04s CPU      1.11s WALL (     417 calls)

     Called by h_psi:
     h_psi:calbec :     56.68s CPU     60.04s WALL (     513 calls)
     vloc_psi     :    191.81s CPU    200.12s WALL (     513 calls)
                                        0.00s GPU  (     513 calls)
     add_vuspsi   :     54.88s CPU     56.34s WALL (     513 calls)

     General routines
     calbec       :     56.68s CPU     60.03s WALL (     513 calls)
     fft          :      1.08s CPU      1.12s WALL (     174 calls)
     ffts         :      0.13s CPU      0.14s WALL (      44 calls)
     fftw         :    192.18s CPU    199.93s WALL (  102692 calls)
     davcio       :      0.01s CPU     17.32s WALL (     386 calls)

     Parallel routines

     PWSCF        :  10m26.87s CPU  11m27.38s WALL


   This run was terminated on:  22:30:46   8Jul2026            

=------------------------------------------------------------------------------=
   JOB DONE.
=------------------------------------------------------------------------------=
